x_mm,y_mm,E_xx,E_yy,E_xy,E_zz,von_mises
0.0,0.0,0.02333390782218601,0.02122710489189085,3.882404643749196e-05,-0.013368303814223059,0.0223551884220666
0.10101010101010101,0.0,0.023290439290005845,0.020896370936690205,-3.203885546040755e-05,-0.013256043068008814,0.022190545316137476
0.20202020202020202,0.0,0.02281830281992352,0.020479957294228388,3.650230205525018e-06,-0.012989478034245572,0.021743637392324332
0.30303030303030304,0.0,0.022629020969272686,0.020356417918972854,3.254298386382103e-05,-0.012895631666473662,0.021582717848068703
0.40404040404040403,0.0,0.02256836335033714,0.020249068527921132,-6.063994230774944e-05,-0.012845229563477481,0.021502988074337377
0.5050505050505051,0.0,0.02227615351689127,0.01992922606317208,-0.0001281185173189357,-0.012661613874019003,0.02120150491810694
0.6060606060606061,0.0,0.022265279497799068,0.02002622090041488,-1.548549851909131e-05,-0.012687450119464183,0.0212344886549433
0.7070707070707071,0.0,0.02176907718585118,0.01974222555972872,-3.8188634355245186e-05,-0.012453390823673971,0.020829847206830766
0.8080808080808081,0.0,0.021637043426968382,0.01960222649076496,-8.335341358046778e-05,-0.012371780975320002,0.020695302587410463
0.9090909090909091,0.0,0.021542890146832732,0.019550883884837097,-5.451914722758608e-05,-0.01232813220950095,0.020619397415167134
1.0101010101010102,0.0,0.021301463634182033,0.018944242016027454,2.5049542396535756e-05,-0.012073711695062847,0.020226182501336485
1.1111111111111112,0.0,0.021162495148774677,0.01895840872985494,6.228411030811902e-05,-0.012036271163588883,0.020151349027975763
1.2121212121212122,0.0,0.020952020631967692,0.018880440157752358,-1.3781007257371747e-05,-0.011949738236916016,0.019996884435718783
1.3131313131313131,0.0,0.02106887379525879,0.01874665681368826,-3.869504774382422e-05,-0.011944659182684114,0.020009201136484196
1.4141414141414141,0.0,0.02069927230243502,0.018523448389218516,-2.7632691506563097e-05,-0.01176681620749606,0.01970173602977108
1.5151515151515151,0.0,0.02063872014647824,0.018355616404202395,7.139734110964846e-05,-0.01169830096520419,0.01959755815200927
1.6161616161616161,0.0,0.020439271215925956,0.018536136106602295,4.025631730268903e-05,-0.011692622196758476,0.01955740008630367
1.7171717171717171,0.0,0.020441590255078648,0.018420866564146,4.281548436606091e-05,-0.011658737045767394,0.01951001358738512
1.8181818181818181,0.0,0.020080504353628514,0.0183617622569882,7.50954346870176e-05,-0.011532679983185013,0.019279119256580143
1.9191919191919191,0.0,0.020116291006816407,0.017984179871623932,8.468124890146806e-05,-0.011430141263532102,0.01914007331362854
2.0202020202020203,0.0,0.020120550770520006,0.017864325220705513,-2.2481991262467224e-05,-0.011395462797367655,0.01909272459958807
2.121212121212121,0.0,0.020017039823011305,0.017990334086205303,-2.1313687453053e-05,-0.011402212172764983,0.019084604601517688
2.2222222222222223,0.0,0.01995721120382665,0.017937851606012276,-8.14917252201209e-05,-0.011368518842951677,0.01902858977783722
2.323232323232323,0.0,0.01972920580683498,0.017851207279682795,-2.3622972798375083e-05,-0.011274123925955332,0.018860506221304082
2.4242424242424243,0.0,0.019588849479757125,0.017586800898631256,4.354781332650156e-05,-0.011152695113516515,0.0186686658171137
2.525252525252525,0.0,0.019709982152948263,0.01769953636527906,3.5715703049558254e-05,-0.011222855555468198,0.018785719708720207
2.6262626262626263,0.0,0.019660141469177748,0.017580113913345775,3.218634503206246e-05,-0.011172076614757057,0.01870714166023441
2.727272727272727,0.0,0.01955860685821095,0.017727025211053838,7.918150023153066e-05,-0.011185689620779435,0.01871067655988782
2.8282828282828283,0.0,0.019572409641721033,0.017388888590800684,-2.1340688600308405e-05,-0.011088389469756514,0.018577179042259948
2.929292929292929,0.0,0.019520669563997946,0.017375833756229333,2.6702113187908352e-05,-0.011068950996068184,0.018541584851493858
3.0303030303030303,0.0,0.01937523355080708,0.017506976575802857,-3.8848487357459115e-05,-0.01106466303798298,0.018512068270840266
3.131313131313131,0.0,0.019348834044911573,0.017321312623014635,-3.704674067593989e-05,-0.011001044000377862,0.018419070657391408
3.2323232323232323,0.0,0.01885984509464077,0.017339172252196056,8.292679026426674e-06,-0.010859705204051046,0.01814736220350044
3.3333333333333335,0.0,0.019287550682093174,0.01719516486116104,-5.957701744530602e-05,-0.010944814662976265,0.018331430397905454
3.4343434343434343,0.0,0.019142062299473583,0.017355360328638478,6.336468285165358e-05,-0.010949226788433618,0.018314522593349102
3.5353535353535355,0.0,0.019192098262765654,0.017232596287638537,1.8938221382691937e-05,-0.010927408365121256,0.018291265818257192
3.6363636363636362,0.0,0.01917675919494785,0.017322775802790007,-1.9070463367708673e-05,-0.010949860499321357,0.018320290544210527
3.7373737373737375,0.0,0.01901018417205636,0.017019035022354675,0.00011040650060423825,-0.01080876575832331,0.018097962148488557
3.8383838383838382,0.0,0.019031514922960235,0.017048156203571113,-2.7521200733568808e-05,-0.010823901337959404,0.018121485128335012
3.9393939393939394,0.0,0.01906697222162711,0.01711217052426346,-0.00010278129864597586,-0.01085374282376717,0.01816948600538682
4.040404040404041,0.0,0.01895604898423245,0.0171893270566074,-2.7056480704239895e-05,-0.010843612812251956,0.018137398606747263
4.141414141414141,0.0,0.019071554414584326,0.016935223276746424,5.229752916076005e-05,-0.010802033307399223,0.01809842943657734
4.242424242424242,0.0,0.018901430796672575,0.01689416824446806,5.3585426501638595e-05,-0.010738679712342191,0.01798225984373041
4.343434343434343,0.0,0.01876892594281714,0.01722768295784137,2.3739494699517215e-05,-0.01079898267019755,0.01804777621291943
4.444444444444445,0.0,0.018743686670915038,0.017194138292872155,3.726507804062199e-05,-0.010781347489136159,0.01801906787189607
4.545454545454545,0.0,0.018879099187979847,0.016959858031710538,-8.059749509481579e-05,-0.010751687165907114,0.017996939086391453
4.646464646464646,0.0,0.018847215700062023,0.016949935689877658,1.1077960710415058e-05,-0.010739145416981902,0.01797384582247187
4.747474747474747,0.0,0.01895731193292934,0.01695710220463033,3.925217631175133e-06,-0.010774324241267902,0.01804056432462475
4.848484848484849,0.0,0.018900843646683187,0.017002136123424175,-1.34565332783025e-05,-0.010770893931032208,0.018026656651254233
4.94949494949495,0.0,0.018989380603208383,0.016991101015715607,-8.032707908282224e-06,-0.010794144485677197,0.01807328965456935
5.05050505050505,0.0,0.01897699860158937,0.016963222612419754,-2.5546531252318923e-05,-0.010782066364202737,0.01805459230790527
5.151515151515151,0.0,0.018965324646885474,0.01711293920569203,-6.240624989952743e-05,-0.010823479155773252,0.018110645022781185
5.252525252525253,0.0,0.018845857351130434,0.01699916582175855,1.8393736003305497e-05,-0.010753506951866694,0.01799375277028947
5.353535353535354,0.0,0.01896287009700229,0.017064684119544798,1.0526481236454214e-05,-0.010808266264964126,0.018088638164072603
5.454545454545454,0.0,0.018864655511036412,0.016968634849804435,4.98664079765229e-05,-0.010749987108252253,0.017991937229155725
5.555555555555555,0.0,0.01895524964209973,0.017001352428576557,4.922982054821075e-05,-0.010786980621202886,0.0180579584832753
5.656565656565657,0.0,0.018934810421478064,0.016955807992467573,4.71490208814687e-05,-0.010767185524183692,0.018027149790937436
5.757575757575758,0.0,0.01916458865765397,0.017129783738689744,4.142551015135203e-05,-0.010888311718903114,0.01823268599037108
5.858585858585858,0.0,0.018979329957110696,0.017105823734020746,-1.875523985731082e-05,-0.010825546107339431,0.018115412048341
5.959595959595959,0.0,0.018928842106017606,0.017226572572909785,-1.1984070945885692e-05,-0.010846624403678217,0.01813772931426862
6.0606060606060606,0.0,0.018888950253222684,0.017261648629068357,1.737687039881228e-05,-0.01084517966468731,0.018130180326900548
6.161616161616162,0.0,0.018930045733594,0.017094277344610397,-8.588865297628783e-05,-0.010807296923461319,0.01808279923231844
6.262626262626262,0.0,0.019024841480338166,0.01716936624104611,-7.307653588241518e-06,-0.010858262316415283,0.018168308111180868
6.363636363636363,0.0,0.019002088328729846,0.017191162941302095,-9.051920015558035e-07,-0.01085797538100958,0.018164455673131456
6.4646464646464645,0.0,0.019317583912251315,0.017107297357751388,-4.2910598431240326e-05,-0.010927464381000812,0.018312906455054425
6.565656565656566,0.0,0.01913477159962293,0.01727915319929509,4.3164839405393666e-05,-0.010924177439675404,0.018277898105666397
6.666666666666667,0.0,0.01913315428806838,0.017310587362680603,-3.464609879467003e-05,-0.010933122495224695,0.018290202024068985
6.767676767676767,0.0,0.019243807156743904,0.017320364323059112,-9.261079067218984e-05,-0.010969251443940904,0.018358516103639665
6.8686868686868685,0.0,0.019114685209231617,0.017388259200067476,-3.63215026520762e-05,-0.010950883322789727,0.018312717042143104
6.96969696969697,0.0,0.019377605777098884,0.017388656439928058,0.00011618044841254183,-0.011029878665108083,0.018464748648220206
7.070707070707071,0.0,0.019425478589302343,0.01741724663342742,-1.3870914213337955e-05,-0.011052817566818926,0.018503294959482844
7.171717171717171,0.0,0.019469966226471448,0.01744225823213681,-7.16168379061309e-05,-0.011073667337582476,0.018539880401928187
7.2727272727272725,0.0,0.01943153299535527,0.017497790956017816,-6.51998735715793e-05,-0.011078797185411925,0.01854079323149178
7.373737373737374,0.0,0.01966895929490901,0.017641964509311856,1.0120225551081084e-05,-0.011193277141266259,0.018737878666850685
7.474747474747475,0.0,0.019646352268848692,0.01767665946825806,3.4249777862683876e-05,-0.011196903521132026,0.018739399342573043
7.575757575757575,0.0,0.0197715936550597,0.017763598338438696,-8.529184183900681e-05,-0.011260557598049519,0.01884856804868021
7.6767676767676765,0.0,0.01966780472492122,0.01791286803223553,-5.216958238642046e-06,-0.011274201827147024,0.018851702176901335
7.777777777777778,0.0,0.019699009215090803,0.017837516434989334,-5.834089106468303e-05,-0.01126095769502404,0.018837642288149256
7.878787878787879,0.0,0.020007773666903674,0.01805234778836183,2.1361874225987654e-05,-0.011418036436579652,0.01910529633534259
7.979797979797979,0.0,0.02005516559047663,0.017985223024264224,-2.7748007151820188e-05,-0.011412116584422255,0.01910454391019039
8.080808080808081,0.0,0.020128670440327345,0.018341213195661562,-3.0192762057231488e-05,-0.011540965090796673,0.01929720119865585
8.181818181818182,0.0,0.020157907084489692,0.018185818508558285,-9.678252560456701e-05,-0.011503117677914393,0.019248513544531616
8.282828282828282,0.0,0.02045314786983963,0.01825553356254783,-3.4572763209252464e-05,-0.011612604429716235,0.019447781926715764
8.383838383838384,0.0,0.020358194758574564,0.018531265255287692,5.323844007100378e-05,-0.011666838004158677,0.019509210173516416
8.484848484848484,0.0,0.0207899692850804,0.018537394495340753,-2.1736238340666777e-06,-0.011798209134126344,0.01976021177874481
8.585858585858587,0.0,0.02076086597949176,0.01864525793903354,4.2921632441257484e-05,-0.01182183717555759,0.019788204198607204
8.686868686868687,0.0,0.020789357309853276,0.0185912263090602,6.473919384487749e-05,-0.011814175085674042,0.01978241643363378
8.787878787878787,0.0,0.021060657453217523,0.018992552328923752,-6.031016177480101e-05,-0.012015962934642382,0.02010680505485001
8.88888888888889,0.0,0.021139871407244087,0.019037435677135874,-2.6894399912854372e-05,-0.012053192125313987,0.020171052229960854
8.98989898989899,0.0,0.02131749866777546,0.019090695039520014,-4.816321156140516e-05,-0.012122458112188641,0.020296095179997822
9.09090909090909,0.0,0.02167480743583182,0.019233706122326322,-3.6259906005755643e-06,-0.012272554067447441,0.020563216955161084
9.191919191919192,0.0,0.02187781674067511,0.019304015195588706,-4.8520078623749875e-05,-0.012354549580879145,0.020711379089666516
9.292929292929292,0.0,0.0219516353862381,0.01970750112137623,-9.37574654641563e-05,-0.012497740952284299,0.02092066894188729
9.393939393939394,0.0,0.02189304574297148,0.019958213065094595,2.2615465552534308e-05,-0.012555377642419822,0.02099264593735896
9.494949494949495,0.0,0.02216081937151766,0.019987023157941375,1.3232488802388198e-05,-0.01264435275883771,0.021157852567118374
9.595959595959595,0.0,0.02234759587489708,0.01995587184409898,3.875092660035484e-05,-0.012691040315698818,0.021253014093196177
9.696969696969697,0.0,0.022637888675846953,0.020367539486951476,-1.2597080367979536e-05,-0.012901628448839528,0.021592430456188676
9.797979797979798,0.0,0.0230134805464803,0.02051079942300081,1.0901005565605823e-05,-0.013057283990844333,0.021869811449017482
9.8989898989899,0.0,0.023412765106255767,0.020826710303441145,5.8027651180117856e-05,-0.013271842622909074,0.022233053261722042
10.0,0.0,0.023372320651197608,0.021115590081577318,-5.926591720466097e-05,-0.013346373219832479,0.02232988384064185
0.0,0.10126582278481013,0.02354785214362624,0.021010540221559276,-4.6672702027370796e-05,-0.013367517709555654,0.022387442493688212
0.10101010101010101,0.10126582278481013,0.02305602204571886,0.020801091687014585,4.89312906862e-05,-0.013157134119820033,0.022015501862257387
0.20202020202020202,0.10126582278481013,0.02293000451589974,0.020515206227680046,1.2555423642005119e-05,-0.013033563223073936,0.02182304962955671
0.30303030303030304,0.10126582278481013,0.022615782056304365,0.02040655017402786,2.9663392345730175e-05,-0.012906699669099667,0.021596144019640575
0.40404040404040403,0.10126582278481013,0.022401888871620586,0.020035854376169723,1.1518315373728082e-05,-0.012731322974337092,0.021317586646507566
0.5050505050505051,0.10126582278481013,0.022246106265347617,0.020009696587984457,2.0460021082399834e-05,-0.012676740855999622,0.021216517638765735
0.6060606060606061,0.10126582278481013,0.022029666511073735,0.01976257204993581,3.4445655974294746e-05,-0.012537671568302863,0.020988238336423607
0.7070707070707071,0.10126582278481013,0.021947670551934417,0.019465968016637348,-0.0001308325826836831,-0.012424091570571527,0.02081929038107264
0.8080808080808081,0.10126582278481013,0.021647703952693262,0.01939588017031796,1.709061513240519e-05,-0.012313075236903366,0.0206142634707914
0.9090909090909091,0.10126582278481013,0.021467796991159676,0.019198224800998545,8.960189327368908e-05,-0.012199806537647467,0.020428378203926786
1.0101010101010102,0.10126582278481013,0.02148344268857372,0.019220180239795707,-6.465786904202662e-05,-0.01221108687851083,0.02044628424623516
1.1111111111111112,0.10126582278481013,0.021134360946453032,0.01906815555471693,7.13476507491247e-05,-0.012060754950350987,0.02018112381060932
1.2121212121212122,0.10126582278481013,0.020922450396122144,0.01914853308693348,3.261675330994814e-05,-0.012021295044916688,0.020094382494804313
1.3131313131313131,0.10126582278481013,0.020867137715006995,0.018946550956148608,2.6687908321550587e-05,-0.01194410660134668,0.019976262870166787
1.4141414141414141,0.10126582278481013,0.020645253519915384,0.018702319315520334,-1.4231458100721338e-05,-0.011804271850630715,0.019745625454898483
1.5151515151515151,0.10126582278481013,0.020722060241080868,0.018598826886635902,-3.9464791734314496e-05,-0.01179626613831503,0.01974636177742855
1.6161616161616161,0.10126582278481013,0.02043483152363405,0.018193249969397716,7.893943115133092e-05,-0.011588424447909529,0.019411836084143787
1.7171717171717171,0.10126582278481013,0.02014312332927866,0.018232372759576905,9.180290198510045e-06,-0.011512648826656669,0.01925897592434079
1.8181818181818181,0.10126582278481013,0.020193887289134307,0.018384205399018146,4.579790447939513e-05,-0.011573427806445736,0.01935277273714662
1.9191919191919191,0.10126582278481013,0.020282437220748704,0.017953101956552853,-2.879215197246245e-05,-0.011470661753190468,0.019223968193080115
2.0202020202020203,0.10126582278481013,0.02009053519367499,0.01814441473839021,9.826953263210624e-06,-0.01147048497961956,0.019191630399832443
2.121212121212121,0.10126582278481013,0.02008788427095877,0.01813243048775549,-1.7074063550599993e-05,-0.011466094427614279,0.019185068132754158
2.2222222222222223,0.10126582278481013,0.019876124340229156,0.01786148692136348,8.684418824318548e-06,-0.011321283378477792,0.018949304080553515
2.323232323232323,0.10126582278481013,0.019833007990282363,0.017755671286643675,-2.9846313071821992e-05,-0.01127660378307781,0.018880317017686103
2.4242424242424243,0.10126582278481013,0.01972672894039485,0.017699661978428798,7.074955191138013e-05,-0.011227917275647094,0.018795756200553865
2.525252525252525,0.10126582278481013,0.019633725738869495,0.01769648133003597,-1.2634927146460402e-06,-0.01119906212067164,0.018740351695359106
2.6262626262626263,0.10126582278481013,0.019635815440391835,0.017548764971546452,2.8013522585690326e-05,-0.011155374123581484,0.01868000118094081
2.727272727272727,0.10126582278481013,0.019411294901105512,0.01755141284292067,3.287849406519039e-05,-0.011088812323207855,0.01855149737572301
2.8282828282828283,0.10126582278481013,0.01945574310967551,0.01752609830415988,3.335320759060417e-05,-0.011094552424150616,0.01856637101604612
2.929292929292929,0.10126582278481013,0.019522183982854394,0.017404543365768944,-4.551451862626683e-05,-0.011078018204587,0.018554388004497928
3.0303030303030303,0.10126582278481013,0.019429511945099703,0.01724987510550382,-1.7066346945530835e-06,-0.011003816115181057,0.01843657994054738
3.131313131313131,0.10126582278481013,0.019233856854723713,0.01712574448211193,4.571685340816181e-05,-0.010907880401050693,0.018271412801618023
3.2323232323232323,0.10126582278481013,0.019290587317652073,0.017354030107773793,2.4312803310409013e-05,-0.01099338522762776,0.0183989526949639
3.3333333333333335,0.10126582278481013,0.019279331281536766,0.01710380899017471,-5.34066201555543e-05,-0.010914942081513444,0.01828910751620066
3.4343434343434343,0.10126582278481013,0.019167429819270183,0.01699868903297597,8.421392313022366e-06,-0.010849835655673845,0.01818034181243153
3.5353535353535355,0.10126582278481013,0.01916574126069575,0.016963997336328914,-6.0743587730510464e-05,-0.010838921579107397,0.018165525848542047
3.6363636363636362,0.10126582278481013,0.01890743451991174,0.0170410996753361,-5.269468141265811e-05,-0.01078456025857435,0.01804702225296825
3.7373737373737375,0.10126582278481013,0.01896123690441016,0.0173600721598606,5.7930207992165465e-05,-0.01089639271928123,0.0182137924981854
3.8383838383838382,0.10126582278481013,0.01912477825045927,0.017205729924243775,-2.6961803369485216e-05,-0.010899152452410911,0.01824118134149559
3.9393939393939394,0.10126582278481013,0.019094826149609962,0.017087955989188892,-7.072296498703973e-05,-0.010854834641639657,0.018175095100710376
4.040404040404041,0.10126582278481013,0.019172768335426842,0.016940321400621194,3.441329730809051e-05,-0.01083392692081441,0.01815985214377038
4.141414141414141,0.10126582278481013,0.0191695602180827,0.01725466367927319,-2.387316890523491e-06,-0.010927267169206766,0.018287459098923015
4.242424242424242,0.10126582278481013,0.018851923984889905,0.0170248321774667,8.583658369027133e-06,-0.010763026848706983,0.018008035083690723
4.343434343434343,0.10126582278481013,0.018834505048118518,0.016969573851543254,1.604875739663469e-05,-0.010741223669898532,0.017974767465174978
4.444444444444445,0.10126582278481013,0.018961799893305722,0.01699442194614016,-4.795483279568119e-05,-0.010786866551833765,0.018058856642381094
4.545454545454545,0.10126582278481013,0.01892953430846567,0.016993113682934744,-4.324166301252237e-05,-0.010776794397420124,0.018039597080644915
4.646464646464646,0.10126582278481013,0.018731372847312924,0.017016351418358496,-3.3685887338292694e-05,-0.010724317279701428,0.017935560365847654
4.747474747474747,0.10126582278481013,0.01882783237333941,0.017036371773027983,4.8506815746593876e-05,-0.010759261243910218,0.017999287258345865
4.848484848484849,0.10126582278481013,0.018899387129833158,0.016967304435310634,3.3580059334825275e-05,-0.010760007469543137,0.01801132925334216
4.94949494949495,0.10126582278481013,0.019009932813793682,0.0169512914845879,-8.387455215535698e-06,-0.010788367289514475,0.018068788764042214
5.05050505050505,0.10126582278481013,0.0187883907729776,0.017100640533791286,6.097137449454687e-06,-0.010766709392030666,0.01800394760079632
5.151515151515151,0.10126582278481013,0.01874950069054399,0.016940120763111435,-2.6551774992109035e-05,-0.010706886436096626,0.017913536129360887
5.252525252525253,0.10126582278481013,0.018969283462898338,0.016890828975521792,1.1084319797617794e-05,-0.01075803373152604,0.018020190465212662
5.353535353535354,0.10126582278481013,0.018976821888078806,0.016999154548786782,-1.716434980557395e-05,-0.010792792931059678,0.018069365790471633
5.454545454545454,0.10126582278481013,0.018925045343553437,0.016907316440580866,-3.126653429491418e-05,-0.010749708535240292,0.018001274760143814
5.555555555555555,0.10126582278481013,0.019087788891428755,0.016972517335839432,5.135147420016102e-05,-0.010818091868180457,0.018123192669566
5.656565656565657,0.10126582278481013,0.018987575721201085,0.01729501982400861,-5.21841817125092e-05,-0.010884778663562909,0.018200643217744294
5.757575757575758,0.10126582278481013,0.019003288798978002,0.0169853700104501,-0.00012999769593383478,-0.01079659764282843,0.018080392310622615
5.858585858585858,0.10126582278481013,0.01896272581718911,0.01696576394730876,-3.3265771953283612e-06,-0.010778546929349363,0.018047299518766557
5.959595959595959,0.10126582278481013,0.019125118247419734,0.017286319247058743,6.322728564824499e-05,-0.010923431248343543,0.018275559485151912
6.0606060606060606,0.10126582278481013,0.01910947649251239,0.017049049042707244,-1.7798829163095573e-05,-0.01084755766056589,0.018167132783468452
6.161616161616162,0.10126582278481013,0.01911214915445862,0.017215533121421295,2.7738827737537876e-05,-0.010898304682763975,0.01823801791573288
6.262626262626262,0.10126582278481013,0.0191190456296765,0.01705724034834347,5.940549834306923e-06,-0.010852885793405992,0.018176064024558992
6.363636363636363,0.10126582278481013,0.01919481441646037,0.01715732373594833,7.041570009754318e-06,-0.01090564144572261,0.018261521350067107
6.4646464646464645,0.10126582278481013,0.019102080217379424,0.01730613962567576,-1.6471101016828845e-05,-0.010922465952916556,0.01827045384995299
6.565656565656566,0.10126582278481013,0.019107476450837328,0.017075480255392617,1.2570591858267542e-05,-0.010854887011868984,0.018176875954472836
6.666666666666667,0.10126582278481013,0.01908071977047205,0.01735531685366282,-4.257941287791626e-05,-0.010930810987240462,0.01827934330486267
6.767676767676767,0.10126582278481013,0.019350089763797745,0.01722089628423415,8.85491161201655e-05,-0.010971295814409568,0.018378870384882062
6.8686868686868685,0.10126582278481013,0.019310789710543366,0.01750509200169105,-1.2430581845658946e-06,-0.011044764513670325,0.018474244216197477
6.96969696969697,0.10126582278481013,0.019493300819073897,0.017390033020252483,5.3760708821524906e-05,-0.011065000151797913,0.018531636489862623
7.070707070707071,0.10126582278481013,0.019446085330594047,0.017541496758325285,6.716281407061125e-05,-0.0110962746266758,0.018567564001482014
7.171717171717171,0.10126582278481013,0.01945591219782642,0.017525260530060895,-3.654376334382749e-05,-0.011094351818366193,0.018566134555126478
7.2727272727272725,0.10126582278481013,0.0195176897505169,0.017621357830827043,-3.6882599758586216e-05,-0.011141714274403181,0.018642112295902877
7.373737373737374,0.10126582278481013,0.019474470720005042,0.017739910776251772,-0.0001186667792553547,-0.011164314448877045,0.018668859542017743
7.474747474747475,0.10126582278481013,0.019896318719684246,0.017570487371920313,-0.00010742951148846545,-0.011240041827481369,0.018842296345455645
7.575757575757575,0.10126582278481013,0.019789207508497875,0.017622256811287297,-2.588938446256037e-05,-0.011223439295935552,0.018799685713102476
7.6767676767676765,0.10126582278481013,0.019767783478528998,0.01775433941364714,1.0942160304633723e-05,-0.01125663686765284,0.01884192807353628
7.777777777777778,0.10126582278481013,0.019780257894543053,0.0179201320897631,-9.708665665115672e-05,-0.011310116995291846,0.018919650623256717
7.878787878787879,0.10126582278481013,0.01989496042922004,0.018018953023610035,-7.250841201388798e-05,-0.01137417403584902,0.01902686347183998
7.979797979797979,0.10126582278481013,0.020077961991067088,0.018084646430717284,3.947989855153222e-06,-0.011448782526535311,0.019159232691859897
8.080808080808081,0.10126582278481013,0.020091517860901745,0.018170847161767444,-2.81673653749279e-05,-0.011478709506800758,0.019203417832102075
8.181818181818182,0.10126582278481013,0.02015324820645085,0.018475460989313394,-9.971720041594619e-05,-0.011588612758729274,0.01936970189632249
8.282828282828282,0.10126582278481013,0.020357304067425808,0.018196348156243974,-5.980313545752461e-05,-0.011566095667100935,0.01936773223762929
8.383838383838384,0.10126582278481013,0.020436104051399288,0.01848970330987624,9.467011572946463e-06,-0.011677742208382658,0.01953576836061634
8.484848484848484,0.10126582278481013,0.020709158769925053,0.018665976778574705,-1.6842928240769997e-05,-0.011812540664549927,0.019766945146018674
8.585858585858587,0.10126582278481013,0.020759242654507532,0.018663932596080676,-7.683647066481159e-06,-0.011826952575176462,0.019794938924019262
8.686868686868687,0.10126582278481013,0.02082242667733954,0.018778634520093148,-9.770795984596868e-05,-0.011880318359229806,0.019880202899202774
8.787878787878787,0.10126582278481013,0.020933436275384673,0.018715534828432395,-7.379795267254069e-06,-0.01189469133114512,0.01991732175527773
8.88888888888889,0.10126582278481013,0.021025330644367207,0.019081170572146592,1.7164794280257821e-06,-0.012031950364954138,0.020123808973111258
8.98989898989899,0.10126582278481013,0.021148654697571698,0.019298364491904925,-2.9414841148660056e-05,-0.012134105756842987,0.020286956805075564
9.09090909090909,0.10126582278481013,0.02120053884528133,0.019289112692199205,1.1485614237558493e-05,-0.01214689546124416,0.0203123983965131
9.191919191919192,0.10126582278481013,0.021769224295202852,0.019517006137881935,-3.1811603737285836e-05,-0.012385869129925434,0.020735129774104757
9.292929292929292,0.10126582278481013,0.021867988904993627,0.019616268895070378,-3.3274441363563766e-05,-0.012445277340019201,0.020833672626860672
9.393939393939394,0.10126582278481013,0.022066427304818333,0.01990162646043111,-5.194877662758657e-05,-0.012590416129574832,0.02106780131524861
9.494949494949495,0.10126582278481013,0.022179900228629316,0.02005974193677529,-1.1710702628856967e-05,-0.01267189264962138,0.02119949427165452
9.595959595959595,0.10126582278481013,0.022581775778271085,0.020160714685328714,9.536771842440296e-05,-0.01282274713907994,0.021474486265675875
9.696969696969697,0.10126582278481013,0.02261543002186852,0.020333526158463053,5.335266876070277e-06,-0.012884686854099471,0.021565217563743633
9.797979797979798,0.10126582278481013,0.022917762460077058,0.020719489914644697,-5.667681844163668e-05,-0.013091175712416527,0.02190174392889838
9.8989898989899,0.10126582278481013,0.023050333306097265,0.020868440155700066,8.885866351990447e-05,-0.0131756320385392,0.022041071808631008
10.0,0.10126582278481013,0.023533780560478636,0.021003441705466686,6.731365770431382e-05,-0.013361166679783596,0.022376474168599083
0.0,0.20253164556962025,0.023406010247942442,0.02116298110028597,-0.00010503971615534882,-0.013370697404468524,0.022369739209330358
0.10101010101010101,0.20253164556962025,0.02321485011070157,0.020803830920566813,-7.228195969999853e-05,-0.013205604309380514,0.02210851655199031
0.20202020202020202,0.20253164556962025,0.02290441422781103,0.020650206826681373,-2.0903681962096396e-05,-0.01306638631634772,0.02186466676963881
0.30303030303030304,0.20253164556962025,0.02276846760022228,0.02033362426690287,2.9711297621090456e-05,-0.012930627560137542,0.02165401984984544
0.40404040404040403,0.20253164556962025,0.0225030589928553,0.020381295516749373,4.7360996766235e-05,-0.012865306352881403,0.021520922489633422
0.5050505050505051,0.20253164556962025,0.022233308533198357,0.0201628172902696,5.535555690623237e-05,-0.012718837747040386,0.02127398092537352
0.6060606060606061,0.20253164556962025,0.02182893848118033,0.019913568471391335,-5.6632058186281533e-05,-0.012522752085771499,0.020937295072363478
0.7070707070707071,0.20253164556962025,0.02188055340284329,0.019605439361010134,-7.296369926433221e-05,-0.012445797829156027,0.02083674585755572
0.8080808080808081,0.20253164556962025,0.021519372848226394,0.01962228366224804,-1.4479017044835402e-05,-0.012342496953142329,0.020636346928827702
0.9090909090909091,0.20253164556962025,0.02156076458638046,0.01935205129465653,8.465618971352477e-05,-0.012273844764311098,0.020546165984048143
1.0101010101010102,0.20253164556962025,0.021028941825153486,0.019197554121242088,-6.50322622615938e-06,-0.012067948783918672,0.020175687264594667
1.1111111111111112,0.20253164556962025,0.021209573300297463,0.019072659184302787,2.734302121515745e-05,-0.012084669745380075,0.020226013147989063
1.2121212121212122,0.20253164556962025,0.020980928730122687,0.01892544553405517,6.6597698641947415e-06,-0.011971912279253356,0.02003243789863705
1.3131313131313131,0.20253164556962025,0.020963538287751965,0.01888420821116762,-0.00010103580762845588,-0.011954323949675877,0.02000585064773178
1.4141414141414141,0.20253164556962025,0.020600557895749574,0.018695692931107094,-6.004334254668149e-05,-0.011788875248057001,0.019717531051602347
1.5151515151515151,0.20253164556962025,0.020780447408244758,0.018824346960640316,-1.3884975151053129e-05,-0.011881438310665522,0.019874739227191417
1.6161616161616161,0.20253164556962025,0.020580374136920047,0.018539182759016365,0.00010607206796946144,-0.011735867068780922,0.019640354718419233
1.7171717171717171,0.20253164556962025,0.020386098187884758,0.018210051278721873,5.8280191000939136e-05,-0.01157884483998199,0.019390133142072725
1.8181818181818181,0.20253164556962025,0.020407993602635517,0.018179726948821393,9.171363629069188e-05,-0.011576316165437073,0.019390775067617914
1.9191919191919191,0.20253164556962025,0.020017317822342576,0.018200315566835115,7.641332917633937e-05,-0.011465290016753307,0.01917395408765271
2.0202020202020203,0.20253164556962025,0.02010920347839609,0.018060777296622456,7.576347479009165e-05,-0.011450994232505562,0.019167710238061558
2.121212121212121,0.20253164556962025,0.019851666655839775,0.017930440429173033,1.3734363301489178e-05,-0.011334632125503842,0.01896419791355737
2.2222222222222223,0.20253164556962025,0.01976052369879366,0.017745583239772763,-4.4101923001982506e-05,-0.011251832081569926,0.018834219871040107
2.323232323232323,0.20253164556962025,0.01970753135190776,0.017765631276683007,-2.404677350154183e-05,-0.01124194878857723,0.01881194955382798
2.4242424242424243,0.20253164556962025,0.019793081878345362,0.017543427980712598,1.5802512805177637e-05,-0.011200952957717388,0.018769661644964908
2.525252525252525,0.20253164556962025,0.019499147120696395,0.01752772463611303,2.1843561644177388e-05,-0.011108061527042827,0.018592031072663887
2.6262626262626263,0.20253164556962025,0.01954457504252049,0.017623132957577732,1.2682303820015781e-05,-0.011150312400029465,0.018658217138354184
2.727272727272727,0.20253164556962025,0.01934897794230782,0.017567183552768206,-0.00010634023904918297,-0.011074848448522807,0.018523384222568585
2.8282828282828283,0.20253164556962025,0.019411645530616185,0.01746835425209296,-2.0675199813521602e-05,-0.011063999934812743,0.018516672598761014
2.929292929292929,0.20253164556962025,0.019386746388653467,0.01729961426060447,1.4618998257440287e-05,-0.011005908194777382,0.018432037216681615
3.0303030303030303,0.20253164556962025,0.019235135558417833,0.01734436120352497,4.465020377244123e-05,-0.01097384902858284,0.01836306476346411
3.131313131313131,0.20253164556962025,0.019258500157568872,0.01745378146160129,-2.109933918895801e-05,-0.011013684485751048,0.018422594772353286
3.2323232323232323,0.20253164556962025,0.019319058964140996,0.017356069477413843,-8.918051902904167e-06,-0.01100253853246645,0.018416201995521127
3.3333333333333335,0.20253164556962025,0.019270973719304186,0.017338543594468344,2.73788050866284e-05,-0.010982855194131759,0.01838116299161417
3.4343434343434343,0.20253164556962025,0.01910332307710146,0.017075623466004993,3.554469088142276e-05,-0.010853683962931935,0.01817461162726782
3.5353535353535355,0.20253164556962025,0.019134580750907567,0.017132407006083115,4.5839583526829734e-05,-0.010880096327097204,0.018216378037964356
3.6363636363636362,0.20253164556962025,0.01907144339112631,0.01715977235270995,5.795438550976412e-05,-0.010869364723150875,0.01819137678464281
3.7373737373737375,0.20253164556962025,0.019173576458467893,0.016955818269895232,-6.192402316068406e-05,-0.010838818418508938,0.018166827823003037
3.8383838383838382,0.20253164556962025,0.018965966765396823,0.01728959286002955,1.247609384938522e-05,-0.01087666788762791,0.01818583349753077
3.9393939393939394,0.20253164556962025,0.019027773345900535,0.0170400288378313,-5.2019194546973005e-05,-0.010820340655119548,0.01811609926979388
4.040404040404041,0.20253164556962025,0.018773248541236725,0.017127734873653724,6.65120810809596e-05,-0.010770295024467136,0.018007337685857418
4.141414141414141,0.20253164556962025,0.01890278752783389,0.017105517476699323,-4.956454321264452e-05,-0.010802491501359963,0.018071511059793353
4.242424242424242,0.20253164556962025,0.018996355043915024,0.0169899542180419,9.135424888705358e-05,-0.010795892778587076,0.018077551924312624
4.343434343434343,0.20253164556962025,0.018895148809179477,0.017104718922488278,-4.759232878323541e-05,-0.010799960319500328,0.01806678288041449
4.444444444444445,0.20253164556962025,0.01876941270737003,0.01709481242908627,-5.53254237538442e-05,-0.01075926754093689,0.017990915997696384
4.545454545454545,0.20253164556962025,0.01903225855020062,0.01695181089505816,1.449804009808791e-05,-0.010795220833577633,0.01808203917908991
4.646464646464646,0.20253164556962025,0.01892230083552538,0.017062298415922113,2.7062920610743782e-05,-0.010795379775434247,0.018064322566250093
4.747474747474747,0.20253164556962025,0.01889888535719456,0.016799787896167664,-6.830450535483731e-05,-0.010709601976008665,0.017942058748708366
4.848484848484849,0.20253164556962025,0.01884761551988668,0.016977102905175866,-8.450200843676435e-05,-0.010747415527518763,0.017986054247899612
4.94949494949495,0.20253164556962025,0.01883986646865663,0.017032424313127906,-6.688337034385728e-05,-0.010761687234535362,0.018004690138908208
5.05050505050505,0.20253164556962025,0.01886949187994621,0.017027834551171815,4.807172559180071e-05,-0.010769197929335407,0.018019578801554623
5.151515151515151,0.20253164556962025,0.01887973703360017,0.017034867598130096,4.747385866360875e-05,-0.01077438138951908,0.018028425477300932
5.252525252525253,0.20253164556962025,0.018814867257654973,0.016920399853148766,-5.529294964623295e-05,-0.010720580133241122,0.01794305592314244
5.353535353535354,0.20253164556962025,0.018999434113815886,0.01706255529919628,8.816785381679084e-05,-0.01081859682390365,0.018109492413490833
5.454545454545454,0.20253164556962025,0.018951040283761912,0.017091856014635105,-0.00010848944782682198,-0.010812868889519106,0.018094207025593743
5.555555555555555,0.20253164556962025,0.01900798423492425,0.01714873339659715,3.361435929371395e-05,-0.010847015289456419,0.018150015358305068
5.656565656565657,0.20253164556962025,0.01909365989627015,0.01703537035385931,-8.639534565396978e-05,-0.01083870907503884,0.018152865229798924
5.757575757575758,0.20253164556962025,0.018908595996738782,0.016874774887342445,-4.196372588596136e-05,-0.010735011265224368,0.01797832061257581
5.858585858585858,0.20253164556962025,0.01915085198372396,0.016993613646583212,-3.346330556913159e-05,-0.01084333968909215,0.01816863275637425
5.959595959595959,0.20253164556962025,0.018975945406425894,0.017162107919745095,7.079702494459128e-05,-0.010841415997851296,0.018137592619435025
6.0606060606060606,0.20253164556962025,0.019110810061821113,0.01705603227451302,-9.578874879149362e-05,-0.01085005270090024,0.018171522539812367
6.161616161616162,0.20253164556962025,0.019150641588654045,0.01707524652409571,3.5726216832457656e-06,-0.010867766433824925,0.01820190180134312
6.262626262626262,0.20253164556962025,0.01915445958006797,0.017216543380639545,-2.3361613198936227e-05,-0.010911300888212254,0.01826282400900441
6.363636363636363,0.20253164556962025,0.01905976078688154,0.017203816119324863,1.604358010202419e-05,-0.010879073071861922,0.018202909730431784
6.4646464646464645,0.20253164556962025,0.019138162116495775,0.01720337914446898,4.339951458149576e-05,-0.010902462378289426,0.01824801618589901
6.565656565656566,0.20253164556962025,0.01908798400493783,0.017479348958980453,2.832998962424237e-05,-0.010970199889175485,0.01833672947452092
6.666666666666667,0.20253164556962025,0.01928894448726507,0.01747967487421245,2.519720298652321e-05,-0.011030585808443254,0.018451011883741136
6.767676767676767,0.20253164556962025,0.019163449137026244,0.017266989922960878,2.7115743759167783e-05,-0.010929131717996136,0.018289172930438864
6.8686868686868685,0.20253164556962025,0.019206809655215908,0.01749531978632687,8.212852583511055e-05,-0.011010638832462833,0.01841137446929724
6.96969696969697,0.20253164556962025,0.019308936628311405,0.017437187800022843,-1.1080756523705516e-05,-0.011023837328500274,0.018444439981531047
7.070707070707071,0.20253164556962025,0.01931710317431993,0.017467971378632083,6.757633589817503e-05,-0.011035522365885604,0.018462491528730553
7.171717171717171,0.20253164556962025,0.01948895721976217,0.017545043751008335,9.270189065259693e-05,-0.011110200291231151,0.018594063234749186
7.2727272727272725,0.20253164556962025,0.01942609150923832,0.017422214392892814,-2.2491489908679242e-05,-0.011054491770639338,0.018505744302477346
7.373737373737374,0.20253164556962025,0.01942404845731137,0.01772529622747407,-3.4849150426740953e-05,-0.011144803405435631,0.01863293898908297
7.474747474747475,0.20253164556962025,0.01956054033625808,0.017868348849900226,-8.324652888682608e-05,-0.01122866675584749,0.018772289695213558
7.575757575757575,0.20253164556962025,0.01977546765387137,0.01777675637098517,-4.2491336076847074e-05,-0.011265667207456963,0.018855872664462668
7.6767676767676765,0.20253164556962025,0.01965297045612269,0.017805182593574984,-3.3944706982841626e-05,-0.011237445914909302,0.01879740684753549
7.777777777777778,0.20253164556962025,0.019727991802722028,0.017912883614984373,-3.5395803201760604e-05,-0.01129226262531192,0.01888606887209116
7.878787878787879,0.20253164556962025,0.019906028285507974,0.01808418729684605,9.85204134697283e-05,-0.011397064674706206,0.019061284512199614
7.979797979797979,0.20253164556962025,0.01997415938095851,0.018070732591975357,4.3394823218371914e-05,-0.011413467591880161,0.019093883203682334
8.080808080808081,0.20253164556962025,0.020047937336425434,0.01813528684209061,-2.3123644772331774e-05,-0.011454967253554812,0.019163374708298514
8.181818181818182,0.20253164556962025,0.02023735773796106,0.018326217165894398,-3.640182357262678e-05,-0.011569072471156638,0.019352794277164354
8.282828282828282,0.20253164556962025,0.02042887162637745,0.01849619541298124,4.986330197491876e-05,-0.011677520111807607,0.019534561629600603
8.383838383838384,0.20253164556962025,0.020388167238525132,0.01831317577768625,4.8001097376057863e-05,-0.011610402904863414,0.019434108991733503
8.484848484848484,0.20253164556962025,0.0204768409420666,0.0185081869784747,3.3414517799383107e-06,-0.01169550837616239,0.019566932125617463
8.585858585858587,0.20253164556962025,0.020837216110841338,0.018762534106362895,-1.100561951878803e-05,-0.011879925065161268,0.019881238561820152
8.686868686868687,0.20253164556962025,0.0210176554351042,0.019053573282258898,-9.473293587183311e-05,-0.01202136861520893,0.020108355968217962
8.787878787878787,0.20253164556962025,0.020944684340517765,0.01892824315699143,3.5946413158942386e-05,-0.011961878249252758,0.02001289558070568
8.88888888888889,0.20253164556962025,0.02110211271829166,0.01904034618858356,4.2359984503213326e-05,-0.012042737672062565,0.020150627677436535
8.98989898989899,0.20253164556962025,0.021293500967167558,0.01910570455393506,8.100835116857265e-06,-0.012119761656330783,0.020288272188975963
9.09090909090909,0.20253164556962025,0.02137872999430916,0.01928455802572667,-2.934710868288888e-05,-0.012198986406010748,0.02041243491315916
9.191919191919192,0.20253164556962025,0.021643013682516324,0.019488698611704967,-7.391233150824828e-05,-0.012339513688266386,0.020650705393040196
9.292929292929292,0.20253164556962025,0.021852934893960164,0.019729806298961348,6.791727835630869e-05,-0.012474822357876452,0.0208728456570408
9.393939393939394,0.20253164556962025,0.02189360291879184,0.019941181617064978,-1.5283539157658006e-05,-0.012550435360757044,0.020985637034759662
9.494949494949495,0.20253164556962025,0.022244672631594686,0.01997834380820881,6.614873623387881e-05,-0.01266690493194105,0.0212028557283371
9.595959595959595,0.20253164556962025,0.022536486229228596,0.020273481977962644,-0.00013516215661108947,-0.012842990462157372,0.021495791264381416
9.696969696969697,0.20253164556962025,0.022773230559720668,0.020640445373183186,8.288319353595966e-05,-0.013024102779871155,0.021785752290477512
9.797979797979798,0.20253164556962025,0.023002771000267205,0.020653860559545927,5.129079818375759e-05,-0.013096989467943939,0.021923076819168198
9.8989898989899,0.20253164556962025,0.023275360133418767,0.02104225297723165,-5.948123115538332e-05,-0.013295283933195125,0.022243277584141314
10.0,0.20253164556962025,0.023371576230899783,0.021151413067197405,-1.6937207855563094e-05,-0.013356896789429156,0.022344391868469926
0.0,0.3037974683544304,0.023571353815178393,0.021128645234531847,1.2872530081672896e-06,-0.013409999714913072,0.022449890927119402
0.10101010101010101,0.3037974683544304,0.023184229235476736,0.02099018451832245,-4.574166522192993e-05,-0.013252324126139756,0.022168927774893106
0.20202020202020202,0.3037974683544304,0.02301911892893579,0.020829884189505193,6.321694858014859e-05,-0.013154700935532294,0.022006597177352805
0.30303030303030304,0.3037974683544304,0.022831619857743648,0.02037008571565773,-5.6595423170961735e-05,-0.012960511672020412,0.021706008683956102
0.40404040404040403,0.3037974683544304,0.022568273454057767,0.02029398440088021,-5.5334901598178754e-05,-0.012858677356481392,0.021521658067696715
0.5050505050505051,0.3037974683544304,0.02226877961908475,0.019900004774766316,1.5261092348415432e-05,-0.012650635318155318,0.021183970678649935
0.6060606060606061,0.3037974683544304,0.02204062367383547,0.01990055303520637,5.423690278823397e-05,-0.01258235301271255,0.021052537320080507
0.7070707070707071,0.3037974683544304,0.02177428375353338,0.019504459574299752,-1.6906948782937206e-05,-0.012383622998349938,0.020732790371040477
0.8080808080808081,0.3037974683544304,0.021676670128238158,0.019430822268602252,1.9294257693157288e-05,-0.012332247719052123,0.020645592121580972
0.9090909090909091,0.3037974683544304,0.021125568110345768,0.01904119257356056,-0.0001050599076607237,-0.0120500282051719,0.02016516165930502
1.0101010101010102,0.3037974683544304,0.021344312054915455,0.019162797760344852,-6.819413713018419e-05,-0.01215213294457809,0.020341821235584298
1.1111111111111112,0.3037974683544304,0.021069253824626502,0.019120351944322194,6.074783037651034e-06,-0.01205688173068461,0.020165561672790957
1.2121212121212122,0.3037974683544304,0.02110760727884959,0.019140141402320492,3.567319165894963e-05,-0.012074324604351023,0.020195973056204703
1.3131313131313131,0.3037974683544304,0.0208496715125302,0.018657015400945776,-7.202188248127364e-06,-0.011852006074042793,0.019844408254018345
1.4141414141414141,0.3037974683544304,0.020863561237549295,0.018730048848317582,8.30196376136961e-05,-0.011878083025760064,0.019883361713373755
1.5151515151515151,0.3037974683544304,0.02072743126685207,0.018465008523168184,6.278526857249839e-05,-0.011757731937006076,0.019694227013183165
1.6161616161616161,0.3037974683544304,0.02055492683020346,0.018400495019192154,-2.1036766219938927e-05,-0.011686626554818684,0.01956690401734302
1.7171717171717171,0.3037974683544304,0.02054583359295439,0.018479442199007722,5.822403757217383e-06,-0.011707582737588634,0.01959453034409259
1.8181818181818181,0.3037974683544304,0.020379118541211473,0.018279510035680846,9.967084530353623e-06,-0.011597588573067695,0.019414658271451068
1.9191919191919191,0.3037974683544304,0.020191714703023913,0.018190829940476043,8.906070255167423e-05,-0.011514763393049986,0.01926996065456624
2.0202020202020203,0.3037974683544304,0.020094778692741774,0.018141230840864813,-3.0487316166422654e-05,-0.011470802860081977,0.019192789182399583
2.121212121212121,0.3037974683544304,0.01990056924784664,0.017992387313390396,6.473191214367566e-06,-0.01136788696837111,0.01901841301649014
2.2222222222222223,0.3037974683544304,0.020090363303521295,0.017825897533190457,0.00011424887672509536,-0.011374878251013524,0.019060317974672912
2.323232323232323,0.3037974683544304,0.019731410234459765,0.01789166689523045,6.748497819516149e-05,-0.011286923138907064,0.018879251508181667
2.4242424242424243,0.3037974683544304,0.01984392921650792,0.017842370779432667,-1.7280847524511208e-05,-0.011305889998782176,0.018922734338933465
2.525252525252525,0.3037974683544304,0.019565923078800104,0.017585864735144247,3.536438112774659e-05,-0.011145536344183304,0.0186549741260784
2.6262626262626263,0.3037974683544304,0.01969313250692979,0.017626014363520418,-6.147280480109493e-05,-0.011195744061135063,0.01874555282102552
2.727272727272727,0.3037974683544304,0.019546757411293542,0.01748874954176943,2.701256230943569e-05,-0.01111065208591889,0.01860338491098942
2.8282828282828283,0.3037974683544304,0.019546341869021416,0.017725493626418,1.61237374346332e-05,-0.011181550648631824,0.018702535295153033
2.929292929292929,0.3037974683544304,0.01926633936011771,0.017487814789827517,-1.3232390605392055e-05,-0.011026246244983568,0.018441525136043167
3.0303030303030303,0.3037974683544304,0.019444450091769303,0.017338305354746696,5.854403126062421e-05,-0.0110348266339548,0.01848188142506886
3.131313131313131,0.3037974683544304,0.019233108830684277,0.017322747202249966,-5.1949165448279155e-05,-0.010966756809880273,0.018352870617047125
3.2323232323232323,0.3037974683544304,0.01941195046998222,0.017540282772133365,-3.11391206030364e-05,-0.011085669972634675,0.01854716014132088
3.3333333333333335,0.3037974683544304,0.019374792657654908,0.01729828781034812,8.902877047766928e-05,-0.011001924140400908,0.018425156455366697
3.4343434343434343,0.3037974683544304,0.019415626445122635,0.017361519013561484,-1.485624182398976e-05,-0.011033143637605235,0.018474436044203405
3.5353535353535355,0.3037974683544304,0.01910318136278085,0.017168749636471848,-2.603984616851422e-06,-0.01088157929977581,0.018213176123994902
3.6363636363636362,0.3037974683544304,0.019086038341124167,0.01734415918285291,5.912717421435007e-05,-0.010929059257193124,0.018277743794809658
3.7373737373737375,0.3037974683544304,0.01904202024546237,0.01716414167679058,4.457853892687431e-05,-0.010861848576675884,0.018176147087942098
3.8383838383838382,0.3037974683544304,0.01922272250772529,0.017290168449067982,2.606781878199846e-05,-0.010953867287037983,0.018333055227959732
3.9393939393939394,0.3037974683544304,0.018932174841241895,0.017047601131482647,-6.711142614287052e-05,-0.010793932791817363,0.018064143908390874
4.040404040404041,0.3037974683544304,0.018988807460983494,0.017034120162903045,2.86100526717399e-05,-0.01080687828716596,0.018090906170759976
4.141414141414141,0.3037974683544304,0.018947819142666533,0.01718058482215518,2.0201542035217832e-05,-0.010838521189446513,0.01812895351160494
4.242424242424242,0.3037974683544304,0.018909170792961737,0.017012310394089267,2.0379736058460445e-05,-0.010776444356115302,0.01803574251863361
4.343434343434343,0.3037974683544304,0.01897950528920793,0.016973293155854326,1.1948690048054692e-05,-0.010785839533518677,0.01806017781375396
4.444444444444445,0.3037974683544304,0.01880357853178901,0.01696384730486472,-2.2406968478339427e-05,-0.01073022775099612,0.017954585826532747
4.545454545454545,0.3037974683544304,0.01892357628686369,0.016928484437990336,-3.2920213770255366e-05,-0.010755618217456209,0.01800919513443507
4.646464646464646,0.3037974683544304,0.018905342128356713,0.017099837400391643,2.892770617977787e-06,-0.010801553858624507,0.018070366593424262
4.747474747474747,0.3037974683544304,0.01888515822354399,0.017110186239188155,-5.386576650098744e-05,-0.010798603338819643,0.018063438334631192
4.848484848484849,0.3037974683544304,0.018892718065015364,0.017064849545638285,6.936794753182544e-05,-0.010787270283196095,0.018048737638633173
4.94949494949495,0.3037974683544304,0.01894540053794406,0.01687598317788805,3.455930394826802e-05,-0.010746415114749632,0.01800023144360273
5.05050505050505,0.3037974683544304,0.018858307384881513,0.016866374624757572,4.747863383899909e-05,-0.010717404602891726,0.017945635567600062
5.151515151515151,0.3037974683544304,0.018929788114368424,0.01696514967151444,5.453325878040364e-05,-0.010768481335764859,0.018028183892183785
5.252525252525253,0.3037974683544304,0.01879151997807765,0.017240712055886575,-2.0360520554975265e-06,-0.010809669610189266,0.018066106461618433
5.353535353535354,0.3037974683544304,0.019141369095795294,0.017059446539064407,-5.96615618298691e-05,-0.010860244690457911,0.01819027879974148
5.454545454545454,0.3037974683544304,0.01864261390915083,0.017206503408282916,-4.8893570284508345e-05,-0.010754735195230123,0.01796785420915516
5.555555555555555,0.3037974683544304,0.018874485813741723,0.01689484827567154,2.3933457887340053e-05,-0.01073080022682398,0.01796669856478472
5.656565656565657,0.3037974683544304,0.01876312013572794,0.017213329084493287,9.89225298662202e-05,-0.010792934766066367,0.01803904018653431
5.757575757575758,0.3037974683544304,0.0189234920822704,0.017099873341863123,3.9773922940006566e-05,-0.010807009627240056,0.018080919473239636
5.858585858585858,0.3037974683544304,0.018958047635122124,0.01734064544381773,-5.8833167256853194e-05,-0.010889607923681956,0.01820360283627405
5.959595959595959,0.3037974683544304,0.01906164844304614,0.017164602165063107,4.007290998118929e-06,-0.010867875182432773,0.01818748044373201
6.0606060606060606,0.3037974683544304,0.018970731393006847,0.01711431205522263,-6.376150945678451e-05,-0.010825513034468843,0.018114345318660876
6.161616161616162,0.3037974683544304,0.018850252764781913,0.01711014273090752,-3.117228384888548e-05,-0.010788118648706829,0.018043320464452603
6.262626262626262,0.3037974683544304,0.019039416530095218,0.01720036370274243,4.253732034376015e-05,-0.010871934069851295,0.018189899190987957
6.363636363636363,0.3037974683544304,0.019135640233088752,0.017071626944340296,-7.93125023514774e-05,-0.010862180153228713,0.018192183312500405
6.4646464646464645,0.3037974683544304,0.0191134270773083,0.017217845092649526,1.3965150432431517e-05,-0.010899381650987347,0.018239677703939562
6.565656565656566,0.3037974683544304,0.01930429138848454,0.017255778424295116,-4.606025812311867e-05,-0.010968020943833897,0.018366092258406654
6.666666666666667,0.3037974683544304,0.019242686760127484,0.017232557359115833,-1.4377991318022088e-05,-0.010942573235772994,0.018320533390873483
6.767676767676767,0.3037974683544304,0.019146811094198746,0.01738083440057976,-4.361728109819126e-05,-0.010958293648433553,0.018327900425621272
6.8686868686868685,0.3037974683544304,0.019600170663711412,0.017245841880947264,7.345863291426542e-05,-0.011053803763397603,0.01853592448828892
6.96969696969697,0.3037974683544304,0.019213289532267294,0.01730580008480783,8.763312197552188e-05,-0.010955726885122537,0.01833474576593086
7.070707070707071,0.3037974683544304,0.01948684437495877,0.017381354867679995,6.42883369470152e-05,-0.011060459772791627,0.018524395870539893
7.171717171717171,0.3037974683544304,0.019483062949896792,0.017440808577702843,2.4134741035409545e-05,-0.01107716145827989,0.01854650699712494
7.2727272727272725,0.3037974683544304,0.01961095467696793,0.01759999330433003,4.257705522083456e-06,-0.011163284394389388,0.01868680526554943
7.373737373737374,0.3037974683544304,0.019626009568588957,0.017619773667041407,3.681150169176802e-05,-0.01117373497068911,0.01870387377893561
7.474747474747475,0.3037974683544304,0.01950568743145266,0.017567443309775766,3.992151815289903e-05,-0.011121939222368525,0.018612539580301776
7.575757575757575,0.3037974683544304,0.019591880734509487,0.01753634244618518,3.0147288042803955e-05,-0.011138466954208401,0.01864934030889223
7.6767676767676765,0.3037974683544304,0.01977734310033433,0.01790261014146694,-5.056225151504921e-05,-0.011303985972540382,0.018910006780808276
7.777777777777778,0.3037974683544304,0.01987742245018081,0.01794189038334973,2.121887305509394e-05,-0.011345793850059164,0.01898383970139159
7.878787878787879,0.3037974683544304,0.019997982608785738,0.01801837965855256,1.4397503800767461e-05,-0.01140490868020149,0.01908535283287034
7.979797979797979,0.3037974683544304,0.02002082115125794,0.018094862860231497,-6.61596790683968e-05,-0.01143470520344683,0.019131033943031187
8.080808080808081,0.3037974683544304,0.020099342626478042,0.018188380212235414,6.797335360169852e-06,-0.011486316851614036,0.019215264808644324
8.181818181818182,0.3037974683544304,0.020098458744450355,0.018171086208603204,-0.00011301543826774745,-0.011480863485916067,0.019208433274613024
8.282828282828282,0.3037974683544304,0.020502773081905484,0.018365078543780458,-2.0879963189230285e-06,-0.011660355487705783,0.019521905363770655
8.383838383838384,0.3037974683544304,0.02043962902177929,0.018479288925315387,-3.3170163174992353e-05,-0.011675675384128403,0.01953345960890442
8.484848484848484,0.3037974683544304,0.02073114804316308,0.018586738372372756,1.3843341310185046e-05,-0.011795365924660751,0.01974648051141455
8.585858585858587,0.3037974683544304,0.020565334813685096,0.018538099952647404,0.00012725026802464878,-0.011731030429899751,0.0196316196838085
8.686868686868687,0.3037974683544304,0.020930258352930883,0.018729909959898598,-1.553422895351797e-05,-0.011898050493848844,0.01992144852603189
8.787878787878787,0.3037974683544304,0.021004620170090003,0.018840949262593557,3.359236984376652e-05,-0.011953670829805068,0.020010793088795772
8.88888888888889,0.3037974683544304,0.02109239990461529,0.018868223407287738,-2.6394232415133453e-05,-0.01198818699357091,0.020072995906289488
8.98989898989899,0.3037974683544304,0.021256137865993716,0.019156897881807,3.711153554512786e-05,-0.012123910724340214,0.020288238040053464
9.09090909090909,0.3037974683544304,0.021418326497942012,0.019414784058298957,-5.2097744484556176e-05,-0.01224993316687229,0.02049035159971831
9.191919191919192,0.3037974683544304,0.021529894860597438,0.019481422126520757,9.925337076946175e-06,-0.012303395096135459,0.020582261931044222
9.292929292929292,0.3037974683544304,0.0217322958675293,0.01945570553220181,0.00011033331847116632,-0.012356400419919334,0.02068904378688724
9.393939393939394,0.3037974683544304,0.021994908762360574,0.019871485503110152,-3.192482098099248e-05,-0.012559918279641218,0.02101388813461203
9.494949494949495,0.3037974683544304,0.022387736474007262,0.020228950816219764,6.16098051876073e-05,-0.012785006187068107,0.021390468971944885
9.595959595959595,0.3037974683544304,0.022466536784351284,0.020119044154825003,3.271133685612417e-05,-0.012775674281752887,0.021389697924718818
9.696969696969697,0.3037974683544304,0.02275989374811391,0.02034185245335955,4.341559017674409e-06,-0.012930523860442038,0.021652375867992298
9.797979797979798,0.3037974683544304,0.022785809882653732,0.02061780970215167,-8.256045982967264e-05,-0.01302108587544162,0.021783346059345437
9.8989898989899,0.3037974683544304,0.02300294673041305,0.020915152349349857,-1.682487500341847e-05,-0.013175429723928872,0.022033380810883827
10.0,0.3037974683544304,0.023390210124604547,0.02105701497926831,-4.673105549973677e-05,-0.013334167531161858,0.022315428652008824
0.0,0.4050632911392405,0.02336133666774425,0.02109615892035713,1.185672590243765e-05,-0.013337248676430413,0.02231515007585215
0.10101010101010101,0.4050632911392405,0.023084260913645703,0.020925176407730457,1.915906970242983e-05,-0.013202831196412848,0.022084043537668827
0.20202020202020202,0.4050632911392405,0.0230530481047688,0.020618769773004773,-2.883905317143314e-05,-0.013101545363332074,0.021937495242340024
0.30303030303030304,0.4050632911392405,0.0226468163232739,0.02056920825270514,-3.776993952785051e-05,-0.012964807372793713,0.02168289224743948
0.40404040404040403,0.4050632911392405,0.022448082515605813,0.02012494346781876,-8.170357180229437e-05,-0.012771907795027371,0.02138184727856287
0.5050505050505051,0.4050632911392405,0.02220568218032242,0.01988995263360813,-7.210501603294081e-06,-0.012628690444179165,0.021143148442724767
0.6060606060606061,0.4050632911392405,0.022005470626889467,0.0197699248043879,-2.1341998326330476e-05,-0.01253261862938321,0.020977262241435448
0.7070707070707071,0.4050632911392405,0.021804939058166353,0.0197043790989128,-6.806313067055897e-06,-0.012452795447123745,0.02083423328445068
0.8080808080808081,0.4050632911392405,0.021842878598917162,0.019395811042595457,-0.00011363759156746534,-0.012371606892453785,0.0207288983321064
0.9090909090909091,0.4050632911392405,0.02133411067100381,0.01944591143387787,-3.064740720751746e-06,-0.012234006631464506,0.020455477290102008
1.0101010101010102,0.4050632911392405,0.02130635050766106,0.019195844535324188,2.0982502372127032e-05,-0.012150658512895573,0.020333444081504597
1.1111111111111112,0.4050632911392405,0.02120918493130289,0.019246181366358757,2.7272431210433946e-05,-0.012136609889298496,0.02029905008055782
1.2121212121212122,0.4050632911392405,0.02096341637466704,0.01910778471312135,2.7722651731944975e-05,-0.012021360326336517,0.02010000302085173
1.3131313131313131,0.4050632911392405,0.020813607553398342,0.0190253042119381,6.947167422280381e-06,-0.01195167352960093,0.01997957429681072
1.4141414141414141,0.4050632911392405,0.02067930655472659,0.018575510318212286,6.442051759646143e-05,-0.011776445061881661,0.019712104933132652
1.5151515151515151,0.4050632911392405,0.02054316838420919,0.018379834638718905,3.948301538850809e-05,-0.011676900906878429,0.019551591430802064
1.6161616161616161,0.4050632911392405,0.020427680374708893,0.01842034481766384,7.579098780941124e-05,-0.011654407557711821,0.019502090790149633
1.7171717171717171,0.4050632911392405,0.020543660196805612,0.01829890148872991,-3.153456158729568e-05,-0.011652768505660657,0.019518410260635798
1.8181818181818181,0.4050632911392405,0.0203175054446462,0.018261022443746503,-6.595657234971252e-06,-0.011573558366517812,0.019371310636265647
1.9191919191919191,0.4050632911392405,0.020180560706853784,0.018331272253923562,7.242300852512485e-05,-0.011553549888233202,0.019322809206034235
2.0202020202020203,0.4050632911392405,0.02004330694937065,0.017984490262974724,5.061667606130411e-05,-0.011408339163703611,0.01909751478493049
2.121212121212121,0.4050632911392405,0.019959101134500206,0.017746047921398174,-4.1046201366145275e-05,-0.011311544716769513,0.018949876624844667
2.2222222222222223,0.4050632911392405,0.01987137867720424,0.01798112137252272,2.878244981745698e-05,-0.011355750014918087,0.01899697949149611
2.323232323232323,0.4050632911392405,0.019713337804350792,0.017814672076855862,5.897957407913784e-06,-0.011258402964361995,0.01883591474888501
2.4242424242424243,0.4050632911392405,0.01972380501473209,0.017931133526168826,9.27961236027874e-05,-0.011296481562270276,0.01889205350910414
2.525252525252525,0.4050632911392405,0.019653453659341666,0.0176934685102813,7.1401047562212056e-06,-0.01120407665088689,0.01875045221235103
2.6262626262626263,0.4050632911392405,0.019577308421125737,0.017622847741370892,-6.667211632645163e-05,-0.011160046848748988,0.01867729042322122
2.727272727272727,0.4050632911392405,0.019384550321696326,0.017634767747137774,-3.801133781691841e-06,-0.01110579542065023,0.018571586502232448
2.8282828282828283,0.4050632911392405,0.019395370091828294,0.01753119093859778,-1.993763851670511e-05,-0.011077968309127823,0.018533760893252038
2.929292929292929,0.4050632911392405,0.019351561328099058,0.01751622315761936,-1.1275357626477751e-05,-0.011060335345715525,0.01850230024273816
3.0303030303030303,0.4050632911392405,0.019268466230036096,0.017385751192113556,1.1992432246354123e-05,-0.010996265226644895,0.018399505621031317
3.131313131313131,0.4050632911392405,0.019334729256616025,0.0174636463539783,-1.572361369415066e-05,-0.011039512683178298,0.018470424115652733
3.2323232323232323,0.4050632911392405,0.01923221817010029,0.017401034349593614,3.275697393512076e-05,-0.01098997575590817,0.01838523707324176
3.3333333333333335,0.4050632911392405,0.019292933560572323,0.01731104467841775,-2.515459570034493e-05,-0.010981193471697022,0.018382345243387065
3.4343434343434343,0.4050632911392405,0.01926241276766331,0.017198862409944594,-3.309351777443757e-05,-0.01093838255328237,0.018318108867898957
3.5353535353535355,0.4050632911392405,0.019346641124051808,0.017212755847284475,4.343994896540962e-05,-0.010967819091400885,0.018373027447735443
3.6363636363636362,0.4050632911392405,0.019161997146127274,0.016862817622724537,5.0652918392100354e-05,-0.010807444430655544,0.018122339440523993
3.7373737373737375,0.4050632911392405,0.0188717093703947,0.01711665350437413,2.4936322668418893e-05,-0.01079650886243065,0.01805831101963067
3.8383838383838382,0.4050632911392405,0.019011140406407948,0.017229685229665316,5.5865899546005455e-05,-0.01087224769082198,0.018186228597549297
3.9393939393939394,0.4050632911392405,0.019180105762498505,0.017162132995631338,-2.6418273665231264e-05,-0.010902671627438952,0.018255022153633293
4.040404040404041,0.4050632911392405,0.019126020184979,0.016969531329406914,-9.001416971861822e-05,-0.010828665454315774,0.018144816079870504
4.141414141414141,0.4050632911392405,0.01910490171647702,0.017107539298703733,4.950099850549966e-05,-0.010863732304554227,0.018188861003014877
4.242424242424242,0.4050632911392405,0.018863655270894425,0.01711091006976948,2.9740636093850132e-05,-0.01079236960219917,0.018051290208286493
4.343434343434343,0.4050632911392405,0.018916014915285086,0.017067902555956485,7.559308487344165e-05,-0.010795175241372471,0.018063481435129012
4.444444444444445,0.4050632911392405,0.01884507711429533,0.017056829958395615,-3.2313966774987025e-05,-0.010770572121807284,0.018017720065516555
4.545454545454545,0.4050632911392405,0.01877983082091127,0.017031445418978726,-2.4640696461496386e-05,-0.010743382871967,0.01796959478144852
4.646464646464646,0.4050632911392405,0.018819021984944426,0.01677825307161961,1.2932001976170693e-05,-0.010679182516969211,0.017886183295812135
4.747474747474747,0.4050632911392405,0.018874331372691327,0.016859004631183307,-4.487263091319747e-06,-0.01072000080116239,0.017951714188464536
4.848484848484849,0.4050632911392405,0.018878387765023884,0.016996959887128123,4.8947729480731305e-05,-0.010762604295645602,0.018011722795894584
4.94949494949495,0.4050632911392405,0.018765054994728293,0.017038416582557277,-3.385892607715023e-05,-0.010741041473185671,0.017964173893663674
5.05050505050505,0.4050632911392405,0.018912193172218456,0.017015086427192256,-3.712428635011466e-05,-0.010778183879823213,0.01803872916790391
5.151515151515151,0.4050632911392405,0.018862969801821793,0.017000205126946114,-6.760627470077502e-06,-0.010758952478630372,0.0180040102556785
5.252525252525253,0.4050632911392405,0.018745268419415425,0.01693890268536863,-1.5310494868128627e-05,-0.010705251331435217,0.017910553815180856
5.353535353535354,0.4050632911392405,0.018620361193960367,0.016787413745920042,-7.357922970470778e-06,-0.010622332481964123,0.017774913958324954
5.454545454545454,0.4050632911392405,0.018859898373346777,0.017033792052720154,-2.435566041431275e-05,-0.010768107127820078,0.018016437797629122
5.555555555555555,0.4050632911392405,0.018973819922582888,0.016927859725180874,7.25002295840833e-05,-0.010770503894329129,0.01803851113810527
5.656565656565657,0.4050632911392405,0.019115269069504958,0.017086676551720005,-5.5763076928227766e-05,-0.010860583686367487,0.01818628428116056
5.757575757575758,0.4050632911392405,0.018901340308203635,0.01709164131346256,-3.10492663448474e-05,-0.010797894486499858,0.018064684650275435
5.858585858585858,0.4050632911392405,0.018899946191604608,0.017084630528606093,9.127678811170396e-06,-0.01079537301606321,0.0180608476709702
5.959595959595959,0.4050632911392405,0.018890789089116813,0.01712043913516058,-1.8975336713087903e-05,-0.010803368467283218,0.018070800313352557
6.0606060606060606,0.4050632911392405,0.01908953318365513,0.017032420258681538,-1.4271725553736354e-05,-0.010836586032700999,0.018148643926161685
6.161616161616162,0.4050632911392405,0.019100251697584246,0.01703574894603704,4.648245077398913e-06,-0.010840800193086385,0.018156247661779014
6.262626262626262,0.4050632911392405,0.01902074366433395,0.017171568181663537,0.00010334567234541725,-0.010857693553799246,0.018167759565993327
6.363636363636363,0.4050632911392405,0.019151814257036666,0.01711883645979014,-5.163400459486556e-05,-0.010881195215048042,0.01822080604994951
6.4646464646464645,0.4050632911392405,0.019160699866811633,0.017195764156862844,-2.7900241880722143e-06,-0.010906939207102343,0.018257707185927348
6.565656565656566,0.4050632911392405,0.019330829345511086,0.017224413393481002,3.3350851358045745e-05,-0.010966572821697627,0.01836851983385549
6.666666666666667,0.4050632911392405,0.019138642540613288,0.017419922128670544,4.168769717978353e-05,-0.01096756940078515,0.018339925740107618
6.767676767676767,0.4050632911392405,0.019122137393656806,0.017441086110359546,-8.108170573536395e-05,-0.010968967051204905,0.01834002456495042
6.8686868686868685,0.4050632911392405,0.01922655010443481,0.01729487452295125,9.655335324272475e-05,-0.010956427388215817,0.01833794180838194
6.96969696969697,0.4050632911392405,0.019301413931640324,0.017483139149086942,5.542997517257139e-05,-0.011035365924218181,0.01845981165051002
7.070707070707071,0.4050632911392405,0.019361647367571164,0.017512319306416745,-3.9903117648746594e-05,-0.011062190002196373,0.01850654322269064
7.171717171717171,0.4050632911392405,0.01934629353182293,0.017656706290571065,1.9232878493807198e-05,-0.011100899946718198,0.01855930056492482
7.2727272727272725,0.4050632911392405,0.019642525167101216,0.01750495021341548,-8.356476597083267e-06,-0.01114424261415501,0.01866576709622713
7.373737373737374,0.4050632911392405,0.01959607326647152,0.017665279419411963,-1.6273704724274794e-05,-0.011178405805765046,0.018705583903095024
7.474747474747475,0.4050632911392405,0.01960143803576396,0.01764308529731311,-7.105810725000374e-05,-0.01117335699992312,0.01869973626624175
7.575757575757575,0.4050632911392405,0.019751184949434095,0.017850546495681595,-1.4245379348117782e-05,-0.011280519433534707,0.01887279737105925
7.6767676767676765,0.4050632911392405,0.019886287126485117,0.017778380154323124,8.855023875210649e-07,-0.011299400184242471,0.018920603757499575
7.777777777777778,0.4050632911392405,0.01986390719973394,0.017871324964965275,2.9997847968346125e-05,-0.011320569649409766,0.018946435659915627
7.878787878787879,0.4050632911392405,0.020106213608826345,0.018060359237039164,-5.587468781698357e-05,-0.011449971853759653,0.019165602696623606
7.979797979797979,0.4050632911392405,0.019975484611874914,0.017904095331914567,-3.830449623303532e-05,-0.011363873983136845,0.019024669144156764
8.080808080808081,0.4050632911392405,0.020221061107655522,0.018000761219415844,-6.309851971383619e-05,-0.011466546698121409,0.019207711171959317
8.181818181818182,0.4050632911392405,0.02017894407191204,0.018183568278940083,-2.6005712485624867e-05,-0.011508753705255637,0.019258991686351336
8.282828282828282,0.4050632911392405,0.020519006520433293,0.018393230294197156,-4.509187604414783e-05,-0.011673671044389135,0.019543178777628498
8.383838383838384,0.4050632911392405,0.020570786032751347,0.018421634281324387,7.013527975049183e-05,-0.01169772609422272,0.019585226761459257
8.484848484848484,0.4050632911392405,0.020512499789629074,0.018451173310337805,7.463467717036236e-05,-0.011689101929990063,0.01956388168299047
8.585858585858587,0.4050632911392405,0.020721140081366315,0.018748734119780255,-1.4973261343559902e-05,-0.011840962260343972,0.019808740593920272
8.686868686868687,0.4050632911392405,0.0208781177357249,0.0187244615618879,2.387775647155657e-05,-0.011880773789283839,0.01988897831423272
8.787878787878787,0.4050632911392405,0.021005668527960316,0.01894887693388454,2.992210389193869e-05,-0.011986363638553457,0.020056592569742657
8.88888888888889,0.4050632911392405,0.02128329794918115,0.019005353265107553,7.443153298120162e-05,-0.012086595364286612,0.020241102942125753
8.98989898989899,0.4050632911392405,0.02123077266433919,0.01915340664404398,1.6398115849937077e-05,-0.01211525379251495,0.020272096055519988
9.09090909090909,0.4050632911392405,0.02133902118282751,0.019213880691297112,2.082237731256673e-05,-0.012165870562237386,0.02035983619528513
9.191919191919192,0.4050632911392405,0.021584484954262264,0.01956050493326511,1.160535724131332e-05,-0.012343496966258213,0.02064704152192704
9.292929292929292,0.4050632911392405,0.021761967866360227,0.019704692513865567,4.097590742527458e-06,-0.012439998114067739,0.020809740929429735
9.393939393939394,0.4050632911392405,0.021899175274209485,0.019760080860719235,3.2482985095560596e-05,-0.012497776840478616,0.02091191919801313
9.494949494949495,0.4050632911392405,0.022229970158871855,0.019992694919825468,4.31231707043583e-06,-0.012666799523609195,0.021200058201491682
9.595959595959595,0.4050632911392405,0.022446756006525143,0.02027414305649464,-4.330249259335368e-05,-0.012816269718905935,0.021443288338749627
9.696969696969697,0.4050632911392405,0.022680808535457835,0.02049989563378438,7.731461736224776e-05,-0.012954211250772665,0.02167322130191059
9.797979797979798,0.4050632911392405,0.02281639112298621,0.02069762727089441,7.817752970018262e-05,-0.013054205518164186,0.02183466634894826
9.8989898989899,0.4050632911392405,0.023183076840187125,0.02102403153564588,3.568929107183613e-05,-0.013262132512749901,0.022182584078167016
10.0,0.4050632911392405,0.023427616413954643,0.021185167422455957,7.866109191364253e-05,-0.013383835150923179,0.022391183895013746
0.0,0.5063291139240507,0.02332306082340542,0.021034630610826964,1.8671032088493304e-06,-0.013307307430269715,0.022267215641616437
0.10101010101010101,0.5063291139240507,0.023376054192209995,0.02091679618129619,-1.164761377601768e-06,-0.013287855112051855,0.022248598047869033
0.20202020202020202,0.5063291139240507,0.022909900961567517,0.02072473011060527,6.657532767681935e-05,-0.013090389321651836,0.021899538414310103
0.30303030303030304,0.5063291139240507,0.02263397853586252,0.020339014596744424,-4.848354613162487e-06,-0.012891897939782081,0.021578223972903505
0.40404040404040403,0.5063291139240507,0.022535090193538516,0.020167685137827362,-2.4750200211067663e-05,-0.012810832599409763,0.02144963981028269
0.5050505050505051,0.5063291139240507,0.022162984490816377,0.019986232005219207,1.9589946803205592e-05,-0.012644764948810675,0.02115877956412259
0.6060606060606061,0.5063291139240507,0.02199590953695897,0.019909007878060717,-6.68370317814373e-05,-0.012571475224505906,0.021030580029014687
0.7070707070707071,0.5063291139240507,0.021940313071995593,0.019607947937296956,-5.2732126204448506e-05,-0.012464478302787765,0.020872297084811853
0.8080808080808081,0.5063291139240507,0.021564431894865607,0.01948938218404157,-4.929292211157202e-05,-0.012316144223672153,0.02060559573173446
0.9090909090909091,0.5063291139240507,0.021385476305103717,0.019277875855410215,-3.221820476612239e-05,-0.01219900564815418,0.020413516380386538
1.0101010101010102,0.5063291139240507,0.021319210818424618,0.01916103678463722,-1.0680800270990822e-05,-0.01214407428091855,0.020326245106016685
1.1111111111111112,0.5063291139240507,0.021103655869171383,0.018809728508414603,-2.3635078978988314e-05,-0.011974015313275795,0.020055368758051487
1.2121212121212122,0.5063291139240507,0.021078364712101044,0.0186866044066744,-1.9123054243176306e-05,-0.011929490735632634,0.019990114490589163
1.3131313131313131,0.5063291139240507,0.020978951504457215,0.018750810653738396,1.2304071995205153e-05,-0.011918928647458683,0.019958392049342112
1.4141414141414141,0.5063291139240507,0.020705622731068605,0.01877975623283124,2.1008812949428535e-05,-0.011845613689169953,0.019813047050318524
1.5151515151515151,0.5063291139240507,0.020588298904673834,0.01841739944644403,7.997366293612996e-06,-0.011701709505335358,0.019593262137314178
1.6161616161616161,0.5063291139240507,0.020521997875562255,0.01852092956671077,-6.896901028796077e-05,-0.011712878232681908,0.019598597443983245
1.7171717171717171,0.5063291139240507,0.02038217818704155,0.018299506962204413,-2.1772567170443085e-05,-0.011604505544773788,0.019424797378697824
1.8181818181818181,0.5063291139240507,0.020251608987299087,0.018374860761181454,2.6313869727792424e-05,-0.011587940924544161,0.01938155712255771
1.9191919191919191,0.5063291139240507,0.02010380000344768,0.018048335211894445,-0.00013147219147603044,-0.011445640564602637,0.01916029519124948
2.0202020202020203,0.5063291139240507,0.020143343136728276,0.017953777426823907,3.840052011980721e-05,-0.011429136169065655,0.01914282427195073
2.121212121212121,0.5063291139240507,0.020054797788983923,0.01813259823508947,0.00012068754287477658,-0.011456218807222017,0.019167267373509805
2.2222222222222223,0.5063291139240507,0.019884881586320367,0.017801661899664,1.8902412774622665e-05,-0.011305963045795309,0.018929469487574877
2.323232323232323,0.5063291139240507,0.01994860761834378,0.017808751096826145,7.784433614096493e-06,-0.011327207614550978,0.018969421591820763
2.4242424242424243,0.5063291139240507,0.01961417265105521,0.01771442325048138,-6.818730990762654e-05,-0.011198578770460975,0.018737042252220237
2.525252525252525,0.5063291139240507,0.019717873032134695,0.017687456882381103,-3.073428385064752e-05,-0.011221598974354739,0.018785218992546752
2.6262626262626263,0.5063291139240507,0.019612638065121275,0.01759880146898317,-6.847443570615503e-05,-0.011163431860231332,0.018687657094244654
2.727272727272727,0.5063291139240507,0.0194703332757084,0.017561332750274824,-8.361903226703896e-06,-0.011109499807794966,0.01858949956787019
2.8282828282828283,0.5063291139240507,0.019332191919475206,0.017569852775401552,3.648972170933269e-05,-0.011070613408463029,0.01851414593247802
2.929292929292929,0.5063291139240507,0.019592060866438596,0.017569144914387696,8.156036902985625e-05,-0.011148361734247889,0.018663544726670082
3.0303030303030303,0.5063291139240507,0.01929946144278594,0.017306988581895243,-2.2936999938712776e-05,-0.010981935007404355,0.01838442507249841
3.131313131313131,0.5063291139240507,0.019338892145059818,0.017375074915552718,1.8478152490459196e-06,-0.01101419011818376,0.018435598394366832
3.2323232323232323,0.5063291139240507,0.019273121507414157,0.01722858215462091,-1.7968793129623533e-05,-0.010950511098610519,0.018336566392434975
3.3333333333333335,0.5063291139240507,0.01904406665881984,0.0174133516222637,-4.066370720552005e-05,-0.010937225484325061,0.01828346852185219
3.4343434343434343,0.5063291139240507,0.019112847582412093,0.017328387960122458,3.1604463987955334e-05,-0.010932370662760364,0.01828611852200295
3.5353535353535355,0.5063291139240507,0.01918582945325115,0.017370354488953927,4.031381728895082e-05,-0.010966855182661522,0.018345721128513015
3.6363636363636362,0.5063291139240507,0.019025468383127953,0.017039798000020735,-7.032718697930059e-05,-0.010819579914944607,0.01811485199261412
3.7373737373737375,0.5063291139240507,0.019083665176321284,0.017139233057381822,-8.19468486124216e-05,-0.01086686947011093,0.018190116744242407
3.8383838383838382,0.5063291139240507,0.019058712926355727,0.017154419534736013,-2.610261071216582e-05,-0.010863939738327522,0.0181815712932361
3.9393939393939394,0.5063291139240507,0.018970868682717638,0.017162372460128347,-2.5471179578271375e-05,-0.010839972342853794,0.01813443462463254
4.040404040404041,0.5063291139240507,0.019010476501084398,0.017143508444782907,-3.5987217390723948e-06,-0.01084619548376019,0.0181491562616925
4.141414141414141,0.5063291139240507,0.019020458488478945,0.01709249977249426,-6.962740943123093e-05,-0.01083388747829196,0.018133911633346968
4.242424242424242,0.5063291139240507,0.018802452781298037,0.017108057841360443,-2.675743107020835e-05,-0.010773153186797543,0.018015176153308464
4.343434343434343,0.5063291139240507,0.018973456658608813,0.017033421514207538,-2.2292532840379796e-05,-0.010802063451844904,0.01808170655884574
4.444444444444445,0.5063291139240507,0.019053025004733548,0.016922596282773452,4.623908109739614e-05,-0.0107926863862521,0.018082361317535614
4.545454545454545,0.5063291139240507,0.018791628115750098,0.017173158015332396,7.002256214268221e-06,-0.010789435839324747,0.01803693963946938
4.646464646464646,0.5063291139240507,0.018912806582876154,0.016969116677623318,-6.427742435899846e-05,-0.010764576978149842,0.018020098413043594
4.747474747474747,0.5063291139240507,0.019014024298020005,0.016957736071219764,5.165057308269148e-05,-0.01079152811077193,0.01807404576497358
4.848484848484849,0.5063291139240507,0.01890379580709246,0.016928436765002088,3.344234326076458e-05,-0.010749669771628364,0.01799769736535796
4.94949494949495,0.5063291139240507,0.018837324689738994,0.017097589055031986,-1.9747175383308444e-05,-0.010780474123431293,0.01803054869860708
5.05050505050505,0.5063291139240507,0.01912014133983606,0.016987113996663087,1.4611628325102653e-06,-0.010832176600949744,0.018147887828169416
5.151515151515151,0.5063291139240507,0.018805226031058046,0.017219942500272402,7.531886107234018e-05,-0.010807550559399134,0.018065299710354248
5.252525252525253,0.5063291139240507,0.018853629865718535,0.01702405186075525,4.2705918434638865e-06,-0.010763304517942135,0.018008680767551685
5.353535353535354,0.5063291139240507,0.01887296450189234,0.017155808006032634,0.00011632984137514613,-0.010808631752377491,0.01807678566079685
5.454545454545454,0.5063291139240507,0.0189150250441627,0.016918427588752734,-2.5216627255017577e-05,-0.010750035789874629,0.018000021960623575
5.555555555555555,0.5063291139240507,0.018912164370141635,0.017055491847817107,1.34828991418717e-05,-0.010790296865387622,0.01805558205819991
5.656565656565657,0.5063291139240507,0.018934087094707272,0.016971567871158364,-2.4264781974548153e-05,-0.01077169648975969,0.0180331470422658
5.757575757575758,0.5063291139240507,0.01885095505102452,0.017023232619479817,-4.861888474370598e-05,-0.0107622563011513,0.018006994574541895
5.858585858585858,0.5063291139240507,0.01875077971009188,0.01682063593933083,3.149541809442512e-05,-0.010671424694826811,0.017864167205384564
5.959595959595959,0.5063291139240507,0.018904363257251772,0.01688745505639361,1.1065084435601914e-05,-0.010737545494093614,0.01798095856386827
6.0606060606060606,0.5063291139240507,0.01896251453112877,0.01712066234429186,3.155437471688492e-05,-0.010824953062626189,0.018112046129579916
6.161616161616162,0.5063291139240507,0.019096196568814453,0.01730005400511663,-6.294654542206191e-06,-0.010918875172179326,0.01826448682306643
6.262626262626262,0.5063291139240507,0.019243577395760686,0.017145094750055385,6.062184510613156e-05,-0.010916601643744821,0.018285174656507374
6.363636363636363,0.5063291139240507,0.01912731556471013,0.01727917584171511,9.118057609978581e-05,-0.010921947421927572,0.01827415692038039
6.4646464646464645,0.5063291139240507,0.018959724141471256,0.017423323827553485,2.0680237608967775e-05,-0.01091491439070742,0.01824015412048995
6.565656565656566,0.5063291139240507,0.019165724978963,0.0174044526262605,-5.075662601830296e-06,-0.010971053281567049,0.018348599674954644
6.666666666666667,0.5063291139240507,0.01914335471897268,0.017165514592493922,-9.755886733142308e-06,-0.01089266079343998,0.01823506709271179
6.767676767676767,0.5063291139240507,0.019230952475235912,0.017261700293600413,4.3374716436506083e-05,-0.010947795830650899,0.018326007100319192
6.8686868686868685,0.5063291139240507,0.0193795242861497,0.01734787263054352,-5.578443679453047e-05,-0.011018219075007964,0.018448047677641737
6.96969696969697,0.5063291139240507,0.019136804406333297,0.017315846959301738,-5.7273976714965015e-05,-0.01093579540969051,0.018294690577850298
7.070707070707071,0.5063291139240507,0.019401712255493166,0.017513902878160213,-2.6168448018989455e-05,-0.011074684540096013,0.018530126354692766
7.171717171717171,0.5063291139240507,0.0193458882479784,0.017592155498654095,-6.324928624663866e-05,-0.011081413123989749,0.01853168784246879
7.2727272727272725,0.5063291139240507,0.019613865705523585,0.017544657674796526,9.895294252958991e-05,-0.011147557014096032,0.018666267875817436
7.373737373737374,0.5063291139240507,0.019393844687955165,0.01763075600640359,5.808620437795641e-06,-0.011107380208307626,0.018575164242575444
7.474747474747475,0.5063291139240507,0.01986090714732657,0.01759910887263634,6.360254343822929e-05,-0.011238004805988874,0.018832475527160754
7.575757575757575,0.5063291139240507,0.019565009335650835,0.017654355828945433,-8.076233082060151e-05,-0.011165809549378881,0.018683623874750407
7.6767676767676765,0.5063291139240507,0.019848496263184034,0.017881790705465805,-5.3395701063239e-05,-0.011319086090594952,0.018942099673740314
7.777777777777778,0.5063291139240507,0.019828611253437708,0.017798877135230717,-4.831990058559373e-05,-0.011288246516600526,0.01889586834446044
7.878787878787879,0.5063291139240507,0.020060472743433547,0.018008186937129828,-7.785322552700828e-05,-0.011420597904169012,0.019117604547010576
7.979797979797979,0.5063291139240507,0.01984094090393136,0.018084077281075056,9.252915717863086e-06,-0.011377505455501926,0.019023457500533428
8.080808080808081,0.5063291139240507,0.02005342971643946,0.018054186264558146,4.795833525024207e-05,-0.011432284794299282,0.019132491466860076
8.181818181818182,0.5063291139240507,0.02036890033007082,0.018340393269163105,5.5543137724186303e-05,-0.011612788079770177,0.01943444721443042
8.282828282828282,0.5063291139240507,0.020503589741566578,0.018380945154022804,-4.4241830747444386e-05,-0.011665360468676814,0.019529128259195606
8.383838383838384,0.5063291139240507,0.020435535186847834,0.01857735379890571,5.589434468793792e-05,-0.011703866695726062,0.01957295015678162
8.484848484848484,0.5063291139240507,0.020566462869170504,0.01861965709633454,6.797705330365655e-05,-0.011755835989651513,0.019665818103118068
8.585858585858587,0.5063291139240507,0.02071383870452712,0.01872579805417876,-9.768962121948629e-05,-0.011831891027611762,0.019795557479432756
8.686868686868687,0.5063291139240507,0.02092640435713771,0.01907316354509792,3.663024645216972e-05,-0.01199987037067069,0.020064178516620422
8.787878787878787,0.5063291139240507,0.020947235260110556,0.018816943383662778,1.0881672751961539e-05,-0.011929253593132001,0.01996750957543354
8.88888888888889,0.5063291139240507,0.021294687359851308,0.01909824305694576,8.13450262473891e-05,-0.012117879125039121,0.02028633366667725
8.98989898989899,0.5063291139240507,0.02119114160963592,0.019189484142638866,-4.358353473088756e-05,-0.012114187725682436,0.02026473308660164
9.09090909090909,0.5063291139240507,0.021422924347214913,0.019336152981863513,3.3684961275121804e-05,-0.012227723198723527,0.02045959337957954
9.191919191919192,0.5063291139240507,0.021600478947427174,0.019606334049147106,5.0016328058202033e-05,-0.012362043898972283,0.020675839152000105
9.292929292929292,0.5063291139240507,0.02193431923782702,0.01971226990508004,-0.0001347704575052441,-0.012493976742872117,0.020913326217176585
9.393939393939394,0.5063291139240507,0.0220841216770437,0.01982350479454986,-9.825032931018821e-05,-0.012572287941478067,0.021045760618693333
9.494949494949495,0.5063291139240507,0.022109594678828733,0.02011804454173267,-7.0110167855372905e-06,-0.01266829176616842,0.021184150442252067
9.595959595959595,0.5063291139240507,0.02239867002752589,0.020082255372868507,5.05098056941364e-05,-0.01274427762011832,0.02133516444931034
9.696969696969697,0.5063291139240507,0.022769261544651795,0.02027198733550081,-1.2195826377832177e-05,-0.012912374664045783,0.021629031563205055
9.797979797979798,0.5063291139240507,0.022834940716045356,0.020561698372126316,2.574628714638362e-05,-0.013018991726451502,0.021787491427807903
9.8989898989899,0.5063291139240507,0.02319058324662968,0.021053633072150902,-3.1482381672205066e-05,-0.013273264895634174,0.02219944953986435
10.0,0.5063291139240507,0.023481064860276766,0.020955830409554684,-2.8322922270783853e-05,-0.013331068580949436,0.022325869045629675
0.0,0.6075949367088608,0.02352610380993276,0.021407876794805547,-3.031848402165698e-06,-0.013480194181421492,0.02254175780831599
0.10101010101010101,0.6075949367088608,0.023212436217805405,0.021032155736792672,-3.6966241090970916e-06,-0.013273377586379424,0.02220273040718696
0.20202020202020202,0.6075949367088608,0.022779057447411304,0.02079907109664027,-4.2373754971898524e-05,-0.013073438563215472,0.021856554346871136
0.30303030303030304,0.6075949367088608,0.022742710999209475,0.020275573845824218,4.785932765160075e-05,-0.012905485453510107,0.021615160272319384
0.40404040404040403,0.6075949367088608,0.022368565074905675,0.02027427123056568,-6.559217338924555e-05,-0.012792850891641408,0.02139872260377396
0.5050505050505051,0.6075949367088608,0.022199534080726762,0.020149967278420968,-1.3678837261673618e-06,-0.01270485040774432,0.021249014448045986
0.6060606060606061,0.6075949367088608,0.022011310813598528,0.01983219121872706,-1.2140111124346277e-06,-0.012553050609697677,0.02100669159245078
0.7070707070707071,0.6075949367088608,0.021663807203182363,0.019565410823753307,3.2078831983375524e-05,-0.012368765408080701,0.020694628347869268
0.8080808080808081,0.6075949367088608,0.021888098534787535,0.019571099566651196,-9.21661608994783e-05,-0.01243775943043162,0.020827100704874615
0.9090909090909091,0.6075949367088608,0.021593826877010114,0.01940772591849096,1.693263899534963e-05,-0.012300465838650323,0.02058802980141578
1.0101010101010102,0.6075949367088608,0.021470528522593523,0.019240098145828888,5.216954899900504e-05,-0.012213188000526724,0.020446957247195502
1.1111111111111112,0.6075949367088608,0.02123093292242176,0.01910753101383188,-2.137248210537123e-06,-0.012101539180876092,0.02025289013046412
1.2121212121212122,0.6075949367088608,0.02094263251814109,0.018857334045521545,-8.91372067300051e-05,-0.01193998996909879,0.019982355297410985
1.3131313131313131,0.6075949367088608,0.020473818982459393,0.01878423545777955,-2.6598409150005254e-06,-0.011777416332071683,0.019683489279027855
1.4141414141414141,0.6075949367088608,0.02078007111707282,0.018585105747338522,-5.5860381454289465e-05,-0.011809553059323403,0.019774403992762833
1.5151515151515151,0.6075949367088608,0.020614911160877554,0.018535311506305923,-5.904402678776486e-05,-0.011745066800155041,0.01965805161648225
1.6161616161616161,0.6075949367088608,0.020711769914997503,0.01837122522733205,-3.405628474628939e-05,-0.011724898542698866,0.019646430181884195
1.7171717171717171,0.6075949367088608,0.020294645260244316,0.018583687985043684,2.8637097199872998e-05,-0.0116634999735864,0.019495619772941203
1.8181818181818181,0.6075949367088608,0.020294508447676773,0.018298848016807104,4.689069259701109e-05,-0.011578006939345162,0.019374090492880965
1.9191919191919191,0.6075949367088608,0.02010363418107012,0.01813853138598563,2.3121559112122853e-05,-0.011472649670116722,0.019196708894507152
2.0202020202020203,0.6075949367088608,0.02005826515744791,0.0180203216494352,-1.5966460495464436e-05,-0.011423576042064934,0.01912094057289818
2.121212121212121,0.6075949367088608,0.019966417946292246,0.0181523078403879,2.1245737325973166e-05,-0.011435617736004043,0.019124040228240224
2.2222222222222223,0.6075949367088608,0.019785347589748686,0.017865481463853593,2.3532043743632036e-05,-0.011295248716080683,0.01889873826034858
2.323232323232323,0.6075949367088608,0.019991375603859968,0.017869323093483637,0.0001231379251096876,-0.011358209609203081,0.019020540093571365
2.4242424242424243,0.6075949367088608,0.019750817100162764,0.017710945795460866,6.010117359793221e-05,-0.011238528868687087,0.018814291442145623
2.525252525252525,0.6075949367088608,0.019760183515935042,0.01786159592874077,5.7925132735488835e-06,-0.011286533833402742,0.018882614991713256
2.6262626262626263,0.6075949367088608,0.019897344484054922,0.017608425074541977,-2.4282810274616956e-05,-0.011251730867579069,0.018857407577864506
2.727272727272727,0.6075949367088608,0.019660203870602373,0.01768841590378513,-2.3733696204134207e-05,-0.01120458593231625,0.01875226654214132
2.8282828282828283,0.6075949367088608,0.019592806521884238,0.017427413809820543,-2.7157280307107015e-05,-0.011106066099511433,0.01860492099160077
2.929292929292929,0.6075949367088608,0.019460586334343066,0.017397607582786925,-7.975429988603692e-05,-0.011057458175138998,0.018516009503947377
3.0303030303030303,0.6075949367088608,0.019388357476020465,0.01735721781121733,2.6910407541765216e-05,-0.011023672586171337,0.01845685901124755
3.131313131313131,0.6075949367088608,0.01927990492657653,0.01745300410792373,5.722042346128685e-05,-0.011019872710350077,0.018434740275243826
3.2323232323232323,0.6075949367088608,0.01926459582212276,0.01709164325138126,1.718138597827937e-05,-0.010906871722051206,0.018275289536654037
3.3333333333333335,0.6075949367088608,0.019137116109272215,0.017295483381175928,-7.509574232970211e-05,-0.010929779847134443,0.018286448612245498
3.4343434343434343,0.6075949367088608,0.019161326081592402,0.01730900447299813,-8.085099193620121e-05,-0.01094109916637716,0.01830612424423081
3.5353535353535355,0.6075949367088608,0.019267885242546863,0.017296182060620537,-4.0781059156075934e-05,-0.01096922019095022,0.018361738855571665
3.6363636363636362,0.6075949367088608,0.019260601263376528,0.017192079357535636,6.091504706492656e-05,-0.010935804186273648,0.018314466964605897
3.7373737373737375,0.6075949367088608,0.018936982577015496,0.01710296375669825,-6.439747218021535e-05,-0.010811983900114125,0.01809017945771876
3.8383838383838382,0.6075949367088608,0.01899461744723187,0.01719154042756216,3.51740081553772e-06,-0.01085584736243821,0.01816033748599818
3.9393939393939394,0.6075949367088608,0.018902504778460543,0.01726714906461991,-2.3615230503849843e-05,-0.010850896152924134,0.01814024335703617
4.040404040404041,0.6075949367088608,0.01902021991988978,0.017178612299574944,3.616334135147824e-05,-0.010859649665839417,0.01816965673438587
4.141414141414141,0.6075949367088608,0.018832402578049964,0.016890205166723384,1.444069770145572e-05,-0.010716782323432003,0.017940342798046204
4.242424242424242,0.6075949367088608,0.018901843769571793,0.017182012349888552,-1.0417097276112628e-05,-0.010825156835838103,0.01810331071225159
4.343434343434343,0.6075949367088608,0.019070021323862058,0.016925972246240796,3.449322203772365e-05,-0.010798798071030857,0.01809362228679646
4.444444444444445,0.6075949367088608,0.018874555413376553,0.01704354278831206,-3.6246408446099553e-07,-0.010775429460506584,0.01802891844857967
4.545454545454545,0.6075949367088608,0.018931505103806628,0.016885866208729516,1.1720113925203325e-06,-0.010745211393760843,0.01799609693579814
4.646464646464646,0.6075949367088608,0.0190228051275868,0.017052412951286084,2.0010384056630462e-06,-0.010822565423661865,0.0181181452104884
4.747474747474747,0.6075949367088608,0.01888771742921976,0.01704138327838783,-0.00010302558532060384,-0.010778730212282277,0.01803645266052724
4.848484848484849,0.6075949367088608,0.01891836021713133,0.016854989209366903,-8.110877208014183e-06,-0.010732004827949471,0.0179757184722429
4.94949494949495,0.6075949367088608,0.018965633296904507,0.016911255365839168,9.665233634222494e-06,-0.010763066598823102,0.01802646434530871
5.05050505050505,0.6075949367088608,0.018843606141673852,0.01698092964357087,-1.81134470854331e-05,-0.010747360735573416,0.0179847851849947
5.151515151515151,0.6075949367088608,0.018865909138648624,0.017234543416718116,8.815967628825938e-05,-0.010830135766610023,0.018106076346082228
5.252525252525253,0.6075949367088608,0.019064581916375743,0.016946827010641836,5.949456742097521e-05,-0.010803422678105275,0.018099162312616796
5.353535353535354,0.6075949367088608,0.018941831313455382,0.017121119884063018,-1.2371622684855874e-05,-0.01081888535925552,0.018100298727414196
5.454545454545454,0.6075949367088608,0.018764233104830257,0.017039895994359986,6.083186529889595e-06,-0.010741238729757073,0.017964243095834966
5.555555555555555,0.6075949367088608,0.018993224920646982,0.017149042333902586,-1.4963230341148332e-05,-0.01084268017636487,0.018141590319747235
5.656565656565657,0.6075949367088608,0.019001939784651548,0.017099079300759153,4.493524518902258e-05,-0.010830305725623211,0.01812574442046304
5.757575757575758,0.6075949367088608,0.01877511601563378,0.017001218638122793,-6.800737790828658e-06,-0.01073290039612697,0.017954016347156272
5.858585858585858,0.6075949367088608,0.01890830287380071,0.01714567181345238,-3.7913536795306706e-05,-0.010816192406175927,0.01809162060699005
5.959595959595959,0.6075949367088608,0.018931021918980575,0.017219375206777462,-1.9699678168063958e-05,-0.010845119137727411,0.018135911010203214
6.0606060606060606,0.6075949367088608,0.019087349822914358,0.01713389211317744,-6.7367630247370366e-06,-0.01086637258082754,0.01818946744047087
6.161616161616162,0.6075949367088608,0.019079402714638965,0.017014113191709174,6.132007719287861e-05,-0.010828054771904442,0.018135485068952385
6.262626262626262,0.6075949367088608,0.01897200129883813,0.017135950051761856,-5.9166611742016034e-05,-0.010832385405179995,0.018124151094177535
6.363636363636363,0.6075949367088608,0.019103464925600614,0.01711483210982514,-3.6606629529904295e-05,-0.010865489110627726,0.01819096686626479
6.4646464646464645,0.6075949367088608,0.01904963573986891,0.017110616395144055,5.389481403493672e-05,-0.010848075640503888,0.018158180514145132
6.565656565656566,0.6075949367088608,0.01919321855169789,0.01728406612135148,4.691992008518278e-06,-0.010943185401914812,0.018313431889620275
6.666666666666667,0.6075949367088608,0.01925479804208056,0.017361125974587385,4.061490476026111e-05,-0.010984777205000384,0.018381401389297527
6.767676767676767,0.6075949367088608,0.019328459242409994,0.017314048574101536,-7.860247523149157e-05,-0.010992752344953458,0.018404626254655672
6.8686868686868685,0.6075949367088608,0.01934250434438009,0.017356002249738788,2.116082736241519e-05,-0.011009551978235664,0.018429760791461764
6.96969696969697,0.6075949367088608,0.019458385513445493,0.017529904626938122,2.9855342604586934e-05,-0.011096487042115084,0.01856947373511065
7.070707070707071,0.6075949367088608,0.019393010269432822,0.017435348311576473,-2.1183187105427174e-05,-0.011048507574302788,0.018492097646860578
7.171717171717171,0.6075949367088608,0.019228664831632554,0.017471804006515348,3.438198945314378e-05,-0.011010140651444369,0.01841329871499635
7.2727272727272725,0.6075949367088608,0.019571395928789648,0.017532550361062917,0.00010555782079751878,-0.011131183886955769,0.01863670580782558
7.373737373737374,0.6075949367088608,0.019705178407145408,0.01775596118323205,3.4998606558811902e-06,-0.011238341877113237,0.018806484717751232
7.474747474747475,0.6075949367088608,0.019653569191962452,0.017597255068821104,2.030515833849863e-06,-0.011175247278235066,0.018710353022476665
7.575757575757575,0.6075949367088608,0.01980752009806278,0.01773143828534355,-5.1174168707548645e-05,-0.0112616875150219,0.018855603736932805
7.6767676767676765,0.6075949367088608,0.019772321707250573,0.017739282449187203,-3.772705260528027e-05,-0.011253481246931332,0.018838373551276526
7.777777777777778,0.6075949367088608,0.020038807240264193,0.017800637567816198,2.8771314530431332e-05,-0.011351833442424119,0.019018817834543747
7.878787878787879,0.6075949367088608,0.0199399857275598,0.01781241012605677,-2.14867251789832e-05,-0.011325718756084973,0.01896594755516321
7.979797979797979,0.6075949367088608,0.020072634829567552,0.017989706729728584,-1.8804919724565182e-05,-0.01141870246778884,0.019116497174455686
8.080808080808081,0.6075949367088608,0.02023671780634939,0.018076497865096852,-3.99437575289491e-05,-0.011493964701433873,0.019247865412271668
8.181818181818182,0.6075949367088608,0.02034579775615993,0.01836827673039169,9.236919016114202e-05,-0.011614222345965486,0.01943330720940099
8.282828282828282,0.6075949367088608,0.020382076226949306,0.01818918394575354,-1.2573665153556425e-05,-0.011571378051810854,0.019378921139641528
8.383838383838384,0.6075949367088608,0.020674268156179624,0.018454447042086805,-6.156562717035354e-06,-0.011738614559479927,0.01965858352757096
8.484848484848484,0.6075949367088608,0.020685030616841623,0.018524760572654238,3.869331858701285e-05,-0.011762937356848756,0.019694072656450127
8.585858585858587,0.6075949367088608,0.02081355540705901,0.018609267888259323,4.0798784234938814e-05,-0.0118268469885955,0.019803759879502947
8.686868686868687,0.6075949367088608,0.02068729147815261,0.018663146092288377,-2.929856538118929e-05,-0.011805131271132295,0.019753219557110943
8.787878787878787,0.6075949367088608,0.021014936061461556,0.01875524563330341,-4.856391381516726e-05,-0.011931054508429491,0.019981330385966844
8.88888888888889,0.6075949367088608,0.021369606853100284,0.019165228689518178,-1.8124788596884067e-05,-0.012160450662785538,0.02035715282048854
8.98989898989899,0.6075949367088608,0.021323359942150545,0.01925956231703664,-5.460965057317607e-05,-0.012174876677756156,0.02037024268126632
9.09090909090909,0.6075949367088608,0.021296489139488138,0.019371063172693985,1.2244345080655346e-06,-0.012200265693654637,0.020402031911771455
9.191919191919192,0.6075949367088608,0.021640121656138468,0.019508826632496756,-1.388647305902582e-05,-0.012344684486590566,0.020657114480874282
9.292929292929292,0.6075949367088608,0.022035692128987892,0.01963531772073069,-4.513907769756316e-05,-0.012501302954915574,0.02093909563609909
9.393939393939394,0.6075949367088608,0.02197906791748621,0.019686746632309533,-0.0001223460072917072,-0.012499744364938723,0.02092835358590945
9.494949494949495,0.6075949367088608,0.022239321606505102,0.019870219721807067,2.4104840069830022e-05,-0.012632862398493651,0.021154540733734017
9.595959595959595,0.6075949367088608,0.022278947068404692,0.02030825971322036,0.00010670752881711954,-0.012776162034487516,0.021362687362414264
9.696969696969697,0.6075949367088608,0.022556739501113355,0.020322026189130135,4.9097260173957995e-05,-0.012863629707073046,0.02152672353361367
9.797979797979798,0.6075949367088608,0.022994139533999387,0.02060756251264973,3.882746663426427e-06,-0.013080510613994735,0.021898606416333486
9.8989898989899,0.6075949367088608,0.023167683163177025,0.020755130150079223,-2.5865173713215274e-05,-0.013176843993976874,0.022060614188870155
10.0,0.6075949367088608,0.023620328689386363,0.021023340416372268,6.100988082147019e-06,-0.01339310073172759,0.02243485392285658
0.0,0.7088607594936709,0.023346904143025298,0.02093741135277169,-7.910231592179076e-05,-0.013285294648739097,0.02224068710475661
0.10101010101010101,0.7088607594936709,0.02314559077260288,0.02087179612484339,3.5032559762490496e-05,-0.013205216069233883,0.02209669377385979
0.20202020202020202,0.7088607594936709,0.022782236435590738,0.02066206149270273,2.0671118339021073e-05,-0.013033289378488041,0.02179964205777973
0.30303030303030304,0.7088607594936709,0.022760396175479387,0.02024280587955317,-0.00011100650348940284,-0.012900960616509765,0.02161271638992994
0.40404040404040403,0.7088607594936709,0.022446546099493755,0.0202096361428978,-7.639056863079169e-06,-0.012796854672717465,0.02141589294321014
0.5050505050505051,0.7088607594936709,0.02233954947730075,0.020133843486025496,4.204403322121274e-05,-0.012742017888997875,0.02132255694672738
0.6060606060606061,0.7088607594936709,0.021969951366167775,0.019699231621464256,-2.134426520017611e-05,-0.01250075489628961,0.020927223790230785
0.7070707070707071,0.7088607594936709,0.02173646432625206,0.019561642801355816,-4.288731893370635e-05,-0.012389432138282362,0.0207349057761564
0.8080808080808081,0.7088607594936709,0.021676985748327982,0.019373707986314933,-9.510119069631174e-06,-0.012315208120392874,0.02062205013299344
0.9090909090909091,0.7088607594936709,0.021480392536684136,0.01932629022880035,1.0961590968932228e-05,-0.012242004829645345,0.020488455715714022
1.0101010101010102,0.7088607594936709,0.021251492590067294,0.019132998980146837,9.701905940433354e-06,-0.01211534747106424,0.020275430540646136
1.1111111111111112,0.7088607594936709,0.021131526793134424,0.01913888721376441,6.924304963478673e-05,-0.01208112420206965,0.020209376641585966
1.2121212121212122,0.7088607594936709,0.020929320222287485,0.018781681326830186,-4.893486985651556e-05,-0.0119133004647353,0.01994260162295609
1.3131313131313131,0.7088607594936709,0.02107754324403617,0.018800167326927186,6.049797502887211e-05,-0.011963313171289007,0.020036435833530857
1.4141414141414141,0.7088607594936709,0.02075167849347459,0.018507593700179407,3.6442776083533275e-05,-0.011777781658096198,0.019725707463644073
1.5151515151515151,0.7088607594936709,0.020493978033030547,0.018748859250215744,-9.75061840202368e-06,-0.011772851184973886,0.019679543551823393
1.6161616161616161,0.7088607594936709,0.02026156111260462,0.018516918115540244,3.985301275340268e-05,-0.01163354376844346,0.019448141607624023
1.7171717171717171,0.7088607594936709,0.020211062782335382,0.018347502357299508,0.0001124831034977048,-0.011567569541890466,0.01934769590535018
1.8181818181818181,0.7088607594936709,0.019984262098338226,0.018255971607562677,9.256914808621018e-07,-0.011472070111770271,0.019178610795794696
1.9191919191919191,0.7088607594936709,0.020297962645304826,0.018080654406662934,-8.572198269295811e-06,-0.011513585115590327,0.01928515294266574
2.0202020202020203,0.7088607594936709,0.01991048278916469,0.01798001436692504,-4.6036295505764624e-05,-0.01136714914682692,0.01901903869685245
2.121212121212121,0.7088607594936709,0.01993063274253366,0.017869661460694693,-4.585951483904064e-05,-0.011340088260968504,0.018984403380574864
2.2222222222222223,0.7088607594936709,0.02003564478816171,0.017939995386535394,-2.761887421776433e-05,-0.011392692052409132,0.01907441768146695
2.323232323232323,0.7088607594936709,0.019809825453214164,0.017840674005002853,1.389615829261451e-06,-0.011295149837465105,0.018902333221745168
2.4242424242424243,0.7088607594936709,0.01966241868859692,0.017749253943229595,-6.17249621480822e-05,-0.011223501789547953,0.018779374102929604
2.525252525252525,0.7088607594936709,0.019631964835439462,0.017602762085465497,-6.663501852795533e-06,-0.011170418076271487,0.018700123081833935
2.6262626262626263,0.7088607594936709,0.019588021779892203,0.017616828018496025,-1.0793271515100235e-05,-0.011161454939516468,0.018680598631950006
2.727272727272727,0.7088607594936709,0.019436854255534833,0.01766164428174655,-1.9080219394544406e-05,-0.011129549561184414,0.018612879101116028
2.8282828282828283,0.7088607594936709,0.019581383267045158,0.017489865396768858,1.133171375745273e-06,-0.011121374599144205,0.01862391496106764
2.929292929292929,0.7088607594936709,0.01935324164245691,0.017484619222829352,-5.176589410613648e-05,-0.011051358259585878,0.01849010139821511
3.0303030303030303,0.7088607594936709,0.019180789383165305,0.017552406751313556,4.736721494361915e-05,-0.011019958840343657,0.018420840860814823
3.131313131313131,0.7088607594936709,0.019230424634488444,0.017278987571590684,-5.638796660257362e-06,-0.010952823661823739,0.01833277039223127
3.2323232323232323,0.7088607594936709,0.01936002883975496,0.01739121717128659,3.788841815301146e-05,-0.011025373803312465,0.018454673987289446
3.3333333333333335,0.7088607594936709,0.01918099143900159,0.01725503585437046,6.213295539098824e-05,-0.010930808188011615,0.018294523263227003
3.4343434343434343,0.7088607594936709,0.019073834099663213,0.01720655826728564,-4.232298746887447e-05,-0.010884117710084656,0.018212279663907562
3.5353535353535355,0.7088607594936709,0.01915325289558591,0.017202464525432518,4.017879169141415e-05,-0.010906715226305527,0.018256329635334297
3.6363636363636362,0.7088607594936709,0.0190189058525268,0.017138490376809958,3.7398607475846988e-06,-0.010847218868801025,0.018151896299064066
3.7373737373737375,0.7088607594936709,0.019043847414594885,0.017299241540215792,2.4794055320072725e-05,-0.010902926686443203,0.018234297633101932
3.8383838383838382,0.7088607594936709,0.01902911501674353,0.017142821069695474,1.4282541400550417e-05,-0.010851580825931701,0.018159609871203904
3.9393939393939394,0.7088607594936709,0.01909759373488501,0.017236441541205617,-1.1408162179032993e-05,-0.010900210582827186,0.01823838907128507
4.040404040404041,0.7088607594936709,0.019015667142953042,0.01708974975040757,-0.00010189473786340827,-0.010831625068008182,0.018130452234454527
4.141414141414141,0.7088607594936709,0.018915121777253664,0.017153393118883243,-1.704141195322737e-05,-0.010820554468841073,0.018098703788715625
4.242424242424242,0.7088607594936709,0.018894298102593663,0.017147418212094617,5.3933669281109734e-05,-0.010812514894406483,0.01808448913469871
4.343434343434343,0.7088607594936709,0.018930808759826213,0.017039898131873232,6.225435024076752e-05,-0.010791212067509832,0.018060072608843226
4.444444444444445,0.7088607594936709,0.018911173471865137,0.01707992112797933,9.303786765052357e-05,-0.01079732837995334,0.01806601241609309
4.545454545454545,0.7088607594936709,0.018954281620090146,0.016924045421283177,-8.506389285208757e-06,-0.010763498112411996,0.018025126883467996
4.646464646464646,0.7088607594936709,0.018869525525508142,0.017067356749099597,-2.2753133965218144e-05,-0.010781064682382322,0.018036138423844116
4.747474747474747,0.7088607594936709,0.019151001905389507,0.016963669639082236,1.571992012529662e-06,-0.010834401463341524,0.01815642309038781
4.848484848484849,0.7088607594936709,0.018976972995748655,0.01694564174621643,5.516338022407643e-05,-0.010776784422589525,0.018047504576934166
4.94949494949495,0.7088607594936709,0.01900519542618221,0.017028100632442755,-4.009791211101963e-05,-0.010809988817587489,0.018097958658571695
5.05050505050505,0.7088607594936709,0.01878401299907231,0.017008319675624058,5.989479123692715e-05,-0.010737699802408908,0.017962414838108218
5.151515151515151,0.7088607594936709,0.01886409652711403,0.016927292623163007,3.925205224030128e-05,-0.01073741674508311,0.017974256967096786
5.252525252525253,0.7088607594936709,0.018740983137189197,0.017103931165314903,2.0611021849704795e-05,-0.01075347429075123,0.01797847877741868
5.353535353535354,0.7088607594936709,0.018979744913895237,0.017067577485258133,3.4936552242847385e-06,-0.010814196719746011,0.018099577007774575
5.454545454545454,0.7088607594936709,0.018900486172688503,0.017068997464137318,-1.5058735541246152e-05,-0.010790845091047748,0.018054566783467313
5.555555555555555,0.7088607594936709,0.018738986783705648,0.016915654449979205,-0.00013589002232686464,-0.010696392370105454,0.017898663756538036
5.656565656565657,0.7088607594936709,0.01886555967982237,0.016922207848786532,-6.0675266746220216e-05,-0.010736330258582671,0.01797316285156331
5.757575757575758,0.7088607594936709,0.01876248865441936,0.01703517115173906,2.3019852415961345e-05,-0.010739297941847525,0.017961275593801167
5.858585858585858,0.7088607594936709,0.01892109624869062,0.017157747313725748,9.271810953631295e-06,-0.010823653068724908,0.01810395110741284
5.959595959595959,0.7088607594936709,0.019083043461047715,0.016971937605848395,-4.795919716649664e-05,-0.010816494320068834,0.018120151520785648
6.0606060606060606,0.7088607594936709,0.01894388141672783,0.017163210565771306,-3.377181352265997e-06,-0.01083212759474974,0.018119289406149725
6.161616161616162,0.7088607594936709,0.018855254098414855,0.01715508711897396,-1.0210004073038114e-06,-0.010803102365216645,0.018065273249912504
6.262626262626262,0.7088607594936709,0.019031130994025085,0.01720866940544138,4.158393409135774e-05,-0.010871940119839938,0.0181886501863226
6.363636363636363,0.7088607594936709,0.01896440945983322,0.01724949297116003,1.315391799750454e-05,-0.010864170729297974,0.018167771060848194
6.4646464646464645,0.7088607594936709,0.019091596382765082,0.01718038546369955,-4.717942108183384e-06,-0.010881594553939389,0.01821136400513055
6.565656565656566,0.7088607594936709,0.019159206736405754,0.017220791167578003,-5.146254124676591e-05,-0.010913999371195127,0.01826751483483798
6.666666666666667,0.7088607594936709,0.019248790029202878,0.017162696417060305,-1.275452950623727e-06,-0.010923445933878955,0.018295161412403803
6.767676767676767,0.7088607594936709,0.019287457093933473,0.017139966965827445,-6.084481633596849e-05,-0.010928227217928275,0.018308719167931208
6.8686868686868685,0.7088607594936709,0.019213215801199817,0.017585161313658417,3.529882290807232e-05,-0.01103951313445747,0.01845323274262072
6.96969696969697,0.7088607594936709,0.019293120212351713,0.017501638857259864,5.8157458533608936e-05,-0.011038427720883473,0.018462956824459927
7.070707070707071,0.7088607594936709,0.019541741433362098,0.017427373563454477,-1.8413125798176737e-05,-0.011090734499044972,0.018575058456396315
7.171717171717171,0.7088607594936709,0.019431560235198122,0.017466336269423562,8.875471727593309e-05,-0.011069368951386506,0.01852792224569988
7.2727272727272725,0.7088607594936709,0.019482402132287403,0.017465626037025582,2.0302966663584834e-05,-0.011084408450793896,0.018556426714086607
7.373737373737374,0.7088607594936709,0.019490149468096338,0.017675747665056862,1.2506935682842313e-05,-0.01114976913994596,0.018649275780187994
7.474747474747475,0.7088607594936709,0.019691630066404932,0.01779306895264279,2.3171566782187036e-05,-0.011245409705714315,0.01881437420242002
7.575757575757575,0.7088607594936709,0.019651317540100348,0.017667999090379256,-1.9358808512380993e-06,-0.011195794989143882,0.018738543799856885
7.6767676767676765,0.7088607594936709,0.019720256970785083,0.017877432640916614,2.0141828597500992e-06,-0.011279306883510507,0.018866467060325035
7.777777777777778,0.7088607594936709,0.019965146286732138,0.01787284763550629,-4.037368644247066e-05,-0.011351398176671527,0.019005699707007634
7.878787878787879,0.7088607594936709,0.020100566374358943,0.01787608960729834,-1.561724856212873e-05,-0.011392996794497184,0.019085820764327605
7.979797979797979,0.7088607594936709,0.020134147936167742,0.018012588911501815,3.3835167833014675e-05,-0.011444021054300868,0.01916174775453535
8.080808080808081,0.7088607594936709,0.02023446854139289,0.018173586015046195,3.450827334770478e-05,-0.011522416366931725,0.019286878019937274
8.181818181818182,0.7088607594936709,0.02042776296910366,0.018371606812032124,0.0001040005133425354,-0.011639810934340734,0.01948207011024116
8.282828282828282,0.7088607594936709,0.020303228509800618,0.018207862391449982,2.683637629462667e-05,-0.01155332727037518,0.01934091803797905
8.383838383838384,0.7088607594936709,0.020558366250131563,0.01842298419845225,-4.544578622963709e-05,-0.011694405134575144,0.019578368395687627
8.484848484848484,0.7088607594936709,0.02043827415465795,0.018533493753080957,0.00011316316440436114,-0.01169153037232167,0.01955656494511945
8.585858585858587,0.7088607594936709,0.02090814633672608,0.01872753909411347,-6.577058739113461e-05,-0.011890705629251864,0.019907941962028997
8.686868686868687,0.7088607594936709,0.02085876148661581,0.019019181031558256,8.244692325582185e-05,-0.01196338275545222,0.020003025009836237
8.787878787878787,0.7088607594936709,0.02114545432056736,0.018970422067696075,1.8857692741471912e-05,-0.012034762916479029,0.020146216156219195
8.88888888888889,0.7088607594936709,0.021333637731951374,0.01898041198353221,-1.581023483511709e-05,-0.012094214914645074,0.020259803912512687
8.98989898989899,0.7088607594936709,0.02129948222642359,0.01898702530442293,8.211464362767539e-05,-0.012085952259253956,0.020243060377927398
9.09090909090909,0.7088607594936709,0.021719600340362594,0.019331200118957066,1.6802052098939023e-05,-0.0123152401377959,0.020629378159018545
9.191919191919192,0.7088607594936709,0.021758724076560598,0.019690386150932174,-8.37800817630983e-05,-0.012434733068247831,0.02080232579064074
9.292929292929292,0.7088607594936709,0.02190576345591964,0.01956374348397949,-5.8484067212868036e-06,-0.01244085208196974,0.020833720196664202
9.393939393939394,0.7088607594936709,0.022209749139513735,0.019974114177034697,-4.8666551586992584e-05,-0.012655158994964529,0.02118077510718468
9.494949494949495,0.7088607594936709,0.02250794126299871,0.020115960040042163,3.9405457627349955e-05,-0.012787170390912263,0.02141249820948848
9.595959595959595,0.7088607594936709,0.022394948116046934,0.020254687331335026,-4.15957168265009e-05,-0.012794890634214587,0.021405339958280308
9.696969696969697,0.7088607594936709,0.022589931758507396,0.020476087209330005,3.520498025287004e-05,-0.012919805690351222,0.021610772075286937
9.797979797979798,0.7088607594936709,0.022949118290828067,0.020673986673265705,-4.755446960017266e-06,-0.013086931489228132,0.02190036660487301
9.8989898989899,0.7088607594936709,0.023204392816747722,0.020830571220584286,-0.00011756651180526353,-0.013210489211199602,0.022114186664315374
10.0,0.7088607594936709,0.02336617784642578,0.021148189677263035,-5.50104112532146e-05,-0.013354310257106644,0.022340118869053908
0.0,0.810126582278481,0.023282101087119682,0.021062423421479716,4.607731890674483e-05,-0.013303357352579818,0.022255579290054478
0.10101010101010101,0.810126582278481,0.02342712132407509,0.021037828173283812,3.157041408688991e-05,-0.01333948484920767,0.022328624338371583
0.20202020202020202,0.810126582278481,0.022731188465075734,0.020832403636518233,2.87420386091567e-05,-0.01306907763047819,0.021843835638040668
0.30303030303030304,0.810126582278481,0.022793155330978313,0.020331151699422588,4.389534963738869e-05,-0.012937292109120271,0.021667448881434466
0.40404040404040403,0.810126582278481,0.022552029522164358,0.020141286404805017,-2.8922930614196273e-06,-0.012807994778090812,0.021448510276695285
0.5050505050505051,0.810126582278481,0.022142819423290123,0.02004036599600802,-4.5379455732140766e-05,-0.012654955625789442,0.021170184073955222
0.6060606060606061,0.810126582278481,0.022083673271797867,0.019885302497329532,8.336236385303087e-05,-0.012590692730738219,0.02107117000014592
0.7070707070707071,0.810126582278481,0.021619265916474374,0.019697558229822026,4.6146732745105784e-05,-0.01239504724388892,0.020725493921051157
0.8080808080808081,0.810126582278481,0.021486819125579114,0.019410185542881923,-4.912810859554853e-05,-0.01226910140053831,0.020527610521046593
0.9090909090909091,0.810126582278481,0.021424463840540354,0.019299383817244754,-3.9446472315497465e-05,-0.012217154297335534,0.02044503812457229
1.0101010101010102,0.810126582278481,0.021168509356172222,0.019157554403622157,1.9902134039616158e-05,-0.012097819127938312,0.020238132269072104
1.1111111111111112,0.810126582278481,0.0210521057848694,0.019089810792961126,6.43746058849954e-05,-0.012042574973349157,0.020143081942232077
1.2121212121212122,0.810126582278481,0.020767041026779016,0.018873202992926212,5.114430499030792e-05,-0.011892073205911569,0.019888063017274797
1.3131313131313131,0.810126582278481,0.0209467701382284,0.018755276551324068,4.748880341587396e-05,-0.01191061400686574,0.019941711975161078
1.4141414141414141,0.810126582278481,0.020873596019121202,0.018753934094285024,3.5771510746688752e-06,-0.011888259034021867,0.019898619276647284
1.5151515151515151,0.810126582278481,0.020560339985893714,0.018567400275677545,0.00012529826154209322,-0.011738322078471378,0.01964105317883183
1.6161616161616161,0.810126582278481,0.02036502311328734,0.018338212422398675,3.549655560366115e-05,-0.011610970660705803,0.019431156976145343
1.7171717171717171,0.810126582278481,0.0203627598204915,0.018261851337895207,-6.4024602326788764e-06,-0.011587383347516012,0.01939782544765824
1.8181818181818181,0.810126582278481,0.020249903564732347,0.01812186097299121,-1.5984071692842592e-05,-0.011511529361317066,0.01927421253541806
1.9191919191919191,0.810126582278481,0.020115778662714294,0.0182788703424678,-7.607959872529153e-05,-0.011518394701554628,0.01926357460355041
2.0202020202020203,0.810126582278481,0.020186968794120005,0.01815255673335561,5.311723530978655e-05,-0.011501857658242685,0.01925077642758305
2.121212121212121,0.810126582278481,0.01993165073375443,0.017869092170369128,-2.0996819685213907e-05,-0.011340222871237067,0.01898462468672394
2.2222222222222223,0.810126582278481,0.01988125342805263,0.01779058274038306,-0.00010739910232453587,-0.011301550850530707,0.018923651648667487
2.323232323232323,0.810126582278481,0.019761796056843726,0.017897996189976156,-1.7095141940182166e-06,-0.011297937674045964,0.018898949950818082
2.4242424242424243,0.810126582278481,0.019577602260499823,0.017667796594555384,-6.358680435858661e-05,-0.01117361965651656,0.018696325362871646
2.525252525252525,0.810126582278481,0.019560052419133712,0.01756779383442915,-3.304309219656341e-05,-0.011138353876068856,0.01864401614717502
2.6262626262626263,0.810126582278481,0.019589976282125048,0.017624036150729945,-1.1005640665968418e-05,-0.011164203729856497,0.018684746028799087
2.727272727272727,0.810126582278481,0.01954238586802396,0.01744658283807134,-2.8864835795363783e-05,-0.01109669061182859,0.018583399682959783
2.8282828282828283,0.810126582278481,0.019480190026072385,0.01729069017662848,4.399025977509879e-06,-0.011031264060810259,0.018482962369914337
2.929292929292929,0.810126582278481,0.0193218155570881,0.017545711058942298,5.207335484445559e-06,-0.011060257984809118,0.018497827478820488
3.0303030303030303,0.810126582278481,0.019346005657815604,0.01754188596414239,8.72904702361325e-05,-0.011066367486587398,0.018510622135917976
3.131313131313131,0.810126582278481,0.019216979656440866,0.017421375295259955,5.446798935789581e-05,-0.010991506485510246,0.018385301464586272
3.2323232323232323,0.810126582278481,0.01924998890162059,0.01728138287149767,1.362359492632043e-05,-0.010959411531935477,0.018345091850133617
3.3333333333333335,0.810126582278481,0.01919211411008471,0.0172569110389124,6.279240634103965e-05,-0.010934707544699133,0.018301733399652187
3.4343434343434343,0.810126582278481,0.019398063735427067,0.017301398312461348,-3.333793443747903e-05,-0.011009838614366526,0.018439440537245517
3.5353535353535355,0.810126582278481,0.019059653422621572,0.01730286548190331,-5.572299517269526e-06,-0.010908755671357464,0.01824480792783355
3.6363636363636362,0.810126582278481,0.019069834762109796,0.017285058234325794,6.69881331522129e-05,-0.010906467898930676,0.018243412341612975
3.7373737373737375,0.810126582278481,0.01910508120816852,0.017304517250624814,-9.366493911733664e-06,-0.010922879537638002,0.018271466856828168
3.8383838383838382,0.810126582278481,0.01916084715834012,0.01714108792613565,1.0341406405195971e-05,-0.01089058052534273,0.018235062765740318
3.9393939393939394,0.810126582278481,0.018996559961198443,0.017068973212526845,4.130982428312712e-05,-0.010819659952117587,0.018110010582168563
4.040404040404041,0.810126582278481,0.01898991785511527,0.017026978699932173,-3.441664581744091e-05,-0.010805068966514233,0.018088604436937314
4.141414141414141,0.810126582278481,0.019179506178771833,0.017151590555201428,-7.957096894905815e-05,-0.01089932902019198,0.018250766379055698
4.242424242424242,0.810126582278481,0.018941551957150096,0.01697913978456435,7.372940129485861e-06,-0.010776207522514333,0.018040578788744308
4.343434343434343,0.810126582278481,0.01896104166858865,0.01704167725207956,-2.2345518363003912e-05,-0.010800815676200464,0.018077981364335284
4.444444444444445,0.810126582278481,0.01883358819741394,0.017116137101926575,9.45478109907923e-05,-0.010784917589802153,0.018037037834390753
4.545454545454545,0.810126582278481,0.018714278955636213,0.017014152082219933,-5.448503562616185e-05,-0.010718529311356844,0.017925036276206428
4.646464646464646,0.810126582278481,0.01883952025332422,0.017006217524647826,2.3894296955477883e-05,-0.010753721333391615,0.017993101211166835
4.747474747474747,0.810126582278481,0.018812154465932842,0.01706691336422868,-6.359652153814495e-05,-0.010763720349048456,0.018003427743635277
4.848484848484849,0.810126582278481,0.018719569173820828,0.016965153538149105,-2.070916304382763e-05,-0.010705416813590978,0.01790697143664625
4.94949494949495,0.810126582278481,0.01883610020928337,0.017029483246220334,2.2625087836273283e-05,-0.01075967503665111,0.018000957015479605
5.05050505050505,0.810126582278481,0.018863315113227856,0.017062271829704524,1.5333051716250803e-05,-0.010777676082879713,0.018030404107723615
5.151515151515151,0.810126582278481,0.01882583369165551,0.016899445324400592,-1.052827502878564e-05,-0.01071758370481683,0.017940386055868784
5.252525252525253,0.810126582278481,0.01908198660234113,0.016995569798398606,8.181392685894533e-05,-0.010823266920221921,0.018129601507696016
5.353535353535354,0.810126582278481,0.01906658633324544,0.01681688226905599,1.9181446811214626e-05,-0.01076504058069043,0.018047238287314665
5.454545454545454,0.810126582278481,0.018834224547439653,0.01705521115010361,-1.7393006709035008e-05,-0.010766830709262978,0.018010759915200583
5.555555555555555,0.810126582278481,0.018767763032003514,0.01716683076405772,-4.195184686312701e-06,-0.010780378138818368,0.018020711659521578
5.656565656565657,0.810126582278481,0.01906798371110629,0.017095535636872185,5.619363988605689e-05,-0.010849055804393541,0.018162527897777794
5.757575757575758,0.810126582278481,0.018961127188277412,0.017077662815522563,-5.1242964761827584e-05,-0.010811637001139992,0.018093287492641812
5.858585858585858,0.810126582278481,0.019048373898884287,0.017147370493136617,-1.5526508144312283e-05,-0.01085872331760627,0.018172618460254752
5.959595959595959,0.810126582278481,0.019220646176738607,0.01703503332296586,-4.984103372643562e-05,-0.01087670384991134,0.018226593319712377
6.0606060606060606,0.810126582278481,0.018997687918572342,0.01706988423508642,3.253188398002681e-05,-0.010820271646097628,0.018110989357757835
6.161616161616162,0.810126582278481,0.019012264170187722,0.01724420336223012,1.2091115782177572e-05,-0.010876940259725354,0.018192796028456883
6.262626262626262,0.810126582278481,0.019214244247844237,0.017084870051992215,-1.6999652454357836e-05,-0.010889734289950936,0.018243025175451816
6.363636363636363,0.810126582278481,0.019253499889464967,0.017374385209375693,-4.468561856399083e-05,-0.010988365529652197,0.01838626623604377
6.4646464646464645,0.810126582278481,0.019042714700301305,0.017190913107469563,8.212106507671098e-07,-0.01087008834233126,0.01818765583866123
6.565656565656566,0.810126582278481,0.01914692887184544,0.017132258611314077,-6.091258490809284e-05,-0.010883756244947855,0.01822361556696591
6.666666666666667,0.810126582278481,0.019348350442756505,0.01706150333224849,-4.013413564770077e-06,-0.010922956132501499,0.01831233637693197
6.767676767676767,0.810126582278481,0.01930865993087918,0.01732038833833128,-2.6356275479208814e-05,-0.010988714480763136,0.01839534713402029
6.8686868686868685,0.810126582278481,0.019253936084359557,0.017495319385762063,7.35747032961462e-05,-0.011024776641036484,0.01843807836062101
6.96969696969697,0.810126582278481,0.01943005324510356,0.017539672879583558,1.4180984439843455e-05,-0.011090917837406135,0.01855723360793063
7.070707070707071,0.810126582278481,0.019477658103635182,0.017505233908871338,7.046891491858713e-05,-0.011094867603751956,0.018570576617573196
7.171717171717171,0.810126582278481,0.019476537448131232,0.017464959253816827,2.5644743732473008e-05,-0.011082449010584418,0.018552772103584254
7.2727272727272725,0.810126582278481,0.019489637417373265,0.017362461011736698,3.7030248679622226e-05,-0.011055629528732989,0.018518019952756204
7.373737373737374,0.810126582278481,0.01969782857988681,0.017734195820432893,4.119137592405332e-05,-0.01122960732009591,0.018793245943034543
7.474747474747475,0.810126582278481,0.019758293131004266,0.017728233643647565,1.8181941926647036e-05,-0.01124595803239555,0.018825561619706437
7.575757575757575,0.810126582278481,0.019735709518541457,0.01781451636640713,6.927145573181231e-05,-0.011265067765484575,0.018849071567381224
7.6767676767676765,0.810126582278481,0.019861460752573664,0.017903008657667634,-3.1859769066480246e-05,-0.011329340823072388,0.01895833546358828
7.777777777777778,0.810126582278481,0.01984391941356956,0.0179282154621276,-3.0430369143593522e-05,-0.011331640462709148,0.018958870285732767
7.878787878787879,0.810126582278481,0.020053337771972442,0.01801223079162563,0.00015025796677639716,-0.01141967056907942,0.01911646406023225
7.979797979797979,0.810126582278481,0.020031081484143485,0.018157043057228695,3.7838209083365814e-05,-0.011456437362411654,0.019163024923174392
8.080808080808081,0.810126582278481,0.020194610910622333,0.01819292882879206,1.0854228208165027e-05,-0.011516261921824316,0.019271901920195372
8.181818181818182,0.810126582278481,0.020115975041997605,0.018276128318141106,-6.473783971004687e-05,-0.011517631008041611,0.019262392116324197
8.282828282828282,0.810126582278481,0.020273316068025758,0.018328895800189732,6.658140924305492e-05,-0.011580663560464647,0.01937476624801699
8.383838383838384,0.810126582278481,0.020347899072351648,0.01851726090345229,-3.420020516808329e-05,-0.01165954799274118,0.019497233163384545
8.484848484848484,0.810126582278481,0.020464726197307773,0.018593352070846503,-1.1468906055622354e-07,-0.011717423480446281,0.019596170553979893
8.585858585858587,0.810126582278481,0.02070198867401547,0.018643239444274064,-4.715363918752339e-05,-0.01180356843548686,0.019753411113282354
8.686868686868687,0.810126582278481,0.020892691180348255,0.018766324409024704,4.837816383752287e-05,-0.011897704676811888,0.019915006338296317
8.787878787878787,0.810126582278481,0.02107834861112526,0.018848504380197174,-4.4763152827478386e-05,-0.011978055897396731,0.020056758527685226
8.88888888888889,0.810126582278481,0.02126725150166491,0.019109350001157186,3.943365478393401e-05,-0.012112980450846628,0.020274727037206515
8.98989898989899,0.810126582278481,0.021362898653852002,0.01922051773314671,-2.2203644152244122e-05,-0.012175024916099612,0.02037638945992693
9.09090909090909,0.810126582278481,0.02136317746365337,0.019342037333046284,-6.582128594481865e-06,-0.012211564439009896,0.020427738823846298
9.191919191919192,0.810126582278481,0.021829819680148372,0.01946437270704999,-2.7116322220158025e-05,-0.012388257716159508,0.020748525047565074
9.292929292929292,0.810126582278481,0.02177812405778634,0.0197358645042121,-6.14536018411907e-05,-0.012454196568599533,0.020832480871948403
9.393939393939394,0.810126582278481,0.02203619260730634,0.019855357965050835,0.0001001628454076945,-0.012567465171707152,0.021031467612331205
9.494949494949495,0.810126582278481,0.022087067253332607,0.020105724625990702,1.6134946039161124e-05,-0.012657837563796992,0.021166081158485985
9.595959595959595,0.810126582278481,0.022355612086685475,0.020371111224310994,6.907987858728084e-05,-0.012818016993298941,0.021432713782138346
9.696969696969697,0.810126582278481,0.02277426766210488,0.020323550903957755,-8.46093303638333e-05,-0.012929345569818791,0.02165367121243334
9.797979797979798,0.810126582278481,0.02285547782326493,0.020473000233559236,-1.2402778837179597e-05,-0.01299854341704725,0.021762280757448873
9.8989898989899,0.810126582278481,0.02315380860114859,0.020677774817194145,4.481140572843954e-06,-0.013149475025502821,0.02202044604353213
10.0,0.810126582278481,0.023502369734076514,0.02111744645327903,-8.044196466411553e-05,-0.013385944856206661,0.022405742705138197
0.0,0.9113924050632911,0.023475623011795253,0.021097174758057863,-6.440329733118486e-05,-0.013371839330955934,0.022381661705154
0.10101010101010101,0.9113924050632911,0.023145917994158677,0.020779117971967534,1.869323242192414e-05,-0.013177510789837862,0.022057981576426446
0.20202020202020202,0.9113924050632911,0.02282599336129715,0.020702079705783527,-2.561207039423183e-05,-0.013058421920124201,0.02184166914591891
0.30303030303030304,0.9113924050632911,0.0227249403519721,0.020428455732172213,-3.946550725895661e-05,-0.012946018825243294,0.02166827063206206
0.40404040404040403,0.9113924050632911,0.022323337101711294,0.02028356610847113,2.8411621732914155e-05,-0.012782070963054728,0.02137662207248516
0.5050505050505051,0.9113924050632911,0.022157497286594736,0.020030881322811073,4.4875765388043356e-05,-0.012656513582821742,0.021174577575920246
0.6060606060606061,0.9113924050632911,0.02188828358391243,0.019963219686563873,6.666541748552658e-05,-0.012555450981142892,0.02099237522506669
0.7070707070707071,0.9113924050632911,0.02192782713582399,0.019530810272381894,2.0733128063100126e-05,-0.012437591222461766,0.020833031726246405
0.8080808080808081,0.9113924050632911,0.021517765130782136,0.019280441089655886,9.493208835690463e-05,-0.012239461866131405,0.020491575297040914
0.9090909090909091,0.9113924050632911,0.02151704536406421,0.019352934504671352,-2.7168311345600744e-05,-0.01226099396062067,0.02052080797210342
1.0101010101010102,0.9113924050632911,0.021267404894799863,0.019152233548765142,4.892425750992655e-05,-0.012125891533069501,0.020292841991533937
1.1111111111111112,0.9113924050632911,0.02122653063603095,0.01894462778773482,3.9581735646828544e-07,-0.012051347527129731,0.020182561859279226
1.2121212121212122,0.9113924050632911,0.020916176178199068,0.018957679040364477,1.730070394870214e-05,-0.011962156565569062,0.02000896708278548
1.3131313131313131,0.9113924050632911,0.020823106266620667,0.018786842714440328,-2.858841851502228e-05,-0.011882984694318298,0.01988339114447123
1.4141414141414141,0.9113924050632911,0.020507182036565107,0.01869322235068548,4.1345996642173315e-05,-0.011760121316175176,0.019663186207016556
1.5151515151515151,0.9113924050632911,0.02060492098940764,0.018452967655637646,-2.4993657220571594e-05,-0.011717366593513585,0.019617714386847823
1.6161616161616161,0.9113924050632911,0.020526066864249785,0.018308364146152317,0.00015451763562004432,-0.011650329303120628,0.01951380380868798
1.7171717171717171,0.9113924050632911,0.020376852767404335,0.018340471285731453,-1.0431430010552479e-05,-0.011615197215940735,0.01943883378850833
1.8181818181818181,0.9113924050632911,0.02025842792718429,0.018260175258735675,-2.3557932629852034e-05,-0.011555580955775989,0.01933693675514252
1.9191919191919191,0.9113924050632911,0.02024121278688176,0.01835627342484558,9.1210139047768e-06,-0.011579245863518203,0.019367665898185036
2.0202020202020203,0.9113924050632911,0.020004370945210966,0.0181755289060469,1.6409433595041193e-07,-0.01145396995537736,0.01915553929407787
2.121212121212121,0.9113924050632911,0.020071161844530196,0.018062871229205767,-6.910858693946895e-05,-0.011440209922120788,0.0191465498459713
2.2222222222222223,0.9113924050632911,0.019702178690580757,0.01787157808134328,2.2136754357944447e-05,-0.011272127031577211,0.018853689122808638
2.323232323232323,0.9113924050632911,0.01986993484031807,0.017869742560402496,2.36875577222528e-05,-0.01132190322021617,0.018949223539402944
2.4242424242424243,0.9113924050632911,0.019807865710469334,0.017881541120155775,7.138579285475145e-05,-0.011306822049187532,0.018918804915369052
2.525252525252525,0.9113924050632911,0.01995556148692061,0.017532145608811556,-2.4313233259171082e-05,-0.01124631212871965,0.018861031986943073
2.6262626262626263,0.9113924050632911,0.019599602444385227,0.017855218647982618,1.125909466837827e-05,-0.011236446327710354,0.018788252771048803
2.727272727272727,0.9113924050632911,0.019559335100171733,0.017458878924475032,8.149557866688889e-06,-0.01110546420739403,0.01859828429584395
2.8282828282828283,0.9113924050632911,0.019445436420194424,0.017453529067072808,5.763401971961679e-05,-0.011069689646180169,0.018530222603247017
2.929292929292929,0.9113924050632911,0.019183627297586745,0.017182155266167634,6.392835794725826e-05,-0.010909734769126312,0.018265656670178317
3.0303030303030303,0.9113924050632911,0.019227247276775,0.017281695508195204,-1.7130624162038515e-05,-0.01095268283549106,0.01833208894144575
3.131313131313131,0.9113924050632911,0.019208970194535324,0.017382520853010616,1.667884595111223e-06,-0.010977447314263783,0.01836399331610755
3.2323232323232323,0.9113924050632911,0.019167644883917586,0.017200533734371352,0.00010782996040819046,-0.01091045358548668,0.018264668915970773
3.3333333333333335,0.9113924050632911,0.019147831405509363,0.017017918005397387,-7.643780220166003e-05,-0.010849724823272025,0.01817719131617765
3.4343434343434343,0.9113924050632911,0.019331427472812714,0.01735397830343569,-7.520980362811477e-05,-0.01100562173287452,0.018422932657391648
3.5353535353535355,0.9113924050632911,0.01916374693967623,0.017248779259287833,0.0001110303686995829,-0.01092375785968922,0.01828265093438533
3.6363636363636362,0.9113924050632911,0.019104565249577432,0.017216784473513488,1.212148099363146e-05,-0.010896404916927277,0.018234125682673435
3.7373737373737375,0.9113924050632911,0.019092707032461898,0.01732858991853938,5.832807485580264e-05,-0.010926389085300383,0.018274900992479512
3.8383838383838382,0.9113924050632911,0.01899275681040025,0.017116306525046608,-3.713667198054623e-05,-0.010832719000634058,0.018127632233501934
3.9393939393939394,0.9113924050632911,0.01903068074687551,0.016962224807447635,-7.263985675384892e-05,-0.010797871666296944,0.018085823859780067
4.040404040404041,0.9113924050632911,0.019010490844315903,0.016879415259858997,-1.1720881219954513e-05,-0.010766971831252472,0.018039619301381992
4.141414141414141,0.9113924050632911,0.019016107147720968,0.01707198880181853,0.00011502000716238552,-0.01082642878486185,0.018123522097790237
4.242424242424242,0.9113924050632911,0.019035748798261334,0.016898894999544282,4.655355022022656e-05,-0.010780393139341685,0.018062551481884424
4.343434343434343,0.9113924050632911,0.018788957112025478,0.017044886708064366,-1.096243905542124e-05,-0.010750153146026955,0.01798048351508762
4.444444444444445,0.9113924050632911,0.018910530510967243,0.016979441084853112,1.1965656685782537e-05,-0.010766991478746107,0.018022757130826433
4.545454545454545,0.9113924050632911,0.01897187942580703,0.016970164678952245,8.132967312512464e-05,-0.010782613231427783,0.01805498888396609
4.646464646464646,0.9113924050632911,0.01869822002083512,0.016855017387724627,6.559126201242825e-05,-0.010665971222567922,0.017848504871790783
4.747474747474747,0.9113924050632911,0.018816978105343697,0.017044512910382434,2.9041202679375428e-05,-0.010758447304717839,0.01799639934244132
4.848484848484849,0.9113924050632911,0.019094027178711913,0.0170722898843349,-4.377535137634158e-05,-0.010849895118914044,0.01816788203357723
4.94949494949495,0.9113924050632911,0.018718620623863726,0.017069816990430843,-4.7196345054211034e-05,-0.01073653128428837,0.017951285866734983
5.05050505050505,0.9113924050632911,0.01900395865027554,0.017061079985403883,2.024358966513056e-05,-0.010819511590703825,0.018110882515406036
5.151515151515151,0.9113924050632911,0.019080781416451486,0.01687634120558891,-1.0142651309079044e-05,-0.01078713678661212,0.01807964720111236
5.252525252525253,0.9113924050632911,0.018949170199866174,0.01710986093405604,2.839146820710883e-05,-0.010817709340176663,0.018099810599483217
5.353535353535354,0.9113924050632911,0.01903881923457267,0.017080206006043493,2.4848240032832244e-05,-0.01083570757218485,0.01813904552953082
5.454545454545454,0.9113924050632911,0.01897823461940849,0.01696251993988212,9.162614786869249e-05,-0.010782226367787182,0.018055663235607148
5.555555555555555,0.9113924050632911,0.01893743482975429,0.016936233060177698,8.662482529485168e-05,-0.010762100366979596,0.018020991369574364
5.656565656565657,0.9113924050632911,0.018865696561222757,0.017002661379427953,-4.222388956486208e-05,-0.010760507382195214,0.01800675703664222
5.757575757575758,0.9113924050632911,0.018864835232904064,0.016965374289931112,-1.4920825437060859e-05,-0.010749062856850554,0.017990486664097558
5.858585858585858,0.9113924050632911,0.018917852189125735,0.017165305334995277,-1.3896335100236019e-05,-0.010824947257236305,0.01810532266790521
5.959595959595959,0.9113924050632911,0.018916550743554902,0.017097772022552964,5.056396053585844e-05,-0.010804296829832359,0.018076130621475416
6.0606060606060606,0.9113924050632911,0.01910119192626399,0.017001981585508995,-5.686642765759898e-06,-0.010830952053531896,0.018142902040744858
6.161616161616162,0.9113924050632911,0.018901622932187948,0.017175653880627865,-2.295109938859325e-05,-0.010823183043844744,0.0181005050396731
6.262626262626262,0.9113924050632911,0.019016517491474955,0.01702327196510467,-3.8700431225656283e-05,-0.010811936836973887,0.018102510046539805
6.363636363636363,0.9113924050632911,0.01913990892810025,0.01709380051192456,6.111704579578305e-05,-0.010870112832007443,0.018203613667729684
6.4646464646464645,0.9113924050632911,0.019122345809850443,0.01716940060752271,3.3653182373544703e-05,-0.010887523925211945,0.01822461545103907
6.565656565656566,0.9113924050632911,0.019109512485569392,0.017168443741626564,-2.9770107898737794e-05,-0.010883386868158786,0.018216777889766708
6.666666666666667,0.9113924050632911,0.0191597189807154,0.01723654783074391,-1.4949799701280598e-06,-0.010918880043437794,0.018274189629411502
6.767676767676767,0.9113924050632911,0.019158346876279167,0.01723697031337337,8.787043747281439e-05,-0.010918595156895762,0.01827420881728022
6.8686868686868685,0.9113924050632911,0.01935888251655956,0.017391768261094984,-1.2361553271351587e-05,-0.011025195233296365,0.018454137623845145
6.96969696969697,0.9113924050632911,0.019342112211117726,0.017491031476769257,-4.664301187394803e-05,-0.011049943106366094,0.01848638742720192
7.070707070707071,0.9113924050632911,0.01950632306136608,0.017520584503518063,-4.3992859459479864e-05,-0.011108072269465244,0.018593309153691878
7.171717171717171,0.9113924050632911,0.01945068808434192,0.01747035203962116,3.534362905886032e-05,-0.011076312037188923,0.01854011452533892
7.2727272727272725,0.9113924050632911,0.019390929852804092,0.017555134513617503,-4.9949303435787766e-05,-0.011083819309926479,0.018541521276211868
7.373737373737374,0.9113924050632911,0.019678662247185816,0.01769089888715292,-2.0753708795644606e-05,-0.01121086834030162,0.018763947329231482
7.474747474747475,0.9113924050632911,0.019675817455698175,0.017831207690895377,-0.00010460588523976706,-0.011252107543978066,0.018822300600585068
7.575757575757575,0.9113924050632911,0.01959225249543142,0.017831921508344555,-1.6613768428886208e-05,-0.011227252201132791,0.018774107219950653
7.6767676767676765,0.9113924050632911,0.01973860462270135,0.017765304321431023,-9.123396236174173e-05,-0.011251172683239712,0.018830326683022598
7.777777777777778,0.9113924050632911,0.01982513091856116,0.017971762203922017,-7.166418649140676e-05,-0.011339067936744952,0.018966890134897784
7.878787878787879,0.9113924050632911,0.020034199850653852,0.018125126369004898,-1.1540615090583628e-05,-0.011447797865897625,0.01915117137698698
7.979797979797979,0.9113924050632911,0.020088780714749656,0.01801314107441112,1.6990304082733093e-05,-0.011430576536748232,0.01913559998943169
8.080808080808081,0.9113924050632911,0.020425291138741482,0.01800317303310234,1.8422562079147953e-05,-0.011528539251553147,0.019328417548063796
8.181818181818182,0.9113924050632911,0.02025217497782005,0.018362009798690317,5.066651386197649e-06,-0.011584255432953109,0.019376362837353812
8.282828282828282,0.9113924050632911,0.020443730492371786,0.01846595316916448,-4.583718538385628e-05,-0.01167290509846088,0.01953025540432183
8.383838383838384,0.9113924050632911,0.0204916379233243,0.018550685888808944,3.5500172497470744e-05,-0.01171269714363997,0.019593494176634897
8.484848484848484,0.9113924050632911,0.020517077593569178,0.01845487298617776,-6.475849363487062e-05,-0.01169158517392408,0.019567966932390112
8.585858585858587,0.9113924050632911,0.020830758757525436,0.01879575526897544,-5.750805909865843e-06,-0.011887954207950262,0.01989148516544784
8.686868686868687,0.9113924050632911,0.020847081908055353,0.018785213426769174,1.0551107387805865e-05,-0.011889688600447357,0.019896444872888244
8.787878787878787,0.9113924050632911,0.021129828990487702,0.018750664367662363,8.453862619396635e-05,-0.01196414800744502,0.020046949797592573
8.88888888888889,0.9113924050632911,0.02122295280924151,0.01907932433189573,2.954077264814595e-05,-0.012090683142341171,0.020236535300012952
8.98989898989899,0.9113924050632911,0.02131221862958955,0.019111701660581112,-1.6331967248109085e-05,-0.0121271760870512,0.020301621592970127
9.09090909090909,0.9113924050632911,0.02149028337463246,0.01957951616128953,3.357305947523629e-05,-0.012320939860776597,0.02060154759815053
9.191919191919192,0.9113924050632911,0.021644660337036808,0.01970161045176173,-3.568802691376817e-05,-0.01240388123663956,0.020741599024266654
9.292929292929292,0.9113924050632911,0.021916041228338817,0.019501595356906633,-1.6380901727642343e-05,-0.012425290975573634,0.02081413274023798
9.393939393939394,0.9113924050632911,0.022177814919443258,0.01962431264084049,-6.580281449209115e-06,-0.012540638268085123,0.02101772769490062
9.494949494949495,0.9113924050632911,0.022330118993339847,0.01998269489734819,-5.260676884443882e-05,-0.012693844167206413,0.021254050370887363
9.595959595959595,0.9113924050632911,0.02236670807434918,0.02019017593636079,-1.623644526703854e-06,-0.01276706520321299,0.021361766574763717
9.696969696969697,0.9113924050632911,0.02279310064656073,0.02042387319338511,1.855449261065e-05,-0.012965092151983751,0.021705705904712925
9.797979797979798,0.9113924050632911,0.022898472128011795,0.020666389567081056,-5.455576595362057e-05,-0.013069458508527856,0.021868238773208207
9.8989898989899,0.9113924050632911,0.022971979465713298,0.020821077189996512,-3.425888317498492e-05,-0.013137916996712943,0.021975697014555515
10.0,0.9113924050632911,0.02350182837751107,0.021016254790726968,1.200301928399658e-05,-0.01335542495047141,0.022362891617642936
0.0,1.0126582278481013,0.023330937902734484,0.020977485868825137,1.9794234437633983e-05,-0.013292527131467885,0.022247793869777568
0.10101010101010101,1.0126582278481013,0.023365586282292853,0.020923786214982358,-1.116797184863604e-05,-0.013286811749182564,0.022245433102053177
0.20202020202020202,1.0126582278481013,0.022986131562799335,0.020600501248300273,-3.667734078758914e-05,-0.013075989843329881,0.021891119195520375
0.30303030303030304,1.0126582278481013,0.02276701493116211,0.020616730451280835,7.366366250627074e-06,-0.013015123614732884,0.021771662686862682
0.40404040404040403,1.0126582278481013,0.022412544822512925,0.02036922312789972,-1.1183309941946153e-05,-0.012834530385123794,0.0214639620084634
0.5050505050505051,1.0126582278481013,0.022370891484377643,0.02016055011456683,-6.348130892876724e-05,-0.012759432479683341,0.021351982987047803
0.6060606060606061,1.0126582278481013,0.02215467230426473,0.019866671045253744,-3.01099699634275e-05,-0.012606403004855542,0.021103963049065706
0.7070707070707071,1.0126582278481013,0.022027456361159402,0.019657700012336958,6.688775295063931e-05,-0.012505546912048908,0.02094369347201643
0.8080808080808081,1.0126582278481013,0.021642388635119355,0.019510360105448578,-4.53329912086703e-05,-0.012345824622170378,0.02065919908188244
0.9090909090909091,1.0126582278481013,0.021522773437507456,0.019412569762386485,5.4503913674539086e-05,-0.012280602959968181,0.020549311726088634
1.0101010101010102,1.0126582278481013,0.021217486119294384,0.019324901852261284,9.161725740984111e-05,-0.0121627163914667,0.020337966790720925
1.1111111111111112,1.0126582278481013,0.021131987187973943,0.019172468739344542,-4.0325046844004246e-05,-0.012091336778195546,0.02022367312434583
1.2121212121212122,1.0126582278481013,0.020899861635325808,0.018785495932402366,2.0143426965056237e-05,-0.011905607270318452,0.019927017472186698
1.3131313131313131,1.0126582278481013,0.020844413484829235,0.018726990076594143,-5.162065620036836e-05,-0.011871421068427012,0.01987069702977235
1.4141414141414141,1.0126582278481013,0.020744863999339155,0.018696047250352038,-8.759064810884546e-06,-0.011832273374907358,0.019800122165490572
1.5151515151515151,1.0126582278481013,0.020576458840064465,0.018408856676484828,2.003871957950789e-05,-0.011695594654964789,0.019582869694882266
1.6161616161616161,1.0126582278481013,0.020536998743284685,0.018276042567157934,2.468332789226188e-05,-0.011643912393132786,0.01950509712522173
1.7171717171717171,1.0126582278481013,0.020380270698862637,0.01832317510354482,4.9282620235653114e-05,-0.011611033740722237,0.019433738633910656
1.8181818181818181,1.0126582278481013,0.02018348410305307,0.01823654564674998,1.4902989287166688e-05,-0.011526008924940915,0.019283886143764715
1.9191919191919191,1.0126582278481013,0.020105001916530186,0.018160329898513725,8.115004735042547e-05,-0.011479599544513172,0.019207159411600925
2.0202020202020203,1.0126582278481013,0.020070201402397563,0.017942034769102017,3.666963799605805e-06,-0.011403670851449875,0.019095271271800256
2.121212121212121,1.0126582278481013,0.019878077808002197,0.018079242017022917,-1.922562502016247e-05,-0.011387195947507533,0.01904251817908977
2.2222222222222223,1.0126582278481013,0.019957156954384585,0.01788080093834054,4.353262153306325e-05,-0.011351387367817536,0.01900439134435366
2.323232323232323,1.0126582278481013,0.01981472174465658,0.017885468030948013,-6.713284105809476e-05,-0.011310056932681377,0.018924352370770565
2.4242424242424243,1.0126582278481013,0.01964965860793051,0.01767610373838811,-2.5620858786071016e-05,-0.011197728703895585,0.018741032311108158
2.525252525252525,1.0126582278481013,0.01952425912589997,0.01766387066840711,7.338028031284422e-06,-0.011156438938292124,0.01866374010880732
2.6262626262626263,1.0126582278481013,0.01966557018694377,0.0175618712583484,8.276880125570108e-06,-0.01116823243358765,0.018702672711340698
2.727272727272727,1.0126582278481013,0.019505361893204617,0.017462775821739347,-2.0779061589026832e-05,-0.011090441314483189,0.018568554473369085
2.8282828282828283,1.0126582278481013,0.01942586359599764,0.017381609506895178,5.737308021705711e-07,-0.011042241930867846,0.018488692520785638
2.929292929292929,1.0126582278481013,0.019473900693262235,0.017415437846133204,-1.8448995346258153e-05,-0.011066801561818631,0.018530644822417196
3.0303030303030303,1.0126582278481013,0.019342423377378393,0.0173291845200513,2.7922686950811916e-05,-0.011001482369228908,0.018418574686916885
3.131313131313131,1.0126582278481013,0.01939641840464331,0.017307645998502055,-0.00013771221908587334,-0.01101121932094361,0.018442510878861104
3.2323232323232323,1.0126582278481013,0.01937883651694405,0.017332531754633097,-1.6020155787318358e-05,-0.011013410481473142,0.01844105290958754
3.3333333333333335,1.0126582278481013,0.019166773813459194,0.017259106498496712,1.5028015275933028e-05,-0.010927764093586772,0.018287735305045176
3.4343434343434343,1.0126582278481013,0.019157034309566428,0.01733108478100566,-5.758027386168936e-06,-0.010946435727171628,0.01831246506937882
3.5353535353535355,1.0126582278481013,0.018963339632120296,0.01745209827992014,2.2502041455500686e-05,-0.010924631373612131,0.018254737369392003
3.6363636363636362,1.0126582278481013,0.019079015370817822,0.017021333799614718,6.39202866466433e-05,-0.010830104751129761,0.018138263424382
3.7373737373737375,1.0126582278481013,0.019078099153222387,0.017129537201971596,-1.1513205175025303e-05,-0.010862290906558195,0.018182307348836895
3.8383838383838382,1.0126582278481013,0.019070469295728004,0.016966951897947214,-4.804881208927898e-05,-0.010811226358102563,0.01811075500137121
3.9393939393939394,1.0126582278481013,0.01914388426542492,0.017245210149739048,-4.090983768213571e-05,-0.01091672832454919,0.018268833884010457
4.040404040404041,1.0126582278481013,0.019012371522685624,0.017081070235713605,3.9318193769178144e-05,-0.010828032527519769,0.018124188692148897
4.141414141414141,1.0126582278481013,0.01903097045556582,0.016933082016950058,-1.8136696123512092e-05,-0.010789215741754763,0.01807360247173667
4.242424242424242,1.0126582278481013,0.019031750934649733,0.017007349675760428,-5.577862735288256e-05,-0.010811730183123047,0.018104893739273067
4.343434343434343,1.0126582278481013,0.01885517035447149,0.017152641497998212,6.382778956764928e-05,-0.010802343555740912,0.018064517816460554
4.444444444444445,1.0126582278481013,0.018663374578838734,0.017058571809850463,3.202461172548803e-05,-0.01071658391660676,0.017915049096273197
4.545454545454545,1.0126582278481013,0.018834727262298314,0.017011541471914995,-3.721127457323463e-05,-0.010753880620263992,0.01799266251553442
4.646464646464646,1.0126582278481013,0.018772705992671272,0.01698762365247931,-7.057175245481925e-05,-0.010728098893545174,0.017947287383338503
4.747474747474747,1.0126582278481013,0.018934645217512355,0.017116021223604557,8.801600011782462e-05,-0.010815199932335075,0.018094651781242196
4.848484848484849,1.0126582278481013,0.019013733438344806,0.01682009521744866,-2.3779616446387914e-05,-0.01075014859673804,0.018017395814234602
4.94949494949495,1.0126582278481013,0.018904775137632706,0.01691472253028715,-5.380148036226642e-05,-0.010745849300375957,0.017992721281907268
5.05050505050505,1.0126582278481013,0.01882167969090932,0.016920458466241087,-5.2774737995774903e-05,-0.010722641447145123,0.017946989918617692
5.151515151515151,1.0126582278481013,0.018787530051841903,0.01702444261854431,7.456647438398849e-05,-0.010743591801115865,0.017971432471745746
5.252525252525253,1.0126582278481013,0.018821068712754224,0.016903984619764677,-3.4669213525840526e-05,-0.01071751599975567,0.017939617424310494
5.353535353535354,1.0126582278481013,0.018950385525465335,0.01694282484030421,-8.671958640716963e-05,-0.010767963109730863,0.018031248525235292
5.454545454545454,1.0126582278481013,0.018925287952013828,0.01701266102889567,9.537773401505852e-05,-0.010781384694272849,0.018045912038058047
5.555555555555555,1.0126582278481013,0.01899961941248454,0.016982578329639064,-5.478583251733109e-05,-0.010794659322637082,0.01807595043415615
5.656565656565657,1.0126582278481013,0.018928011939394293,0.016897067774600497,-4.573668774962846e-05,-0.010747523914198436,0.017998858583608064
5.757575757575758,1.0126582278481013,0.018841373415643785,0.01722289176064698,1.519269253314804e-05,-0.010819279552887228,0.018086545006740364
5.858585858585858,1.0126582278481013,0.018832600585679336,0.01715217081609053,-3.859363955307764e-05,-0.01079543142053096,0.018051268508732028
5.959595959595959,1.0126582278481013,0.019105395412610016,0.016910834504033693,9.169790858740407e-05,-0.010804868974993113,0.0181088239004509
6.0606060606060606,1.0126582278481013,0.01899891122196725,0.01710892020729963,-3.7297142870761367e-06,-0.010832349428780063,0.01812796083099358
6.161616161616162,1.0126582278481013,0.019042322056160712,0.01720268718183835,4.0215432526394706e-05,-0.010873502771399717,0.01819253192554067
6.262626262626262,1.0126582278481013,0.019004550965986806,0.017096099531564327,-5.6037676833422634e-05,-0.01083019514926534,0.018126094516150503
6.363636363636363,1.0126582278481013,0.019117227659418572,0.017200651210824425,2.5770928317497807e-06,-0.0108953636610729,0.018234638748686863
6.4646464646464645,1.0126582278481013,0.019088035901887974,0.017364029475470978,-4.8711000104757865e-05,-0.010935619613207687,0.01828727794047413
6.565656565656566,1.0126582278481013,0.019210984378163896,0.01712402320907319,2.3635743950014714e-05,-0.010900502276171125,0.018257229396249852
6.666666666666667,1.0126582278481013,0.01933131348141434,0.017030242067502074,-4.511477334049766e-05,-0.010908466664674925,0.01828983279725371
6.767676767676767,1.0126582278481013,0.019363717914570002,0.01717277010438095,-3.3952900034721347e-06,-0.010960946405685285,0.01836651744354243
6.8686868686868685,1.0126582278481013,0.019387982919455513,0.017314992627736385,-4.0560724874042746e-05,-0.01101089266415757,0.018439224647034916
6.96969696969697,1.0126582278481013,0.019252639250603915,0.01750764993378971,6.670699618122507e-06,-0.011028086755318087,0.018442168785465788
7.070707070707071,1.0126582278481013,0.019492020225972732,0.017325871314195808,1.2480642666568008e-05,-0.011045367462050561,0.01850429416368595
7.171717171717171,1.0126582278481013,0.01938825758531053,0.01738145794408803,5.1213520458335486e-05,-0.011030914658819568,0.01846703270973073
7.2727272727272725,1.0126582278481013,0.019548014152530116,0.017649279131859208,4.8461447041699905e-05,-0.011159187985316796,0.018671384481762688
7.373737373737374,1.0126582278481013,0.01967191178044027,0.017564700237044137,5.951227815083379e-05,-0.011170983605245322,0.01870781117970204
7.474747474747475,1.0126582278481013,0.019618078550284954,0.01763632046866693,-5.54913212290706e-06,-0.011176319705685564,0.018706100014833835
7.575757575757575,1.0126582278481013,0.019895778748784797,0.017615365746748265,5.592630556655253e-05,-0.011253343348659918,0.018859509171530578
7.6767676767676765,1.0126582278481013,0.019831442503228637,0.01772409459036272,7.536885271877825e-05,-0.011266661128077407,0.018866698688649923
7.777777777777778,1.0126582278481013,0.01991868505038233,0.017965825346146543,5.1362638580957124e-06,-0.011365353118958662,0.0190176064978776
7.878787878787879,1.0126582278481013,0.019858970220154596,0.018000548658310273,2.807305325950909e-05,-0.01135785566353946,0.018998117136766825
7.979797979797979,1.0126582278481013,0.019993754574090153,0.017994375586458656,-1.1309341391522005e-05,-0.011396439048164642,0.01907283485036885
8.080808080808081,1.0126582278481013,0.020353019615881675,0.018231955933757316,5.150600734652001e-05,-0.011575492664891699,0.019379943924213463
8.181818181818182,1.0126582278481013,0.020259680816509938,0.01834569963018809,-1.4284486696446086e-06,-0.011581614134009408,0.01937372831868368
8.282828282828282,1.0126582278481013,0.020310373688519016,0.0183863058237594,-6.852181980502389e-05,-0.011609003853683523,0.01942032092678995
8.383838383838384,1.0126582278481013,0.020492446122769407,0.018330805321802576,3.0423990071422538e-05,-0.011646975433371594,0.019501756542781835
8.484848484848484,1.0126582278481013,0.020649492139573386,0.01868223328290775,-1.0550194590327512e-05,-0.01179951762674434,0.019739530659416065
8.585858585858587,1.0126582278481013,0.020975718389900117,0.01871645214200851,8.869809349197745e-05,-0.011907651159572588,0.01994289135063025
8.686868686868687,1.0126582278481013,0.02080023905843557,0.018758348259879893,1.920697589124211e-05,-0.011867576195494639,0.019858211221151962
8.787878787878787,1.0126582278481013,0.021181480353207913,0.018829103275822205,1.943854584864709e-05,-0.012003175088709036,0.020108781479511745
8.88888888888889,1.0126582278481013,0.021061771091187655,0.01908212434555116,-7.496229193802974e-06,-0.012043168631021643,0.020145036726634258
8.98989898989899,1.0126582278481013,0.021284276867584342,0.019184808288178763,-1.2408798191643822e-05,-0.012140725546728931,0.020316077414398986
9.09090909090909,1.0126582278481013,0.02141763992206544,0.019242765893118154,2.470532790550346e-05,-0.012198121744555078,0.020417309791078666
9.191919191919192,1.0126582278481013,0.02168281353557079,0.019497179547661857,3.4989620777967665e-06,-0.012353997924969794,0.020676816516543503
9.292929292929292,1.0126582278481013,0.021836645315288557,0.019819242138706276,-2.4689213229227783e-05,-0.012496766236198449,0.020901136458321683
9.393939393939394,1.0126582278481013,0.02179822527133278,0.019773730191060216,-5.90640680979614e-05,-0.012471586638717898,0.020860040057050548
9.494949494949495,1.0126582278481013,0.022227234694691032,0.02001306020154402,-1.85619517280473e-05,-0.012672088468870517,0.02120704100960241
9.595959595959595,1.0126582278481013,0.02256342587789659,0.020219101165633423,5.237307647723861e-05,-0.012834758113059003,0.02148758426725557
9.696969696969697,1.0126582278481013,0.022755564204111577,0.020249277535104193,-1.9528903746127017e-06,-0.012901452521764731,0.021611691727986597
9.797979797979798,1.0126582278481013,0.0229242267463938,0.020658680403115408,-5.625004247745419e-05,-0.013074872144852761,0.021879818698464525
9.8989898989899,1.0126582278481013,0.023185282589821703,0.020893236139037253,-1.9624373671018733e-05,-0.013223555618657687,0.022128493314731882
10.0,1.0126582278481013,0.023343207634563483,0.021083252598470166,1.6757853885972182e-05,-0.013327938069910094,0.022299304524137142
0.0,1.1139240506329113,0.02341142585990141,0.021109779787849565,-1.2329680435607893e-05,-0.01335636169432529,0.022349677293556972
0.10101010101010101,1.1139240506329113,0.023149796682483303,0.020775200116299887,-1.3201716007988088e-05,-0.013177499039634956,0.02205857861328088
0.20202020202020202,1.1139240506329113,0.022992973957200458,0.02044949718569467,3.527130769893562e-06,-0.013032741342868536,0.021832637670186932
0.30303030303030304,1.1139240506329113,0.022823201487617097,0.020439760299040367,8.954060795038428e-06,-0.012978888535997239,0.021729744593266927
0.40404040404040403,1.1139240506329113,0.022467241897166097,0.020137128222352123,-2.0015482009550848e-05,-0.012781311035855464,0.021397578425652534
0.5050505050505051,1.1139240506329113,0.022315406549552302,0.020027804263765873,-2.837370194501544e-05,-0.012702963243995452,0.02126415137877865
0.6060606060606061,1.1139240506329113,0.02210027526897849,0.01988435920014785,-5.381750641761163e-05,-0.012595390340737903,0.021080056566968822
0.7070707070707071,1.1139240506329113,0.021955901252247285,0.019749332863886727,0.00012049734909429826,-0.012511570234840204,0.020941034001290087
0.8080808080808081,1.1139240506329113,0.02173839124293326,0.019380937525331005,-1.248620375046433e-05,-0.01233579863047928,0.020660795200741454
0.9090909090909091,1.1139240506329113,0.02143644590897669,0.019326785420288088,5.3703637672049134e-05,-0.012228969398779434,0.020463550764127824
1.0101010101010102,1.1139240506329113,0.02151389066907422,0.019233958225749376,-9.838209586923645e-07,-0.012224354668447077,0.02046937637672797
1.1111111111111112,1.1139240506329113,0.021334791739186145,0.019003704180386268,8.08895953231506e-07,-0.012101548775871723,0.020270028172929895
1.2121212121212122,1.1139240506329113,0.02110077183737392,0.018901422740722824,-6.824672023912403e-05,-0.012000658373429023,0.020091931662912687
1.3131313131313131,1.1139240506329113,0.020959650994500048,0.018642373323998297,-4.440091767525506e-05,-0.011880607295549503,0.019902596029333947
1.4141414141414141,1.1139240506329113,0.020867959749062658,0.01854778555482062,6.706927971231656e-05,-0.011824723591164984,0.019810379742668048
1.5151515151515151,1.1139240506329113,0.020732066722790807,0.018383539395520145,-2.8148361234227537e-05,-0.011734681835493286,0.01966333448188874
1.6161616161616161,1.1139240506329113,0.020464375924134342,0.018456726557410853,-4.5400463334134676e-05,-0.011676330744463557,0.019538224847353142
1.7171717171717171,1.1139240506329113,0.020372382360763615,0.01831050484567006,2.3388469056623993e-05,-0.011604866161930101,0.0194237376908593
1.8181818181818181,1.1139240506329113,0.020271647934975205,0.018145343497479854,-4.259167284032593e-05,-0.011525097429736517,0.01929669991871153
1.9191919191919191,1.1139240506329113,0.020192720608190058,0.018231150996807208,1.0973001118856023e-05,-0.01152716148149918,0.01928690371741444
2.0202020202020203,1.1139240506329113,0.02010425941127208,0.017970566932086436,-6.414037114630956e-05,-0.011422447903007555,0.019127203792704762
2.121212121212121,1.1139240506329113,0.020050666150493935,0.017872552813776307,-0.00011617559380815611,-0.011376965689281072,0.01905626557695597
2.2222222222222223,1.1139240506329113,0.019972643871263098,0.017754507977067756,-6.338816647521092e-05,-0.011318145554499255,0.01896145157838764
2.323232323232323,1.1139240506329113,0.01987414218814753,0.017745724045533887,3.854314556706023e-06,-0.011285959870104424,0.01890003310234133
2.4242424242424243,1.1139240506329113,0.0196051381570218,0.017875150442725307,-5.211802363958687e-05,-0.011244086579924132,0.01880015426436603
2.525252525252525,1.1139240506329113,0.019648455484777068,0.017631273431055593,6.822081141363326e-05,-0.011183918674749797,0.018721919688568643
2.6262626262626263,1.1139240506329113,0.01964180594082054,0.017649657530676655,-3.2364875218898275e-05,-0.011187439041449159,0.018725462501176716
2.727272727272727,1.1139240506329113,0.019504261667945326,0.017533976128747457,3.3088580025896697e-06,-0.011111471339007835,0.01859756211029267
2.8282828282828283,1.1139240506329113,0.019479508868265747,0.017478389742876757,4.636104994378582e-05,-0.01108736958334275,0.018560209422154323
2.929292929292929,1.1139240506329113,0.019237885384614233,0.017448314820249687,6.178006062908686e-05,-0.011005860061459176,0.018408766764754867
3.0303030303030303,1.1139240506329113,0.019465789614495604,0.017476259666331338,-2.712743721589654e-05,-0.011082614784248082,0.018551270334435137
3.131313131313131,1.1139240506329113,0.01930921803196019,0.01744435362663524,1.9311760332929808e-05,-0.011026071497578628,0.018447646616460995
3.2323232323232323,1.1139240506329113,0.019312256339297385,0.017474415454045947,6.997384984133628e-05,-0.011036001538002998,0.018462468382272227
3.3333333333333335,1.1139240506329113,0.01920601539301562,0.01735675684024124,-0.00011060017990142552,-0.010968831669977057,0.0183524002092613
3.4343434343434343,1.1139240506329113,0.019288049563648064,0.017145588240449705,-3.385941860279615e-05,-0.010930091341229329,0.018311158774959615
3.5353535353535355,1.1139240506329113,0.019109323789004536,0.017276009729896367,-4.971422182803132e-05,-0.01091560005567027,0.018262018471720536
3.6363636363636362,1.1139240506329113,0.018877103754725497,0.017314357684524297,-1.949559006261326e-06,-0.01085743843177494,0.018146269951134976
3.7373737373737375,1.1139240506329113,0.019095864603007464,0.017286332184927946,5.6500789420046474e-05,-0.010914659036380623,0.018258736086478992
3.8383838383838382,1.1139240506329113,0.01892267247309363,0.01711954815972701,-7.350870566421747e-06,-0.010812666189846193,0.018088643456854778
3.9393939393939394,1.1139240506329113,0.018875085227439366,0.017096709737683072,3.879730393566768e-07,-0.010791538489536732,0.018051716628667083
4.040404040404041,1.1139240506329113,0.018916684163633686,0.017055448558146995,3.8848274021518914e-05,-0.010791639816534204,0.018058273981415917
4.141414141414141,1.1139240506329113,0.018958615512155705,0.017043881092647113,8.546373171315321e-05,-0.010800748981440844,0.018078067056960564
4.242424242424242,1.1139240506329113,0.01894387754852361,0.016974047917214383,9.637434699698654e-06,-0.010775377639721398,0.018039811325601722
4.343434343434343,1.1139240506329113,0.0189833162772773,0.0171492831116855,6.5182967695179e-05,-0.010839779816688837,0.018136336161088857
4.444444444444445,1.1139240506329113,0.019020068564815897,0.016914466691063123,-1.9191102446865888e-05,-0.010780360576763704,0.01805959524317491
4.545454545454545,1.1139240506329113,0.018979112084741668,0.01726921715831038,-1.816621932784767e-05,-0.010874498772915613,0.018184585196185425
4.646464646464646,1.1139240506329113,0.01894842920232305,0.0172833938400846,4.9201860667724e-05,-0.010869546912722294,0.018173408314938983
4.747474747474747,1.1139240506329113,0.01884201133975181,0.0168693455721812,0.00011141374967554931,-0.010713407073579902,0.017938256600534663
4.848484848484849,1.1139240506329113,0.018833228640670583,0.017263292848240356,-2.6815411290030316e-05,-0.01082895644667328,0.018099458469605253
4.94949494949495,1.1139240506329113,0.018796541609696755,0.017061198802311838,-5.7064243135197205e-05,-0.010757322123602578,0.01799201814254419
5.05050505050505,1.1139240506329113,0.018940939426014547,0.016899173678456083,-8.428119049206909e-05,-0.01075203393134119,0.01800767453944155
5.151515151515151,1.1139240506329113,0.01867098333004658,0.01718716285552859,1.550768210643363e-05,-0.010757443855672552,0.01797508486298693
5.252525252525253,1.1139240506329113,0.01899032536889383,0.017045829548631448,6.198719914987639e-05,-0.010810846475257584,0.018096917984695874
5.353535353535354,1.1139240506329113,0.018895912671710743,0.016943885779428895,2.7350708219788835e-05,-0.010751939535341891,0.01799952330422786
5.454545454545454,1.1139240506329113,0.018734503620483057,0.017054075238576206,-0.00013241013033117696,-0.010736573657717779,0.017954834200728707
5.555555555555555,1.1139240506329113,0.018802075108520555,0.017085027455092983,-1.5134728192542613e-05,-0.01076613076908406,0.018005080096070873
5.656565656565657,1.1139240506329113,0.01908678696477236,0.01719119141736898,1.3077302197486841e-05,-0.010883393514642401,0.018213138218900624
5.757575757575758,1.1139240506329113,0.019064971671147252,0.017095569831135093,4.8600958741566845e-05,-0.010848162450684703,0.01816073193182822
5.858585858585858,1.1139240506329113,0.01896708419247513,0.017205328690211637,1.0335361018705694e-05,-0.010851723864806031,0.01815045511096815
5.959595959595959,1.1139240506329113,0.01896831233192666,0.017100264433207144,2.869041286106462e-05,-0.010820573029540143,0.018106773017268728
6.0606060606060606,1.1139240506329113,0.01891762091672112,0.01725109851195408,-4.1768221342435405e-05,-0.010850615828602557,0.018142002996491095
6.161616161616162,1.1139240506329113,0.01916240279013361,0.017080717603579147,1.4396021241830759e-05,-0.010872936118113827,0.018211030328251953
6.262626262626262,1.1139240506329113,0.019053013629851328,0.017258984992813274,-7.408631913134751e-05,-0.010893599586799379,0.018222806628069965
6.363636363636363,1.1139240506329113,0.019026004076363765,0.01716120805270486,-5.237523122456901e-05,-0.010856163638720587,0.01816576197329693
6.4646464646464645,1.1139240506329113,0.019234660657098366,0.017181630935161774,-1.7628450238086527e-05,-0.010924887477678042,0.018294772583972416
6.565656565656566,1.1139240506329113,0.01916000353471853,0.017308724700026198,-9.25276484001744e-06,-0.010940618470423418,0.018304718424458848
6.666666666666667,1.1139240506329113,0.019225138040932583,0.01715916653516506,-5.384984423821838e-05,-0.010915291372829294,0.01828016091246781
6.767676767676767,1.1139240506329113,0.019121179502086624,0.017335511603159937,3.336174286817495e-05,-0.010937007331573968,0.01829391642015032
6.8686868686868685,1.1139240506329113,0.019280132235631027,0.017378765679905123,-3.5864581974123346e-05,-0.010997669374660844,0.018403368006551693
6.96969696969697,1.1139240506329113,0.019330759926753403,0.017556522364645187,5.180998541836929e-05,-0.011066184687419578,0.01850775217929492
7.070707070707071,1.1139240506329113,0.01941245776589689,0.017544767895699476,8.121828273685061e-05,-0.011087167698478909,0.01854980108969689
7.171717171717171,1.1139240506329113,0.01942094723152354,0.01756161886029073,-1.4388308257312014e-05,-0.011094769827544282,0.018561276794664468
7.2727272727272725,1.1139240506329113,0.01962259530081178,0.01749258090440273,0.00014992449135452912,-0.011134552861564354,0.01865085063052183
7.373737373737374,1.1139240506329113,0.019474494746385147,0.01780230580260595,9.425988529790494e-06,-0.01118304016469733,0.018694581921986596
7.474747474747475,1.1139240506329113,0.01955231542803406,0.0176814348976755,4.813380251520762e-05,-0.011170125097712867,0.018687432592181006
7.575757575757575,1.1139240506329113,0.01975748723741008,0.01777180693752997,-9.487911821164556e-05,-0.011258788252482015,0.018843995891225252
7.6767676767676765,1.1139240506329113,0.019683613593492265,0.017810880536200717,-2.7327362261382873e-05,-0.011248348238907893,0.018817328707669542
7.777777777777778,1.1139240506329113,0.01983822217376059,0.01778560727206792,-2.3604850640723343e-05,-0.011287148833748553,0.018895759525885892
7.878787878787879,1.1139240506329113,0.02006382171722017,0.017784279374375593,-6.187657318358443e-05,-0.01135443032747873,0.019027044178233674
7.979797979797979,1.1139240506329113,0.020197271504413278,0.017999568517531744,-9.74906540966687e-06,-0.011459052006583507,0.01919302883502902
8.080808080808081,1.1139240506329113,0.02024621680270641,0.01814015425035113,-4.341235620227795e-05,-0.011515911315917261,0.019279798991680162
8.181818181818182,1.1139240506329113,0.02020733738707724,0.018305611893589365,-2.253129504085999e-05,-0.011553884784199981,0.019326814492849165
8.282828282828282,1.1139240506329113,0.020329273459970557,0.018382873559274992,2.361344669189352e-05,-0.011613644105773665,0.019429374897937023
8.383838383838384,1.1139240506329113,0.020455030554492912,0.01850066815624898,5.136267714030215e-05,-0.011686709613222568,0.019551449541455632
8.484848484848484,1.1139240506329113,0.020519324500591463,0.018543793317480572,-1.022537077482622e-05,-0.01171893534542161,0.019606354829068796
8.585858585858587,1.1139240506329113,0.0205114586539848,0.01883189932583173,-3.925621392213385e-05,-0.011803007393944959,0.01972549789195655
8.686868686868687,1.1139240506329113,0.020749093228143306,0.018777989270326877,-4.557249129208634e-05,-0.011858124749541055,0.019837281350414283
8.787878787878787,1.1139240506329113,0.021007998659813083,0.019050084598502964,-4.190051927713359e-05,-0.012017424977494813,0.020100817051719542
8.88888888888889,1.1139240506329113,0.02140731871786072,0.019003886605420555,7.666838006962255e-06,-0.012123361596984383,0.020312531100299777
8.98989898989899,1.1139240506329113,0.0213202826353951,0.018996169651226465,-1.0692011797335829e-05,-0.012094935685986468,0.020258468601416866
9.09090909090909,1.1139240506329113,0.021396144464635,0.019408365199679416,5.9854359233511556e-05,-0.012241352899294324,0.02047501403354538
9.191919191919192,1.1139240506329113,0.021712080041518523,0.01937380024681995,1.4105733938243306e-05,-0.01232576408650154,0.020642520460952232
9.292929292929292,1.1139240506329113,0.02185984118348335,0.019645143840870363,1.3763101395463474e-05,-0.012451495507306114,0.020840949521947635
9.393939393939394,1.1139240506329113,0.022102813323972785,0.019788222348069196,-0.000103812161166201,-0.012567310701612594,0.02104198295914128
9.494949494949495,1.1139240506329113,0.022249240085657897,0.02007015026725948,-2.8394281567185325e-06,-0.012695817105875211,0.021243682554472322
9.595959595959595,1.1139240506329113,0.02241546581142984,0.0202527952932249,-1.6555971992894815e-05,-0.012800478331396423,0.021416204298430396
9.696969696969697,1.1139240506329113,0.022787131993775064,0.020394101132022408,8.677536059931908e-05,-0.01295436993773924,0.021690372541399886
9.797979797979798,1.1139240506329113,0.02299134523483298,0.02053617519742851,1.7754858915097744e-05,-0.013058256129678448,0.021867398093616607
9.8989898989899,1.1139240506329113,0.023212449745347485,0.020917912852205667,-4.998418321160453e-05,-0.013239108779265945,0.022154647270247508
10.0,1.1139240506329113,0.023501516188526344,0.021107589678320136,-2.523308056921912e-05,-0.013382731760053944,0.0224007400499882
0.0,1.2151898734177216,0.023723642067356967,0.021067439201610978,-2.135372933977178e-06,-0.013437324380690382,0.022513369677555455
0.10101010101010101,1.2151898734177216,0.023333286094278594,0.020902878640838722,-6.710295544025203e-05,-0.013270849420535195,0.0222183085839201
0.20202020202020202,1.2151898734177216,0.02293537630040952,0.020608783079983307,2.212360393047395e-05,-0.013063247814117848,0.021865148053645
0.30303030303030304,1.2151898734177216,0.02265864128067151,0.020378107089209806,7.114566942302905e-05,-0.012911024510964396,0.02160917027168727
0.40404040404040403,1.2151898734177216,0.022576273585574597,0.020318516845907034,-7.41293282616154e-05,-0.012868437129444488,0.021536720876998507
0.5050505050505051,1.2151898734177216,0.02208572972348985,0.020028008878647526,-3.611242412311176e-05,-0.012634121580641214,0.021132234107881048
0.6060606060606061,1.2151898734177216,0.0220970313606898,0.019899208680399776,1.1048986478624937e-05,-0.012598872012326874,0.02108421753440256
0.7070707070707071,1.2151898734177216,0.021870783015581954,0.019735057379143255,2.8214629720787784e-05,-0.012481752118417563,0.020885039380605295
0.8080808080808081,1.2151898734177216,0.021465092900672614,0.019583894334669484,5.948192777211005e-05,-0.012314696170602631,0.020589308720657992
0.9090909090909091,1.2151898734177216,0.021568248131645346,0.019292085570251707,-3.447498372470639e-05,-0.012258100110569116,0.02052513020995292
1.0101010101010102,1.2151898734177216,0.021116756186554012,0.019085743533095757,3.1653701376659456e-06,-0.012060749915894932,0.020178058263487467
1.1111111111111112,1.2151898734177216,0.021049462171853488,0.018888027279138436,-2.1360250224749316e-05,-0.011981246835297577,0.02005632033273991
1.2121212121212122,1.2151898734177216,0.02100042926803597,0.01898895000354406,-1.0243471835091907e-05,-0.011996813781474007,0.02007043758968212
1.3131313131313131,1.2151898734177216,0.020888663325326226,0.019030403233616995,-1.4716713015336634e-05,-0.011975719967682966,0.02002432187130416
1.4141414141414141,1.2151898734177216,0.020577284234933085,0.01844178618667966,-5.6368975750871337e-05,-0.011705721126483824,0.01959723859275959
1.5151515151515151,1.2151898734177216,0.02053719706375678,0.01851633315234463,-6.645862980861821e-06,-0.011716059064830423,0.019605040328925794
1.6161616161616161,1.2151898734177216,0.02049198390265451,0.01828321248753783,-3.530094262632822e-05,-0.0116325589170577,0.01948183014034679
1.7171717171717171,1.2151898734177216,0.02038763715189607,0.01851119148646494,0.00010032615282853905,-0.011669648591508304,0.019517958387635072
1.8181818181818181,1.2151898734177216,0.02030146610665814,0.01826002625063375,-1.8140957074917832e-05,-0.011568447707187568,0.01936165716054968
1.9191919191919191,1.2151898734177216,0.02018552375081381,0.01831634399011533,-4.0517160093640274e-05,-0.011550560322278742,0.019318999832784817
2.0202020202020203,1.2151898734177216,0.019991383111299225,0.01820737189033245,-2.4717924061160202e-05,-0.011459626500489503,0.01916181295893949
2.121212121212121,1.2151898734177216,0.01993083471803063,0.017821804073326532,4.94482717494748e-05,-0.01132579163740715,0.0189646718141294
2.2222222222222223,1.2151898734177216,0.020000613861798706,0.017799096632284808,3.547832758948671e-05,-0.011339913148225052,0.01899587621243628
2.323232323232323,1.2151898734177216,0.01997304293454316,0.01784991252236536,2.6486314596858486e-05,-0.011346886637072555,0.01900070673708586
2.4242424242424243,1.2151898734177216,0.01964375947526314,0.017901996304268416,3.317817838086552e-05,-0.011263726733859466,0.01883346890104141
2.525252525252525,1.2151898734177216,0.019674891697470484,0.01778319592852908,-3.7723575035208196e-05,-0.011237426287799869,0.01880067115863896
2.6262626262626263,1.2151898734177216,0.019504942468736543,0.017584373162049853,-4.241816745957613e-05,-0.011126794689235917,0.018619241961990725
2.727272727272727,1.2151898734177216,0.019580745349704026,0.017624065058593732,-6.018500718200793e-05,-0.011161443122489328,0.018679716122195978
2.8282828282828283,1.2151898734177216,0.019501141494819154,0.01742586911427953,3.7462388463107684e-05,-0.011078103182729605,0.01855088421107853
2.929292929292929,1.2151898734177216,0.019591926703058985,0.017323835959665957,1.2105729934482565e-06,-0.011074728798817482,0.018562100213993002
3.0303030303030303,1.2151898734177216,0.019382623475962757,0.017425769888535652,-7.3960484707481154e-06,-0.011042518009349524,0.018482060940151705
3.131313131313131,1.2151898734177216,0.019265247240307783,0.01714591302043034,3.1588345222957205e-05,-0.010923348078221437,0.0182979459094623
3.2323232323232323,1.2151898734177216,0.019288122550371486,0.017277437475975065,-6.843953471578939e-06,-0.010969668007903964,0.018365520041111985
3.3333333333333335,1.2151898734177216,0.0191100643324824,0.01732349375996984,-1.6832629925523924e-05,-0.010930067427735671,0.018282389467442147
3.4343434343434343,1.2151898734177216,0.019154430032748686,0.01716701284972131,-3.6604067182719495e-05,-0.010896432864740999,0.018242209107832304
3.5353535353535355,1.2151898734177216,0.019153885481706122,0.017293871889437883,-2.4353891017171997e-05,-0.0109343272113432,0.018294979409800807
3.6363636363636362,1.2151898734177216,0.019191003478145924,0.01729726813908636,-1.3604272900167666e-05,-0.010946481485169685,0.018317716063493163
3.7373737373737375,1.2151898734177216,0.019103658055109312,0.017201342870167134,1.8753555506429703e-05,-0.010891500277582932,0.01822713445472874
3.8383838383838382,1.2151898734177216,0.01888356892504327,0.017283617120052074,0.00010323857879461519,-0.010850155813528604,0.01813748040802003
3.9393939393939394,1.2151898734177216,0.0190747673805101,0.01714876082514189,-2.815736959040446e-05,-0.010867058461695596,0.018188471716097922
4.040404040404041,1.2151898734177216,0.01894120030746301,0.017069871673914036,-8.829479796655338e-05,-0.010803321594413114,0.018078968924335227
4.141414141414141,1.2151898734177216,0.019025907043657114,0.017043654218538946,-1.8757510854429698e-05,-0.010820868378658817,0.018116328619272884
4.242424242424242,1.2151898734177216,0.018888095275722744,0.017291352518258578,-2.9590297622633373e-05,-0.010853834338194396,0.01814257225427615
4.343434343434343,1.2151898734177216,0.018901156446608988,0.017048767731574325,6.718521846379702e-06,-0.010784977253454993,0.018046409767141513
4.444444444444445,1.2151898734177216,0.018966177113384695,0.01674967211199944,-1.2283177927893169e-05,-0.01071475476761524,0.01796080719004153
4.545454545454545,1.2151898734177216,0.018864009000537082,0.017006822959423955,2.3095778926293103e-05,-0.01076124958798831,0.018007431843920226
4.646464646464646,1.2151898734177216,0.018780167732574734,0.016858167426462227,8.649787245906373e-05,-0.010691500547711086,0.017897366922408023
4.747474747474747,1.2151898734177216,0.01903138377261917,0.017000508854289793,-2.8348750799404195e-05,-0.01080956778807269,0.018101659377656905
4.848484848484849,1.2151898734177216,0.018796664412236375,0.017071038860039005,1.5029090007214167e-05,-0.010760310981682614,0.017996028722677547
4.94949494949495,1.2151898734177216,0.018794130003504578,0.017011599415515718,-3.636314538485968e-05,-0.01074171882570609,0.017969407144223976
5.05050505050505,1.2151898734177216,0.019065957268647113,0.016972997039753166,-5.891123985795688e-05,-0.010811686292520082,0.018110696574209516
5.151515151515151,1.2151898734177216,0.018893200874076532,0.01709775443215543,-2.2026071185150323e-05,-0.010797286591869588,0.018062568819290005
5.252525252525253,1.2151898734177216,0.01880367995615637,0.017126025799036153,-1.6739094584998698e-05,-0.010778911726557757,0.018023531066600637
5.353535353535354,1.2151898734177216,0.018724301957747054,0.016910641525661716,-7.728268248531251e-05,-0.010690483045022632,0.01788706907874106
5.454545454545454,1.2151898734177216,0.018845925959325455,0.01716769674834894,-1.2381429607902486e-05,-0.01080408681230232,0.01806538278021002
5.555555555555555,1.2151898734177216,0.01897639397445769,0.017182174504923948,1.005983757700367e-05,-0.010847570543814489,0.0181459427930645
5.656565656565657,1.2151898734177216,0.01906379243931587,0.017107766797771273,3.504356451209603e-05,-0.010851467771126144,0.018165038832811564
5.757575757575758,1.2151898734177216,0.018924822118748828,0.01679715351264952,2.9628495463863986e-05,-0.010716592689419503,0.017955855578858395
5.858585858585858,1.2151898734177216,0.01900465394914462,0.01718682004642177,6.269221332522238e-05,-0.010857442198669917,0.018164412418440374
5.959595959595959,1.2151898734177216,0.019039837550339174,0.01715659191902901,-0.00011510955702841883,-0.010858928840810455,0.01817264669204739
6.0606060606060606,1.2151898734177216,0.019102676812346175,0.01723461616484706,-3.902404493762029e-05,-0.010901187893157971,0.018240655739114625
6.161616161616162,1.2151898734177216,0.019040178431302915,0.016905200982386626,-2.637865885596223e-05,-0.010783613824106862,0.01806760247874601
6.262626262626262,1.2151898734177216,0.019136261660656916,0.017243493475866133,-5.0932680497914664e-05,-0.010913926540956914,0.018263799082151255
6.363636363636363,1.2151898734177216,0.018924019796423972,0.017068718053721225,5.0578863935701905e-05,-0.01079782135504356,0.018068164753762533
6.4646464646464645,1.2151898734177216,0.019240907110596086,0.017231362668993146,3.214784673202302e-05,-0.010941680933876768,0.01831907251522347
6.565656565656566,1.2151898734177216,0.019273853499120478,0.01705703113543643,4.2475417769506376e-05,-0.010899265390367072,0.01826675759706172
6.666666666666667,1.2151898734177216,0.019254324717150773,0.017322057710189725,-1.8116916946856474e-05,-0.01097291472820215,0.018364617185649346
6.767676767676767,1.2151898734177216,0.019209431137026584,0.01723843066963502,8.918145912710794e-05,-0.01093435854199848,0.018304347835942553
6.8686868686868685,1.2151898734177216,0.019349587684594008,0.017356115735962706,6.547587968165722e-05,-0.011011711026167013,0.01843422021620151
6.96969696969697,1.2151898734177216,0.019422862107736884,0.01747078994792528,-7.442089763574584e-05,-0.01106809561669865,0.018524576788658754
7.070707070707071,1.2151898734177216,0.01940111555004168,0.01737387790654702,5.4373241808816164e-05,-0.011032498036976611,0.01847136093060582
7.171717171717171,1.2151898734177216,0.019469516327588265,0.017536313655555903,-6.829732841997726e-05,-0.01110174899494325,0.018578880784076195
7.2727272727272725,1.2151898734177216,0.01947560079162434,0.017573589011050304,-1.9896557917625304e-05,-0.011114756940802393,0.018597716001912318
7.373737373737374,1.2151898734177216,0.01959630961450893,0.01772994018139907,-3.989261388892642e-05,-0.011197874938772398,0.01873311256476601
7.474747474747475,1.2151898734177216,0.01965365830579531,0.017755445740757412,-3.941069314519747e-06,-0.011222731213965815,0.018776653620762265
7.575757575757575,1.2151898734177216,0.019727011241244933,0.017604534158220463,8.541451133144642e-05,-0.011199463619839619,0.018756642533254653
7.6767676767676765,1.2151898734177216,0.01973918481704923,0.017724305752261332,2.8593147498554175e-05,-0.011239047170793168,0.018812908795498566
7.777777777777778,1.2151898734177216,0.01991744943528397,0.01795517485012196,-5.467382123931565e-05,-0.011361787285621778,0.01901264780104933
7.878787878787879,1.2151898734177216,0.02009720655128007,0.017946379578600062,0.0001141988335025789,-0.011413075838964039,0.019113798105712218
7.979797979797979,1.2151898734177216,0.020100152171201056,0.018033882377783198,1.1138502732890522e-05,-0.011440210364695277,0.019150812596046778
8.080808080808081,1.2151898734177216,0.020154247679648876,0.01811264660335529,-4.0710707959867645e-06,-0.01148006828490125,0.019214966834568015
8.181818181818182,1.2151898734177216,0.020281135607130546,0.01829354663727707,-1.9756504909585277e-05,-0.011572404673322285,0.01936402801478879
8.282828282828282,1.2151898734177216,0.020428030968747464,0.018327420403582567,5.309344110552566e-05,-0.01162663541169901,0.019463148077034878
8.383838383838384,1.2151898734177216,0.020414168043868405,0.018251646193623676,-5.35540616207144e-05,-0.011599744271247624,0.019423626781299084
8.484848484848484,1.2151898734177216,0.020586320442205486,0.018520421102547095,-5.8991095775245575e-05,-0.011732022463425773,0.019635317758349678
8.585858585858587,1.2151898734177216,0.0206502685700314,0.018682508050861718,-1.2570049700918604e-05,-0.011799832986267933,0.019740095346561015
8.686868686868687,1.2151898734177216,0.021039790415092786,0.018722592435142592,-1.726090928671061e-05,-0.011928714855070613,0.019982235139189394
8.787878787878787,1.2151898734177216,0.02111562627827997,0.018924069927513547,-2.3729523786063245e-05,-0.012011908861738056,0.020109654317339586
8.88888888888889,1.2151898734177216,0.021216483598321876,0.019092671965173127,5.2094828380702744e-05,-0.0120927466690485,0.020238529567727138
8.98989898989899,1.2151898734177216,0.021360633108474705,0.01913085441686106,-6.76551609737678e-06,-0.01214744625760073,0.02033763045638332
9.09090909090909,1.2151898734177216,0.02160828981207954,0.019457004302482674,7.206704560855895e-05,-0.012319588234368663,0.020617376122191538
9.191919191919192,1.2151898734177216,0.021549517487290854,0.01948772609664979,4.581145816098393e-05,-0.012311173075182194,0.020596319431269924
9.292929292929292,1.2151898734177216,0.021859735269940745,0.01979104662696341,1.5306434638536258e-05,-0.012495234569071248,0.020902325601302868
9.393939393939394,1.2151898734177216,0.022155510409395632,0.019710661791952647,9.293483034884673e-05,-0.012559851660404483,0.02104050778659993
9.494949494949495,1.2151898734177216,0.02237523174302181,0.019993994218757385,-4.4597017781051506e-05,-0.012710767788533759,0.021284889310078277
9.595959595959595,1.2151898734177216,0.02233324052233507,0.020075696814540883,-9.054011776470397e-06,-0.012722681201062786,0.021294415115954847
9.696969696969697,1.2151898734177216,0.02247692837513935,0.02035998303485861,8.424034037998302e-05,-0.012851073422999387,0.021497270228383596
9.797979797979798,1.2151898734177216,0.022872936381754368,0.020558780255796015,0.00010598708849630276,-0.013029514991265114,0.021808913114627796
9.8989898989899,1.2151898734177216,0.02330427105304097,0.020876959957115002,2.9672801679991075e-05,-0.013254369303046793,0.022190466741057395
10.0,1.2151898734177216,0.02357688276224008,0.021192813819173612,-4.590018436540896e-05,-0.013430908974424107,0.022480004270967253
0.0,1.3164556962025316,0.023529964286861476,0.021032653063119116,-2.796116573825114e-05,-0.013368785204994177,0.02238607791154445
0.10101010101010101,1.3164556962025316,0.02309128976943331,0.020877913348314427,-9.737621526779435e-06,-0.013190760935324322,0.02206801455846067
0.20202020202020202,1.3164556962025316,0.0230754794617898,0.02067226564883585,1.1898956752325508e-05,-0.013124323533187696,0.021972671726366425
0.30303030303030304,1.3164556962025316,0.02268262122251466,0.020348172545687576,-7.909792901123329e-05,-0.01290923813046067,0.021610606435175865
0.40404040404040403,1.3164556962025316,0.022437591288127768,0.02010907863430205,2.8788923284234588e-05,-0.012764000976728947,0.02136875628488074
0.5050505050505051,1.3164556962025316,0.02207056189155322,0.020137047363954545,-2.3167053724066988e-05,-0.012662282776652328,0.021170168604072743
0.6060606060606061,1.3164556962025316,0.021896809838443505,0.019927467914600174,-1.4081764843695603e-05,-0.012547283325913103,0.02098158425832031
0.7070707070707071,1.3164556962025316,0.021855460025494603,0.019413274145606226,-6.300922073016565e-05,-0.012380620251330248,0.02074276306114694
0.8080808080808081,1.3164556962025316,0.021562049652594572,0.019440426203952362,-4.38740183390238e-05,-0.01230074275696408,0.020583549157604124
0.9090909090909091,1.3164556962025316,0.021411751601678006,0.019470261671513344,-1.4941300146950313e-05,-0.012264603981957405,0.020510057518359052
1.0101010101010102,1.3164556962025316,0.021362210575885155,0.01918541213611768,-8.021489388788804e-05,-0.012164286813600851,0.020361742773443214
1.1111111111111112,1.3164556962025316,0.02140274584309838,0.019075159469845525,5.307876207165395e-05,-0.01214337159388317,0.020339294492178844
1.2121212121212122,1.3164556962025316,0.02094805987991499,0.018953555517923704,-1.672829675039497e-05,-0.011970484619351608,0.020025461370078285
1.3131313131313131,1.3164556962025316,0.020815438844317982,0.018733594607671825,1.4558036370929528e-05,-0.01186471003559694,0.01985655317836315
1.4141414141414141,1.3164556962025316,0.02050660232907466,0.018413685063317475,3.82165506639322e-05,-0.01167608621771764,0.019544482628143723
1.5151515151515151,1.3164556962025316,0.020505459321666926,0.01864470695344098,1.19741423687589e-05,-0.011745049882532372,0.019641311298238196
1.6161616161616161,1.3164556962025316,0.02048820804510113,0.018402242190991604,7.17141617306918e-05,-0.01166713507082782,0.019529353517535153
1.7171717171717171,1.3164556962025316,0.02025437854078141,0.018370578376210426,-3.992270535187891e-05,-0.011587487075097548,0.019381386250010728
1.8181818181818181,1.3164556962025316,0.020313123203308404,0.01825645506403396,-9.506928692589893e-06,-0.011570873480202708,0.019366873158865157
1.9191919191919191,1.3164556962025316,0.019990884087182244,0.018127613927667475,6.70190174429224e-06,-0.011435549404454915,0.01912743943237019
2.0202020202020203,1.3164556962025316,0.020063915012207827,0.01798726712459264,5.3388328635838436e-05,-0.011415354641040138,0.019110625742757528
2.121212121212121,1.3164556962025316,0.020031184636276705,0.018008255709151884,1.0078264784873684e-06,-0.011411832103628576,0.01910023401894978
2.2222222222222223,1.3164556962025316,0.01985662383833461,0.01799511620522783,7.854496689302655e-05,-0.011355522013068732,0.018994893314202
2.323232323232323,1.3164556962025316,0.01968540745496378,0.017895399283530556,-0.0001201625888537381,-0.0112742420215483,0.01885538843043664
2.4242424242424243,1.3164556962025316,0.01947823937519523,0.01771433699156089,-7.688312456293878e-05,-0.011157772910026835,0.018659399265732467
2.525252525252525,1.3164556962025316,0.019777280886046786,0.017651348580439208,8.184149797999757e-05,-0.011228588839945798,0.0188051950575704
2.6262626262626263,1.3164556962025316,0.01941680883092666,0.01761018719844073,2.770807069155304e-05,-0.011108098808810217,0.018579553903241758
2.727272727272727,1.3164556962025316,0.019486646218836973,0.01764963804742987,2.4324922403241874e-05,-0.011140885279880055,0.018636218142320523
2.8282828282828283,1.3164556962025316,0.019408748832726117,0.01753571606779992,-4.4458133260364874e-05,-0.011083339470157811,0.018543475674135484
2.929292929292929,1.3164556962025316,0.019392047976888933,0.017345044185665834,4.976502652132325e-05,-0.01102112764876643,0.018454093941577463
3.0303030303030303,1.3164556962025316,0.019356891661643703,0.017378615044887396,7.65094300870927e-06,-0.01102065201195933,0.01844748553696379
3.131313131313131,1.3164556962025316,0.019349534153727064,0.017359920959758912,3.975740101472193e-05,-0.011012836534045792,0.018435554945031515
3.2323232323232323,1.3164556962025316,0.01913171050958274,0.017282108737688758,2.8821510245579987e-05,-0.010924145774181448,0.018277303414824177
3.3333333333333335,1.3164556962025316,0.019161839669829636,0.017237359942265752,3.960290159295641e-05,-0.010919759883628616,0.0182758817827236
3.4343434343434343,1.3164556962025316,0.019136140233712726,0.017419871431782225,4.602058660145998e-05,-0.010966803499648485,0.018338512340304054
3.5353535353535355,1.3164556962025316,0.019217005405793283,0.017253192869415547,3.5614790801414974e-05,-0.010941059482562649,0.018314340434663724
3.6363636363636362,1.3164556962025316,0.01923684392714535,0.017359600667573246,3.623452475019177e-05,-0.01097893337841558,0.01837040853540376
3.7373737373737375,1.3164556962025316,0.019022775535955848,0.017118362361912262,5.9062449136444e-05,-0.010842341369360433,0.018145964273357774
3.8383838383838382,1.3164556962025316,0.01905703425633882,0.017102044745694055,6.779509657286648e-07,-0.01084772370060986,0.018158640861521396
3.9393939393939394,1.3164556962025316,0.019156760652724043,0.017081486375254886,1.4489806482412297e-05,-0.010871474108393677,0.0182080569878756
4.040404040404041,1.3164556962025316,0.018775094357373553,0.017010967854976616,-5.5286468063839266e-05,-0.010735818663705052,0.017958391873565585
4.141414141414141,1.3164556962025316,0.01901031789833962,0.017034388171754636,-1.953340095882046e-05,-0.010813411821028277,0.01810344103463298
4.242424242424242,1.3164556962025316,0.018984955734806377,0.017030916788522428,8.275216444843092e-06,-0.01080476175699864,0.018087279369614583
4.343434343434343,1.3164556962025316,0.01888048150076736,0.017146658843316037,-2.6624275176059176e-05,-0.01080814210322502,0.018076101423005322
4.444444444444445,1.3164556962025316,0.01897783226502011,0.01702966720769353,-6.785569437380102e-05,-0.010802249841814092,0.01808301214048938
4.545454545454545,1.3164556962025316,0.018940335766982622,0.01706389054253686,4.118250889308832e-05,-0.010801267892855843,0.018075451613836616
4.646464646464646,1.3164556962025316,0.018667294179671452,0.01684270705510048,3.400534939747114e-05,-0.01065300037043158,0.017825272919259935
4.747474747474747,1.3164556962025316,0.01894204048720064,0.017058428136143496,6.656535793475963e-05,-0.01080014058700324,0.018074366509853633
4.848484848484849,1.3164556962025316,0.019019334961210273,0.016991720336262887,1.7444049812704652e-05,-0.010803316589241947,0.018090974395938837
4.94949494949495,1.3164556962025316,0.018884117403164005,0.01707831647871853,-8.197265532322733e-05,-0.01078873016456476,0.018049653984492375
5.05050505050505,1.3164556962025316,0.01879311801314053,0.016900028927910878,-4.0069936666658724e-05,-0.010707944082315424,0.017921853730900914
5.151515151515151,1.3164556962025316,0.018957794683664195,0.016875516768362506,-0.00011134054930926802,-0.010749993435608009,0.018008210725823467
5.252525252525253,1.3164556962025316,0.018911244313437967,0.01706768382519875,-3.098345561946853e-05,-0.010793678441591016,0.018060252874204458
5.353535353535354,1.3164556962025316,0.018983922333044287,0.01710703112415516,5.0879755407035744e-05,-0.010827286037159834,0.01811874822024052
5.454545454545454,1.3164556962025316,0.018808919032587534,0.01713374792884169,-3.547291720045953e-06,-0.010782800088428768,0.01802979515954101
5.555555555555555,1.3164556962025316,0.018745612274458485,0.01709288525197979,2.9608987407516295e-06,-0.010751549257931483,0.017976321439521995
5.656565656565657,1.3164556962025316,0.018996153087644622,0.016866178504608795,-3.256154326240205e-05,-0.010758699477676026,0.018025883650011926
5.757575757575758,1.3164556962025316,0.01887158589542209,0.01702474556684957,3.330228617113329e-05,-0.010768899438681498,0.018019381083670512
5.858585858585858,1.3164556962025316,0.018785029881156632,0.017266170510162486,-4.348399247545089e-05,-0.010815360117395737,0.018073686268390555
5.959595959595959,1.3164556962025316,0.019151016435004848,0.01719672144891304,-4.808101624540177e-06,-0.010904321365175365,0.018252507590534546
6.0606060606060606,1.3164556962025316,0.018937849808248784,0.017086710359323583,-5.297156597775122e-05,-0.01080736805027171,0.018083713383088444
6.161616161616162,1.3164556962025316,0.0190991505506804,0.016982452227012258,-4.253409373494023e-05,-0.010824480833307797,0.018133842699335788
6.262626262626262,1.3164556962025316,0.019200476881988022,0.017104861392756673,-1.8502228331326316e-05,-0.010891601482423408,0.018243193991658916
6.363636363636363,1.3164556962025316,0.019242927610348487,0.017085418794068344,-2.9325642014641318e-05,-0.01089850392132505,0.018260090397336753
6.4646464646464645,1.3164556962025316,0.019239414111468706,0.017003275957621126,-1.3509129488502939e-05,-0.01087280702072695,0.01822454193479452
6.565656565656566,1.3164556962025316,0.018986460293125614,0.01712482422497835,-7.025640435244607e-05,-0.010833385355431189,0.018127887133132514
6.666666666666667,1.3164556962025316,0.01922060234914246,0.01738586038190288,2.1472058853956553e-05,-0.010981938819313601,0.0183721084835832
6.767676767676767,1.3164556962025316,0.019247557013550357,0.017464574686872382,-4.943646969389684e-05,-0.011013639510126823,0.018421095376601197
6.8686868686868685,1.3164556962025316,0.0192266018728274,0.01738935998308843,-8.360625998807127e-05,-0.010984788556774748,0.018377560474656503
6.96969696969697,1.3164556962025316,0.019271172362834998,0.01732126634613183,-4.6130560171396784e-05,-0.010977731612690047,0.01837415649379857
7.070707070707071,1.3164556962025316,0.019295606069194282,0.017285462551764153,-7.753639499118282e-06,-0.01097432058628753,0.018373196059480065
7.171717171717171,1.3164556962025316,0.019449783421275527,0.017562528339992906,-4.1374394430159657e-05,-0.011103693528380528,0.01857832715306322
7.2727272727272725,1.3164556962025316,0.01971540425324451,0.017568643913388624,2.8544244803247145e-05,-0.011185214449989942,0.018734565412954544
7.373737373737374,1.3164556962025316,0.019496588419733688,0.01767612793902571,-6.439048155579711e-05,-0.01115181490762782,0.01865343684273502
7.474747474747475,1.3164556962025316,0.019613831900413787,0.017694264411501993,-5.320356589232245e-05,-0.011192428893574734,0.018728202235437127
7.575757575757575,1.3164556962025316,0.019701729693211163,0.01767208969925847,4.1354395708941374e-05,-0.011212145817740889,0.018769531252329063
7.6767676767676765,1.3164556962025316,0.019619394270848425,0.01759011454904862,2.828351054324737e-05,-0.011162852645969112,0.01868763678658663
7.777777777777778,1.3164556962025316,0.020015197880926205,0.01791645463636304,7.452328746657491e-05,-0.011379495755186774,0.019053156411449734
7.878787878787879,1.3164556962025316,0.020155252878744468,0.017746398097341503,4.834098340474519e-05,-0.011370495292825791,0.019065485392423275
7.979797979797979,1.3164556962025316,0.01998385814286451,0.01808445164736494,-2.6657092529914753e-05,-0.011420492937068833,0.019105156192748746
8.080808080808081,1.3164556962025316,0.020269930599535267,0.018100486227362125,3.186096372381103e-05,-0.011511125048069216,0.019277062377173967
8.181818181818182,1.3164556962025316,0.02037411286259332,0.018152276838537457,-9.290879707723128e-05,-0.01155791691033923,0.019359725940026017
8.282828282828282,1.3164556962025316,0.02026153130657333,0.01834820533968959,4.479061488065146e-05,-0.011582920993878875,0.01937600505167802
8.383838383838384,1.3164556962025316,0.02038826789040003,0.01856930412298789,-3.529759785953496e-05,-0.011687271604016376,0.019542474611629636
8.484848484848484,1.3164556962025316,0.02056195774694904,0.018560931527973945,9.733350822356294e-05,-0.011736866782476894,0.01963877840362556
8.585858585858587,1.3164556962025316,0.02071565346156296,0.018615262989806643,-2.416638769223691e-05,-0.011799274935410881,0.019749448837104788
8.686868686868687,1.3164556962025316,0.02083785090335686,0.01886027235145223,3.667893397227107e-05,-0.011909436976442728,0.019922911338903518
8.787878787878787,1.3164556962025316,0.021139093378684578,0.018973663368520317,1.83267279062078e-05,-0.012033827024161468,0.020143885832149298
8.88888888888889,1.3164556962025316,0.02110502831950193,0.019013234466837507,-5.626403314229926e-05,-0.012035478835901831,0.02014100172072523
8.98989898989899,1.3164556962025316,0.021246780182025703,0.019290884111727954,1.81739980599999e-05,-0.012161299288126098,0.020339510676494622
9.09090909090909,1.3164556962025316,0.02147286553097052,0.01928609746237034,-4.762851180030512e-05,-0.012227688898002258,0.020467450682435478
9.191919191919192,1.3164556962025316,0.02171264862462472,0.019413008333280527,4.4417137301173616e-05,-0.012337697087371575,0.020659189064512272
9.292929292929292,1.3164556962025316,0.02186129260356918,0.019616009941782694,-7.028638994097057e-05,-0.012443190763605562,0.02082996514190519
9.393939393939394,1.3164556962025316,0.02189634615018526,0.019661715658385148,-1.6376579419535494e-05,-0.012467418542571123,0.020868974818482634
9.494949494949495,1.3164556962025316,0.022207102856169073,0.02002078902593264,2.8907295682989293e-05,-0.012668367564630514,0.021198731004946056
9.595959595959595,1.3164556962025316,0.02249054233200363,0.020074994210958638,-4.805469249242526e-05,-0.012769660962888682,0.021385492923984444
9.696969696969697,1.3164556962025316,0.022641945480309726,0.02048084595447352,4.399668785577632e-05,-0.012936837430434974,0.021642605106086645
9.797979797979798,1.3164556962025316,0.0229043454698717,0.020657146749416613,-2.0829870562447654e-05,-0.013068447665786494,0.02186754740043367
9.8989898989899,1.3164556962025316,0.023182309667184212,0.020809594668010356,7.026878043966245e-05,-0.01319757130055837,0.022092058691172707
10.0,1.3164556962025316,0.02343113377117009,0.02094128032770847,2.098700126263691e-05,-0.013311724229663566,0.02229077459916307
0.0,1.4177215189873418,0.02340690870819208,0.021111302583592666,4.970995704914889e-06,-0.013355463387535424,0.022347711603134365
0.10101010101010101,1.4177215189873418,0.02315618139905422,0.020823329549361176,-3.249457637262369e-05,-0.01319385328452462,0.022082440123826683
0.20202020202020202,1.4177215189873418,0.02299913297863238,0.020671213463807982,-2.989095702123239e-05,-0.013101103932732108,0.021928107008112922
0.30303030303030304,1.4177215189873418,0.022516331753795662,0.020430437299968164,-4.275892016641031e-05,-0.012884030716129147,0.021549360658021256
0.40404040404040403,1.4177215189873418,0.022583472189024036,0.020234593959104482,4.3629676660864634e-05,-0.012845419844438556,0.02150558833226091
0.5050505050505051,1.4177215189873418,0.02237677507186517,0.020131957190087073,9.32445535114068e-06,-0.012752619678585674,0.02134309597874101
0.6060606060606061,1.4177215189873418,0.02195121157824162,0.01978482350231178,5.960329216939581e-06,-0.01252081052416602,0.020952188205758303
0.7070707070707071,1.4177215189873418,0.021699955830405075,0.019549819219468495,2.5177351649938636e-05,-0.01237493251496207,0.02070881944239383
0.8080808080808081,1.4177215189873418,0.02183004971614978,0.01944574403107443,-9.657953747751309e-06,-0.01238273812416726,0.020740943864587556
0.9090909090909091,1.4177215189873418,0.02167714120515107,0.019346797497163615,-3.226826619559544e-05,-0.012307181610694407,0.020611086500566766
1.0101010101010102,1.4177215189873418,0.02118429195180407,0.019383102787513456,-1.3527411719632277e-05,-0.012170218421795258,0.020343601936743498
1.1111111111111112,1.4177215189873418,0.02127509713230452,0.01906289365896435,-6.374660798157453e-05,-0.012101397237380662,0.02026008265814343
1.2121212121212122,1.4177215189873418,0.021073447256354932,0.01896207414062548,0.00012330996732841422,-0.012010656419094124,0.02010223325283824
1.3131313131313131,1.4177215189873418,0.020900864913387895,0.018735382285415186,4.259585067677629e-05,-0.011890874159640925,0.01990679412863055
1.4141414141414141,1.4177215189873418,0.020733198521209643,0.01877185195456074,-3.2608766137008035e-06,-0.011851515142731113,0.019825424218389863
1.5151515151515151,1.4177215189873418,0.020555267010944716,0.018566976296082647,-1.7315134868351197e-05,-0.011736672992108208,0.019636785754301885
1.6161616161616161,1.4177215189873418,0.020409322333009534,0.01839957972802006,5.937666643413224e-06,-0.011642670618308877,0.019482354184416076
1.7171717171717171,1.4177215189873418,0.02032281479646101,0.018620787946786684,2.582294226284148e-05,-0.011683080822974307,0.01952756310133891
1.8181818181818181,1.4177215189873418,0.02015369866281011,0.01831648908038506,6.125169251612573e-05,-0.011541056322958551,0.019301077582508055
1.9191919191919191,1.4177215189873418,0.02002801103601557,0.01802723032708917,3.49578465514871e-05,-0.011416572408931423,0.01910644806179461
2.0202020202020203,1.4177215189873418,0.020172341657094736,0.01817317033956943,-8.304392260725443e-06,-0.01150365359899925,0.019250773852704812
2.121212121212121,1.4177215189873418,0.019839050977468846,0.017902045081325445,-1.62859006485241e-05,-0.011322328817638286,0.018944982779161745
2.2222222222222223,1.4177215189873418,0.01970659592114094,0.017908438926283445,3.6584055600177146e-05,-0.011284510454227315,0.0188719832888922
2.323232323232323,1.4177215189873418,0.01983726195811207,0.017912257305946453,1.2585687697553125e-05,-0.011324855779217555,0.018948252123840614
2.4242424242424243,1.4177215189873418,0.01985987649538129,0.017730530469357277,-1.335350395629664e-05,-0.01127712208942157,0.018885465172078193
2.525252525252525,1.4177215189873418,0.019759925174256097,0.01762933205405718,5.7790714116208055e-05,-0.011216777168493983,0.018785732048659628
2.6262626262626263,1.4177215189873418,0.01972175449900008,0.017670321933780993,4.379593278599742e-05,-0.01121762292983432,0.018780412160470605
2.727272727272727,1.4177215189873418,0.019319504137846586,0.017443293639236065,-3.637130196407422e-05,-0.011028839333124794,0.018453181787724583
2.8282828282828283,1.4177215189873418,0.01952168708120036,0.017416815354473508,-7.515922868798671e-05,-0.011081550730702161,0.018559446409201503
2.929292929292929,1.4177215189873418,0.0194590044478559,0.01753418219331876,7.96645469725145e-05,-0.011097955992352398,0.018572067987195177
3.0303030303030303,1.4177215189873418,0.01925142010093105,0.017397175853124225,1.819785427627995e-05,-0.010994578786216581,0.0183945523493912
3.131313131313131,1.4177215189873418,0.019299959182321306,0.017342092556815375,1.462849176466682e-05,-0.010992615521741004,0.01839933591693349
3.2323232323232323,1.4177215189873418,0.019264369627682854,0.01743521473920456,-6.045830025521669e-06,-0.011009875310066225,0.018418043830338956
3.3333333333333335,1.4177215189873418,0.019253017331028455,0.01730841338134969,-2.6178110612351102e-05,-0.010968429213713445,0.018358178646185528
3.4343434343434343,1.4177215189873418,0.019143548905717563,0.017383203417349183,-1.7168132544639925e-05,-0.010958025696920025,0.018326917504883487
3.5353535353535355,1.4177215189873418,0.01923548772605394,0.017124780577598475,-6.0172392888086335e-05,-0.010908080491095725,0.018272094938153672
3.6363636363636362,1.4177215189873418,0.01889088889635937,0.01722473505855447,4.7240483761484154e-05,-0.010834687186474153,0.018115554638528975
3.7373737373737375,1.4177215189873418,0.019150192659789688,0.017114546329651877,4.9787540971925726e-05,-0.010879421696832469,0.018218072122945433
3.8383838383838382,1.4177215189873418,0.01897659706271928,0.01733523937705538,-6.675476354426322e-05,-0.010893550931932398,0.018211844395662407
3.9393939393939394,1.4177215189873418,0.019093049504518192,0.01708023872960107,-1.3295096827757994e-05,-0.010851986470235778,0.018170464526469424
4.040404040404041,1.4177215189873418,0.018984911261049987,0.016912146315478292,1.7620660959143812e-05,-0.010769117272958484,0.01803809532672221
4.141414141414141,1.4177215189873418,0.018928610554674225,0.01704573267981236,-4.6329502748359914e-05,-0.010792302970345976,0.018061110261425532
4.242424242424242,1.4177215189873418,0.019045280059612354,0.01707219504831556,2.740591094572841e-05,-0.010835242532378374,0.01813946122797382
4.343434343434343,1.4177215189873418,0.018983897691235468,0.017034516204076287,-0.0001113959193162741,-0.010805524168593527,0.018089190920902925
4.444444444444445,1.4177215189873418,0.01879744421308019,0.017036560836645155,6.257469791353096e-05,-0.010750201514917603,0.0179821094133432
4.545454545454545,1.4177215189873418,0.018876764129509883,0.017021694998592025,-4.7091972669577035e-06,-0.010769537738430573,0.018020984145794613
4.646464646464646,1.4177215189873418,0.01880960099551332,0.017046365678564702,9.043993723863835e-05,-0.010756790002223406,0.017993578681493372
4.747474747474747,1.4177215189873418,0.01900706602287199,0.01684880935386262,4.35314803018863e-05,-0.010756762613020382,0.018025265285545877
4.848484848484849,1.4177215189873418,0.01892648761238773,0.016911058926509917,-5.455360309677052e-05,-0.010751263961669293,0.01800382815846787
4.94949494949495,1.4177215189873418,0.019063797910324677,0.016938662383691277,-5.0561735061981815e-05,-0.010800738088204784,0.018095278583863412
5.05050505050505,1.4177215189873418,0.01882280375174586,0.016957624653865907,-4.160093522147844e-05,-0.01073412852168353,0.01796313240880018
5.151515151515151,1.4177215189873418,0.018948618165954792,0.016976670468557952,-0.00010154114632666085,-0.010777586590353824,0.018044499327285482
5.252525252525253,1.4177215189873418,0.018814065658600363,0.01701657522217548,2.7503727026747284e-05,-0.010749192264232751,0.017982886440962735
5.353535353535354,1.4177215189873418,0.018908158419842763,0.01711952750549309,-3.347330618758161e-05,-0.010808305777600755,0.018080412055071302
5.454545454545454,1.4177215189873418,0.018992082138260664,0.01706310626152499,8.019753362489758e-05,-0.010816556519935695,0.018105362700564138
5.555555555555555,1.4177215189873418,0.01893396506678316,0.01686657265514999,1.226579068927519e-05,-0.010740161316579943,0.017989598666493706
5.656565656565657,1.4177215189873418,0.019059854455796988,0.017044617378732408,-0.00010020354184472984,-0.010831341550358819,0.01813723322945256
5.757575757575758,1.4177215189873418,0.01891928190485209,0.017068408251091276,-3.51677539494878e-05,-0.01079630704678301,0.018065200551459114
5.858585858585858,1.4177215189873418,0.018907137790019877,0.01690172142046943,9.757404595412154e-05,-0.010742657763146791,0.017989258814190716
5.959595959595959,1.4177215189873418,0.01898328506337821,0.0170975822346733,4.461244674621286e-05,-0.010824260189415454,0.01811436235214351
6.0606060606060606,1.4177215189873418,0.018962191322170214,0.017096331423779216,-5.10947867701837e-05,-0.01081755682378483,0.018101745014143283
6.161616161616162,1.4177215189873418,0.019058541832559943,0.016972154793825606,-5.9550681756306036e-05,-0.010809208987915665,0.018106025843715668
6.262626262626262,1.4177215189873418,0.018968876957859527,0.01715057576665069,8.639242183725085e-06,-0.010835835817353064,0.01812825431765321
6.363636363636363,1.4177215189873418,0.019036397078486957,0.017342538188599644,1.8104013282353927e-05,-0.01091368058012598,0.01824855020300922
6.4646464646464645,1.4177215189873418,0.019119819920190878,0.017272338745326635,4.155901720908733e-05,-0.010917647599655253,0.018266427525884553
6.565656565656566,1.4177215189873418,0.019301386163848834,0.01724441752446436,-6.0786394875546095e-06,-0.010963741106493957,0.018359531384088048
6.666666666666667,1.4177215189873418,0.019183784259677695,0.01756968764389558,-1.84583588387398e-05,-0.011026041571071982,0.018429851526491743
6.767676767676767,1.4177215189873418,0.01922014103325516,0.0174222829840683,7.818325658802266e-06,-0.010992727205197035,0.018387256810594357
6.8686868686868685,1.4177215189873418,0.019283898900749722,0.017381028305010704,-4.3205781305727835e-05,-0.010999478161728126,0.018406534419809682
6.96969696969697,1.4177215189873418,0.019156776179258064,0.01748962135785512,-3.9660620268093306e-05,-0.010993919261133954,0.018380122031839977
7.070707070707071,1.4177215189873418,0.019346090815384274,0.017552570704397717,1.934178394778356e-05,-0.011069598455934597,0.018514628367673598
7.171717171717171,1.4177215189873418,0.01951912056135209,0.017669416884816005,-1.8249900324251632e-05,-0.01115656123385043,0.018663169111677966
7.2727272727272725,1.4177215189873418,0.019543238473045982,0.017449940165565635,-4.496150597694294e-05,-0.011097953591583484,0.018585378780406708
7.373737373737374,1.4177215189873418,0.01971372032658933,0.017739809893076573,-0.0001049685377172786,-0.01123605906589977,0.018805505270006337
7.474747474747475,1.4177215189873418,0.01964988902632441,0.017723999975157383,2.6833280484707744e-05,-0.011212166700444538,0.018761285705586623
7.575757575757575,1.4177215189873418,0.019742086195507973,0.017686500135920324,-3.1368942065550563e-07,-0.01122857589942849,0.01879877242066026
7.6767676767676765,1.4177215189873418,0.019837548904720566,0.017892999507694414,0.00012249103891955596,-0.011319164523724494,0.01894147664009727
7.777777777777778,1.4177215189873418,0.01987568958939021,0.017973947296416565,5.562769059843634e-05,-0.011354891065742032,0.018996591910877162
7.878787878787879,1.4177215189873418,0.01984764424555372,0.0181192795420575,-2.8692869278487865e-05,-0.011390077136283367,0.019042445450283708
7.979797979797979,1.4177215189873418,0.020007458583716217,0.018075599197125834,1.4808351110229085e-05,-0.011424917334252613,0.019114903632079717
8.080808080808081,1.4177215189873418,0.02012273363652645,0.01813774927452027,-2.2669826758571336e-05,-0.011478144873314016,0.01920736322606039
8.181818181818182,1.4177215189873418,0.02046339644797719,0.018286859711598744,7.126866574708528e-05,-0.011625076847872779,0.019466992831455605
8.282828282828282,1.4177215189873418,0.020265597592668643,0.018364350830234973,7.585901496379613e-05,-0.011588984526871083,0.019385472576087758
8.383838383838384,1.4177215189873418,0.0206025440759646,0.01836142200151867,-1.4191429558991035e-05,-0.011689189823244982,0.019578438099763274
8.484848484848484,1.4177215189873418,0.020627116905259493,0.018470458438265756,-3.7194669422360856e-05,-0.011729272603057573,0.01963791311655596
8.585858585858587,1.4177215189873418,0.020770327428741988,0.01866566211322586,-4.399573821763578e-05,-0.011830796862590354,0.019802205350193846
8.686868686868687,1.4177215189873418,0.020795038675445666,0.018888565206514732,5.700227394302019e-06,-0.011905081164588119,0.019910378764821775
8.787878787878787,1.4177215189873418,0.021165271746756177,0.01885792989954094,-0.00011005408718215326,-0.012006960493889137,0.020112020609856424
8.88888888888889,1.4177215189873418,0.021211354011673945,0.01906684098608188,2.2791296547590235e-05,-0.012083458499326747,0.02022458920439686
8.98989898989899,1.4177215189873418,0.021143646564074955,0.019261238555624068,3.513097995301086e-06,-0.012121465535909707,0.020268110847888647
9.09090909090909,1.4177215189873418,0.021501833272028224,0.0193090494829151,-0.00011926684472175091,-0.012243264826482997,0.020494656306206508
9.191919191919192,1.4177215189873418,0.021709843711025502,0.01948083578703537,-3.3561841448279055e-05,-0.01235720384941826,0.02068568963833465
9.292929292929292,1.4177215189873418,0.021763952104981315,0.01971368879110309,0.00010869609571259822,-0.012443292268825321,0.020815542338406153
9.393939393939394,1.4177215189873418,0.02197536617796579,0.019883852201683386,2.494619279970698e-06,-0.012557765513894753,0.021007840977666038
9.494949494949495,1.4177215189873418,0.02230071675279655,0.020209076416601485,-3.4568587999307574e-05,-0.01275293795081941,0.02133202834378572
9.595959595959595,1.4177215189873418,0.02231156209548297,0.020407516765246908,3.794081807223978e-05,-0.012815723658218963,0.021423195015194112
9.696969696969697,1.4177215189873418,0.022755739878486836,0.02043398161960764,1.2510972854971073e-05,-0.012956916449428342,0.021688277972295812
9.797979797979798,1.4177215189873418,0.02289562123202982,0.020541652901614058,-4.480110518715542e-05,-0.013031182240093163,0.02181424059262344
9.8989898989899,1.4177215189873418,0.02319539815933287,0.020889097680467372,-1.4703654833452913e-06,-0.013225348751940072,0.022132554445259512
10.0,1.4177215189873418,0.023424191105552848,0.021016319952997842,2.3747213079688583e-05,-0.013332153317565208,0.022317926207247808
0.0,1.5189873417721518,0.0234691645836956,0.021206100263637537,6.559322566673573e-05,-0.013402579454199941,0.02242373351599015
0.10101010101010101,1.5189873417721518,0.023308373493685218,0.02074936564416824,8.051625161276044e-05,-0.013217321741356036,0.022140504374686787
0.20202020202020202,1.5189873417721518,0.02288889084187209,0.020648487717007665,-4.834690973571514e-05,-0.013061213567663927,0.021855145843422557
0.30303030303030304,1.5189873417721518,0.02250476481974404,0.02067505440571298,-4.7270738810703344e-05,-0.012953945767637106,0.021648135735056737
0.40404040404040403,1.5189873417721518,0.022403526320170685,0.020123786197948957,3.723384450290747e-05,-0.012758193755435892,0.021355213598782712
0.5050505050505051,1.5189873417721518,0.02226469281574028,0.020107939836015432,-2.6703253742362427e-05,-0.012711789795526713,0.021268540763604443
0.6060606060606061,1.5189873417721518,0.021951522064288315,0.019796264223737526,-4.685105034553039e-05,-0.012524335886407752,0.020957334093817056
0.7070707070707071,1.5189873417721518,0.021833204451928892,0.019738048386054013,3.309482499684809e-05,-0.012471375851394873,0.020864750433146315
0.8080808080808081,1.5189873417721518,0.02158077487529751,0.019497248958290084,0.00015545324045084433,-0.012323407150076278,0.02061987676571392
0.9090909090909091,1.5189873417721518,0.02148437487376097,0.019385492630043615,2.7710413279516562e-06,-0.012260960251141375,0.02051561650268862
1.0101010101010102,1.5189873417721518,0.021086988766971824,0.019247619565194978,-5.267381100401481e-05,-0.01210038249965004,0.020230322296339122
1.1111111111111112,1.5189873417721518,0.020968712736609642,0.019109432678151655,-2.1274876735994195e-05,-0.01202344362442839,0.020103693307068307
1.2121212121212122,1.5189873417721518,0.020984011776848263,0.018978294398060338,-3.261885411375629e-05,-0.011988691852472581,0.020056591119277836
1.3131313131313131,1.5189873417721518,0.020703483825018985,0.018720821376866002,-2.711579166699945e-06,-0.011827291560565495,0.01978679344937718
1.4141414141414141,1.5189873417721518,0.02069510010008445,0.01867439020492561,2.7817011953115897e-05,-0.011810847091503018,0.019762438220974326
1.5151515151515151,1.5189873417721518,0.0205193985893621,0.018503781947262588,-2.4416711565100246e-05,-0.011706954160987406,0.01958956293953092
1.6161616161616161,1.5189873417721518,0.020548416158357105,0.018636915173478964,-3.6677656039341566e-05,-0.01175559939955082,0.019662577670773323
1.7171717171717171,1.5189873417721518,0.020489343425531846,0.01851159093384414,5.315546152069348e-06,-0.011700280307812796,0.01957554427544644
1.8181818181818181,1.5189873417721518,0.02026693811475691,0.018251324139151308,4.3217075363871295e-05,-0.011555478676172464,0.019338220178858605
1.9191919191919191,1.5189873417721518,0.020216816110198533,0.018069446500820024,7.646414288981833e-06,-0.011485878783305566,0.019233253722716434
2.0202020202020203,1.5189873417721518,0.02017960644104019,0.018185349672806824,-4.3072569040886314e-05,-0.011509486834154104,0.019260213529091432
2.121212121212121,1.5189873417721518,0.019934032952386885,0.017920534750480537,2.3166626187208986e-05,-0.011356370310860226,0.0190074805097167
2.2222222222222223,1.5189873417721518,0.019794512475210968,0.017916145911228303,1.7015262145950244e-05,-0.01131319751593178,0.018925393080558045
2.323232323232323,1.5189873417721518,0.019819179020437182,0.017645326062602152,5.051073131613017e-05,-0.0112393515249118,0.018826820411129448
2.4242424242424243,1.5189873417721518,0.019824195766848855,0.01775560427750567,3.26012773988774e-05,-0.011273940013306357,0.018875190977460824
2.525252525252525,1.5189873417721518,0.01971934097474404,0.017582504117951703,9.352985522975449e-05,-0.011190553527808721,0.01874320434572848
2.6262626262626263,1.5189873417721518,0.019525005822755487,0.017679762467205543,-5.331858839830013e-05,-0.011161430486988307,0.01867112521445694
2.727272727272727,1.5189873417721518,0.01939680341214579,0.01759874644407773,3.467010906514717e-05,-0.011098664956867057,0.01856329819794374
2.8282828282828283,1.5189873417721518,0.01961356806087161,0.01753103995977644,5.785836566717076e-05,-0.011143382406194413,0.01865993599914585
2.929292929292929,1.5189873417721518,0.01939037442747848,0.01751888167776537,-9.533157308727258e-06,-0.011072776831573157,0.01852566957057306
3.0303030303030303,1.5189873417721518,0.019427722295170816,0.017433382793429764,-6.606585932395145e-05,-0.011058331526580173,0.018511655888052588
3.131313131313131,1.5189873417721518,0.019249060858341063,0.017389909410733033,1.2248741897373597e-05,-0.010991691080722229,0.018390114702426828
3.2323232323232323,1.5189873417721518,0.01928120482258446,0.017335631255180745,-4.7603141260469655e-05,-0.01098505082332956,0.0183859705113244
3.3333333333333335,1.5189873417721518,0.019235984203704606,0.017241324842475498,-1.1990435319245376e-05,-0.01094319271385403,0.018320287923494948
3.4343434343434343,1.5189873417721518,0.0191727501208027,0.01746350889033317,1.4208794259922603e-05,-0.010990877703340762,0.01837785633419236
3.5353535353535355,1.5189873417721518,0.019256579670347742,0.017219318830405794,2.1082430186462186e-05,-0.01094276955022606,0.018323126099641866
3.6363636363636362,1.5189873417721518,0.019108020522956046,0.017110557057391985,2.462988696675872e-05,-0.010865573274104411,0.01819177164550269
3.7373737373737375,1.5189873417721518,0.019086182379737204,0.017216529151664214,4.078030518726379e-05,-0.010890813459420425,0.018223567368323982
3.8383838383838382,1.5189873417721518,0.01889779900005754,0.017073197767678416,-4.468320735268679e-06,-0.010791299030320787,0.018054780232854895
3.9393939393939394,1.5189873417721518,0.01898302182343499,0.017097659356229304,6.736126795801618e-05,-0.010824204353899287,0.01811445403380872
4.040404040404041,1.5189873417721518,0.018953436933614388,0.017274028237748828,-2.662371930422046e-05,-0.010868239551408964,0.018172086969544365
4.141414141414141,1.5189873417721518,0.019022587943453517,0.01720180161402155,-6.382780499380998e-05,-0.010867316867242521,0.018181041466650994
4.242424242424242,1.5189873417721518,0.01912836871259298,0.016905725631635952,-1.454208188567989e-05,-0.010810228303268679,0.018119595191880784
4.343434343434343,1.5189873417721518,0.019137735656837997,0.016993246254585235,-3.3030568720308595e-06,-0.01083929457342697,0.01816070269286773
4.444444444444445,1.5189873417721518,0.018891636846018984,0.016959794971602184,3.8349361263890935e-05,-0.01075542954528635,0.018003741628748328
4.545454545454545,1.5189873417721518,0.018986350778420973,0.01695726621970461,-3.6273648066617185e-05,-0.010783085099437673,0.018057622661065705
4.646464646464646,1.5189873417721518,0.018939424988393794,0.016968946373692485,-7.692195457704201e-06,-0.010772511408625883,0.01803510605616817
4.747474747474747,1.5189873417721518,0.01865762667598564,0.01713998193781741,-4.3538166269224634e-05,-0.010739282584140914,0.017947153437132865
4.848484848484849,1.5189873417721518,0.01886042287097311,0.01702629490207756,-2.2726800450663772e-05,-0.0107660153319152,0.01801356979356778
4.94949494949495,1.5189873417721518,0.018877231076545632,0.017085997860133515,-2.2520622597415627e-05,-0.010788968681003744,0.018048445023048636
5.05050505050505,1.5189873417721518,0.01900531310467861,0.016764353934853555,2.1823960077243805e-05,-0.010730900111859648,0.01798986165555661
5.151515151515151,1.5189873417721518,0.01883100758398373,0.017077124966092275,8.569056020958528e-05,-0.010772439765022802,0.018018812463722198
5.252525252525253,1.5189873417721518,0.018895219958065604,0.01713726763846457,9.788113808740601e-06,-0.010809746278959052,0.018080462529717928
5.353535353535354,1.5189873417721518,0.018815842016398136,0.016973823285080215,4.6370006736185575e-05,-0.010736899590443506,0.017965975088634338
5.454545454545454,1.5189873417721518,0.018972702029626243,0.017019951619783914,1.2891805429130402e-05,-0.010797796094823047,0.018075624564586855
5.555555555555555,1.5189873417721518,0.018835192416930695,0.017154393040651146,1.3056422526122402e-05,-0.010796875637274552,0.01805358390099125
5.656565656565657,1.5189873417721518,0.019094218245306258,0.017118818443957316,7.485493578528719e-05,-0.010863911006779072,0.01818761858050962
5.757575757575758,1.5189873417721518,0.01891677120907963,0.01699440661882589,7.696389699982403e-05,-0.010773353348371657,0.018033096178543036
5.858585858585858,1.5189873417721518,0.01892349144866735,0.017139859416612634,4.1320940308103256e-05,-0.010819005259583995,0.01809785756899764
5.959595959595959,1.5189873417721518,0.01907026887490166,0.01707457880677822,5.425612637877174e-05,-0.010843454304503964,0.01815512100760316
6.0606060606060606,1.5189873417721518,0.01922086304641371,0.01716239663778627,9.828061645735774e-06,-0.010914977905259995,0.01827877591774011
6.161616161616162,1.5189873417721518,0.019158958320857275,0.017111576526592037,-5.743835596625662e-05,-0.010881160454234793,0.01822201007525881
6.262626262626262,1.5189873417721518,0.019164300459416198,0.01709890745685873,2.675871167469582e-05,-0.010878962374882478,0.018219676077580457
6.363636363636363,1.5189873417721518,0.019033045274762392,0.017145172888818196,2.2456007742071507e-05,-0.010853465449074177,0.018162885971094108
6.4646464646464645,1.5189873417721518,0.01901761434743914,0.017128120070784302,-2.3861744226839648e-05,-0.010843720325467031,0.018146842115718976
6.565656565656566,1.5189873417721518,0.019258529700073405,0.01716017572432226,6.750997369793988e-06,-0.0109256116273187,0.018299808195191176
6.666666666666667,1.5189873417721518,0.01921959302511604,0.01756860559828267,-1.1887486596403118e-05,-0.011036459587019614,0.018449597096910894
6.767676767676767,1.5189873417721518,0.01928313993064725,0.017289877626953866,3.076236008187813e-05,-0.010971905267280336,0.018367881294369177
6.8686868686868685,1.5189873417721518,0.019100792304105454,0.01734214982184471,-2.518026805885392e-05,-0.01093288263778505,0.018285062957831073
6.96969696969697,1.5189873417721518,0.019314114494070795,0.01712293142976546,-9.036261443834015e-05,-0.010931113777150878,0.0183177519782362
7.070707070707071,1.5189873417721518,0.019572598401551882,0.01749583499947969,-3.165490829191662e-07,-0.01112053002030947,0.01862127543089968
7.171717171717171,1.5189873417721518,0.019512813154044455,0.01754890350363706,-1.3310049246772102e-05,-0.011118514997304454,0.018608759972443684
7.2727272727272725,1.5189873417721518,0.019234863463543396,0.01761529093888085,0.00015650732794888402,-0.011055046320727272,0.018480373775270707
7.373737373737374,1.5189873417721518,0.019635753783802477,0.01734954132418356,1.539719417438766e-05,-0.011095588532395811,0.018598354774948693
7.474747474747475,1.5189873417721518,0.019576114965192366,0.01774539387796253,5.173843732709785e-06,-0.011196452652946469,0.018727986828883134
7.575757575757575,1.5189873417721518,0.01971638948839191,0.01768796432080962,-0.00011240724923174704,-0.011221306142760458,0.0187855052802788
7.6767676767676765,1.5189873417721518,0.019865845378250344,0.01786831837676499,-6.0385668317073176e-05,-0.011320249126504598,0.018946511643324733
7.777777777777778,1.5189873417721518,0.019938668725191552,0.01778991965627166,-6.176956881282758e-05,-0.011318576514438964,0.01895615688039778
7.878787878787879,1.5189873417721518,0.019965211680744922,0.01802716782416112,2.67288226658933e-05,-0.011397713851471812,0.019070248527316473
7.979797979797979,1.5189873417721518,0.020027998004884737,0.017943171310272014,-5.1248046337437896e-05,-0.011391350794547023,0.01907144935857689
8.080808080808081,1.5189873417721518,0.02014344565985389,0.01812697337324994,0.00010987837881706926,-0.011481125709931147,0.019215672857818816
8.181818181818182,1.5189873417721518,0.02020699666901023,0.01837714633427076,-9.78168202358976e-05,-0.011575242900984295,0.019357788907853914
8.282828282828282,1.5189873417721518,0.020333166713885367,0.01826933278932622,-5.894134198668122e-05,-0.011580749850963476,0.01938409714354448
8.383838383838384,1.5189873417721518,0.020415770490688556,0.018314531630100203,-1.272338685492531e-05,-0.011619090636236628,0.019450474667923857
8.484848484848484,1.5189873417721518,0.0207011844952107,0.018559103853508917,1.9038547530770932e-05,-0.011778086504615884,0.01971763245959549
8.585858585858587,1.5189873417721518,0.020831545513188558,0.018772969139168802,-9.858453233398443e-05,-0.011881354395707207,0.01988307960196302
8.686868686868687,1.5189873417721518,0.020860347242184794,0.01876057053246893,2.41056521983054e-05,-0.011886275332396116,0.019893788509152056
8.787878787878787,1.5189873417721518,0.020953919202954602,0.018788477863298507,-2.599787498963438e-05,-0.011922719119875934,0.01995954435747624
8.88888888888889,1.5189873417721518,0.021206788304819788,0.018889990093904636,2.507322705459562e-05,-0.012029033519617328,0.020148584589291203
8.98989898989899,1.5189873417721518,0.02122796581942634,0.01919000796152282,-3.273459227813705e-05,-0.012125392134284749,0.020285988267099816
9.09090909090909,1.5189873417721518,0.021439567622687873,0.01939328664811613,4.7224886692222075e-05,-0.012249856281241202,0.020493355921252114
9.191919191919192,1.5189873417721518,0.02188970071311483,0.019539523964390543,-8.275264980349887e-05,-0.012428767403251611,0.020814855426128636
9.292929292929292,1.5189873417721518,0.02187779435073305,0.019761036480116873,1.804967587627242e-05,-0.012491649249254975,0.020899988840297114
9.393939393939394,1.5189873417721518,0.02217183328771318,0.019739244277261297,2.9022463317059568e-05,-0.012573323269492342,0.02106122621180415
9.494949494949495,1.5189873417721518,0.022272352867513858,0.02002722513155989,5.152065854071071e-05,-0.012689873399722123,0.021239161630647357
9.595959595959595,1.5189873417721518,0.02244176349026885,0.0201402321077603,3.330791757119179e-06,-0.012774598679408744,0.021384092348955764
9.696969696969697,1.5189873417721518,0.022672386719230844,0.020450814952422694,0.0001038691812602675,-0.01293696050149606,0.021648014524669048
9.797979797979798,1.5189873417721518,0.022934946210396014,0.020461477307128897,-3.6160844670505075e-05,-0.013018927055257474,0.02180378069646939
9.8989898989899,1.5189873417721518,0.023139444339757224,0.02069218252554913,-7.049049260941214e-05,-0.013149488059591905,0.022018392378508635
10.0,1.5189873417721518,0.02321156116932879,0.02106931393523948,-5.645970293580207e-05,-0.01328426253137048,0.022218246004348154
0.0,1.620253164556962,0.023468469047836133,0.02119693617973016,-5.736977217890395e-06,-0.013399621568269886,0.02241917931041553
0.10101010101010101,1.620253164556962,0.023112667051524087,0.02075829824655718,-1.5429520190876e-05,-0.013161289589424379,0.022030056799949328
0.20202020202020202,1.620253164556962,0.023090098082142116,0.020720212999768194,8.044641259102157e-06,-0.013143093324573092,0.022001097697613662
0.30303030303030304,1.620253164556962,0.02278470662041439,0.020453654948415823,2.1406366393561485e-05,-0.012971508470649063,0.021713261015101702
0.40404040404040403,1.620253164556962,0.022437752002995106,0.020232846276117395,-1.2347402615619874e-05,-0.01280117948373375,0.021420589480630952
0.5050505050505051,1.620253164556962,0.022309785147115388,0.020180001226916804,-2.3091525529222817e-05,-0.012746935912209658,0.021324846326373117
0.6060606060606061,1.620253164556962,0.022144873990797398,0.01982520278639239,2.3307487748794043e-05,-0.012591023033156935,0.02108101330012782
0.7070707070707071,1.620253164556962,0.021713935839457937,0.019673001411883585,2.5782448761031348e-05,-0.012416081175402457,0.020768863665806474
0.8080808080808081,1.620253164556962,0.021828932212384793,0.01978441983647027,4.0183856567208694e-05,-0.01248400561465652,0.02088199306948271
0.9090909090909091,1.620253164556962,0.021426900991272913,0.019511166236120595,1.2231750649706898e-05,-0.012281420168218052,0.020536170910490918
1.0101010101010102,1.620253164556962,0.0214009678707341,0.01923737332899725,-3.395716285385844e-05,-0.012191502359919405,0.020405465178205275
1.1111111111111112,1.620253164556962,0.021227724007469778,0.01900861621949653,3.6764848215631544e-05,-0.012070902068089893,0.020209852874482345
1.2121212121212122,1.620253164556962,0.021010311859601033,0.018825376860736084,2.375099491385377e-05,-0.011950706616101136,0.020007565369057907
1.3131313131313131,1.620253164556962,0.021035935869530946,0.01866482954305978,1.3173612748160497e-05,-0.011910229623777217,0.019956322885922202
1.4141414141414141,1.620253164556962,0.020689164461766284,0.01858258661565871,7.508364378913169e-05,-0.011781525323227496,0.019720871519757568
1.5151515151515151,1.620253164556962,0.020695298738412343,0.018647512238144506,-3.512955131291178e-05,-0.011802843292967054,0.019751277637241754
1.6161616161616161,1.620253164556962,0.020430775669419733,0.018482265796622398,-9.827703152363834e-05,-0.01167391243981264,0.01953030189737336
1.7171717171717171,1.620253164556962,0.020335955231152655,0.018245718413500162,4.6794936807116655e-05,-0.011574502093395844,0.019375752167834912
1.8181818181818181,1.620253164556962,0.020234780397555198,0.018179737419485323,1.1630892899308786e-05,-0.011524355345112156,0.019289546439541436
1.9191919191919191,1.620253164556962,0.020108899791844177,0.01807850470849982,2.8823960949871747e-06,-0.011456221350103199,0.019174497873182927
2.0202020202020203,1.620253164556962,0.01997582392675359,0.01810227620140498,-6.687279548839008e-05,-0.011423430038447572,0.019108413829101986
2.121212121212121,1.620253164556962,0.020112983124751477,0.018154231056248627,-2.6016035822745492e-05,-0.011480164254300032,0.019208708521017016
2.2222222222222223,1.620253164556962,0.0199545635049726,0.017828307714735873,-1.1913526191543745e-05,-0.01133486136591254,0.01898097700229691
2.323232323232323,1.620253164556962,0.019842952597351148,0.01801561817867433,1.7645645774237048e-05,-0.011357571232807642,0.01899534529076894
2.4242424242424243,1.620253164556962,0.019626701753580552,0.0178127269119045,1.4716900990042402e-05,-0.011231828599645515,0.018785532545171176
2.525252525252525,1.620253164556962,0.019460238657831457,0.017699449974948454,-6.372960720006441e-05,-0.011147906589833972,0.018642641491996684
2.6262626262626263,1.620253164556962,0.01976792594614314,0.01758034692605624,-6.513959448184034e-05,-0.011204481861659815,0.01877032838314815
2.727272727272727,1.620253164556962,0.019540043612801712,0.017621813065124923,-7.240188929313247e-05,-0.01114855700337799,0.01865546382065962
2.8282828282828283,1.620253164556962,0.0194540711724553,0.017459210243402527,4.892645521682899e-05,-0.011073984424757348,0.018537512514097864
2.929292929292929,1.620253164556962,0.01937411989179831,0.01761757925160134,-1.6703738819497053e-05,-0.011097509743019896,0.01855832332645161
3.0303030303030303,1.620253164556962,0.01925976631633525,0.01736335301404337,-2.598801289088522e-05,-0.010986935799113586,0.018385117107651564
3.131313131313131,1.620253164556962,0.01918346572127984,0.01736292948628497,-8.639776642548507e-05,-0.010963918562269442,0.018341698627068484
3.2323232323232323,1.620253164556962,0.019174130608703762,0.01750730880252454,7.65182228914461e-05,-0.011004431823368488,0.018397915252423912
3.3333333333333335,1.620253164556962,0.019241591490286418,0.017416191011852957,3.91730484842821e-05,-0.010997334750641812,0.018397062897558415
3.4343434343434343,1.620253164556962,0.019045262272324334,0.017290010503502554,6.0637854149174664e-05,-0.010900581832748066,0.018231421347510678
3.5353535353535355,1.620253164556962,0.019028771793584927,0.017241405625673046,0.00014564408982729334,-0.010881053225777393,0.018202776916516464
3.6363636363636362,1.620253164556962,0.018980018794193847,0.017156117842581413,-1.0088712031559099e-05,-0.010840840991032576,0.018136988700311413
3.7373737373737375,1.620253164556962,0.019288831425589386,0.017206819602107612,5.734358183062874e-06,-0.0109486953083091,0.018336693119461043
3.8383838383838382,1.620253164556962,0.019307505665988708,0.01715631173484516,2.605012197406406e-05,-0.010939145220250161,0.01832689982468243
3.9393939393939394,1.620253164556962,0.01889477592642872,0.016998532549882372,3.911432658589026e-05,-0.010767992542893328,0.018021758858193092
4.040404040404041,1.620253164556962,0.018895006298802544,0.016980226641467814,-5.0412002065671904e-05,-0.010762569882081106,0.018014313603122067
4.141414141414141,1.620253164556962,0.018876669887681396,0.017003478667831758,3.510728516109618e-05,-0.010764044566653945,0.018013372717662526
4.242424242424242,1.620253164556962,0.018817261263420256,0.017145277805163048,-8.514633163113799e-06,-0.010788761720574991,0.018039482200864113
4.343434343434343,1.620253164556962,0.018856995184317056,0.016990298694326625,7.089803229568474e-06,-0.010754188163593104,0.01799640762043074
4.444444444444445,1.620253164556962,0.019005839195969494,0.01698070529612325,2.5738274057039798e-05,-0.010795963347627823,0.018078598092242295
4.545454545454545,1.620253164556962,0.01895211420857143,0.017137307966913175,-7.86794504753005e-05,-0.010826826652645382,0.01811353943543179
4.646464646464646,1.620253164556962,0.01891413998035466,0.016963046095458914,3.77641726335464e-05,-0.01076315582274407,0.01801811516470577
4.747474747474747,1.620253164556962,0.0190742568984556,0.017042266760293173,-0.00011784916202670481,-0.010834957097624632,0.01814495035855439
4.848484848484849,1.620253164556962,0.018676875932172262,0.01700048031345436,-7.695289970666338e-06,-0.010703206873687986,0.017897663018524062
4.94949494949495,1.620253164556962,0.018999557961688847,0.016998178278835704,-7.784903957750773e-05,-0.010799320872157363,0.01808263187441712
5.05050505050505,1.620253164556962,0.01891123946929545,0.01692454107504009,-3.290181259698968e-05,-0.01075073416330066,0.0180003963088473
5.151515151515151,1.620253164556962,0.018765305883422213,0.016874221955225283,4.285605092764632e-05,-0.010691858351594249,0.01789501731995109
5.252525252525253,1.620253164556962,0.018933026767594976,0.017175883230761243,8.166326556704444e-06,-0.010832672999506866,0.018118477045292552
5.353535353535354,1.620253164556962,0.01890058147383383,0.01705658139994456,-1.1278716499361052e-05,-0.010787148862133517,0.018049377394125595
5.454545454545454,1.620253164556962,0.0187131483467703,0.016970876743748704,4.3536569041305156e-05,-0.0107052075271557,0.017905857441567846
5.555555555555555,1.620253164556962,0.018973248715073398,0.01697481549250311,-9.271428617525186e-05,-0.010784419262272952,0.018057876934828142
5.656565656565657,1.620253164556962,0.01899946315571733,0.016814685465013277,7.616116537625771e-05,-0.010744244586219183,0.01800723888036775
5.757575757575758,1.620253164556962,0.018897078197162857,0.01715706177166553,3.789923938741799e-05,-0.010816241990648517,0.0180900609216983
5.858585858585858,1.620253164556962,0.01902008601366885,0.016945445492864374,-5.673454197087424e-05,-0.010789659451959968,0.018072565410852424
5.959595959595959,1.620253164556962,0.019110951042995122,0.017147332146295994,2.5795412252488023e-05,-0.010877484956787333,0.018208778667093323
6.0606060606060606,1.620253164556962,0.018843844062167305,0.0172594604865356,-8.57204817157712e-05,-0.010830991364610871,0.018104333661394537
6.161616161616162,1.620253164556962,0.0191491772029779,0.0171622074076041,2.3807180005240474e-05,-0.010893415383174601,0.01823710229602439
6.262626262626262,1.620253164556962,0.01899606347972584,0.017207811548779893,6.602577540995776e-06,-0.01086116250855172,0.018168066938406096
6.363636363636363,1.620253164556962,0.01899417655218699,0.017272534705267423,-1.154867188673807e-05,-0.010880013377236323,0.01819456029862107
6.4646464646464645,1.620253164556962,0.01908906179325157,0.01721322554351436,6.034323804412084e-05,-0.010890686201029778,0.018223995489910633
6.565656565656566,1.620253164556962,0.01923976445417413,0.0173962990446987,4.42610066302643e-06,-0.010990819049661848,0.018387471807766585
6.666666666666667,1.620253164556962,0.019011079005800787,0.017205370114664262,-5.010636730643169e-05,-0.010864934736139515,0.01817582920027555
6.767676767676767,1.620253164556962,0.01927970161741088,0.01725211247532181,-5.218054105329455e-05,-0.010959544227819808,0.01835033697101848
6.8686868686868685,1.620253164556962,0.019360220715145426,0.017350219414078157,-3.69917384553629e-05,-0.011013132038767076,0.018437686614897985
6.96969696969697,1.620253164556962,0.019349879988443158,0.017337619622571597,-7.627411493814042e-05,-0.011006249883304425,0.018426814808423182
7.070707070707071,1.620253164556962,0.0193839070865962,0.017461853270016047,6.112456614551617e-06,-0.011053728106983672,0.018497928108465962
7.171717171717171,1.620253164556962,0.019495130041141347,0.017586378106071415,5.123167313684155e-05,-0.011124452444163829,0.018614508753474365
7.2727272727272725,1.620253164556962,0.019580269222731057,0.01749553645821671,-5.374023624752779e-06,-0.011122741704284329,0.018625614389539455
7.373737373737374,1.620253164556962,0.019635014774977082,0.01769326490559005,1.1171270925632486e-05,-0.01119848390417014,0.01873975146009122
7.474747474747475,1.620253164556962,0.01958949092999045,0.017457966026880378,-1.3073838321429128e-05,-0.011114237087061248,0.01861549296494665
7.575757575757575,1.620253164556962,0.019576222148995796,0.017860412264639695,-1.3088564400822645e-05,-0.011230990324090646,0.018777217995646855
7.6767676767676765,1.620253164556962,0.019663380891861867,0.0179218230048923,-4.1879973839384706e-05,-0.01127556116902625,0.018853167311940502
7.777777777777778,1.620253164556962,0.019797244956465315,0.017813320774616212,1.7469438174997667e-05,-0.011283169719324459,0.018883631683717667
7.878787878787879,1.620253164556962,0.019975933858086967,0.01795206541172065,3.489106363734555e-05,-0.011378399780942286,0.019044919714394835
7.979797979797979,1.620253164556962,0.02011244788883437,0.018175562480138484,-2.952317534098264e-05,-0.011486403110691854,0.019217419003916842
8.080808080808081,1.620253164556962,0.020007658616801153,0.018168473442898975,8.629956192316313e-06,-0.011452839617910038,0.01915441045206753
8.181818181818182,1.620253164556962,0.020331172242823884,0.018417997864894686,-1.2990393938334176e-05,-0.011624751032315571,0.01944531381620017
8.282828282828282,1.620253164556962,0.020591675591874362,0.018450168852462978,3.357800511625594e-05,-0.011712553333301201,0.019608909331919753
8.383838383838384,1.620253164556962,0.02045422919887571,0.018658924081363003,-1.8760827433349797e-05,-0.011733945984071613,0.019618309971440595
8.484848484848484,1.620253164556962,0.020675491898089714,0.018583689776115107,-1.8226748202014933e-05,-0.011777754502261446,0.01971303021260882
8.585858585858587,1.620253164556962,0.020783839212557133,0.01858932677722669,1.2477022123642859e-05,-0.011811949796935147,0.019778117470189767
8.686868686868687,1.620253164556962,0.020898099088960023,0.018804947206446095,7.565109670614889e-05,-0.011910913888621836,0.019934545496487814
8.787878787878787,1.620253164556962,0.021139568622109705,0.018835462616996437,9.909360009612113e-05,-0.011992509371731843,0.02008760607012984
8.88888888888889,1.620253164556962,0.02115250698708722,0.01916989742954881,1.0686846733303273e-05,-0.012096721324990808,0.02023419068319755
8.98989898989899,1.620253164556962,0.021357705960420085,0.019151765883281466,-2.5538068518496254e-05,-0.012152841553110465,0.020344677745314323
9.09090909090909,1.620253164556962,0.021310975311599773,0.01934082019037512,3.615740608762126e-05,-0.01219553865059247,0.02039747962025964
9.191919191919192,1.620253164556962,0.021589707852634085,0.019622082988775345,-7.065996489037257e-05,-0.012363537252422828,0.020676594624951923
9.292929292929292,1.620253164556962,0.021878169422002644,0.01968754630568687,-5.684851536252507e-05,-0.012469714718306853,0.020869499238797592
9.393939393939394,1.620253164556962,0.02211748003115856,0.01971199809674928,-2.1790667248460362e-05,-0.012548843438372351,0.021018265678104713
9.494949494949495,1.620253164556962,0.022231269624761955,0.019937427386705897,-0.00011931399797882468,-0.012650609103440355,0.02117873328510001
9.595959595959595,1.620253164556962,0.022453188258636327,0.020171899877238633,7.301985964383177e-06,-0.012787526440762486,0.021403922587089015
9.696969696969697,1.620253164556962,0.02274615719077955,0.020684667818488826,1.1273793099930182e-05,-0.013029247502780512,0.021788685719099858
9.797979797979798,1.620253164556962,0.023047920788514982,0.02060179868070254,1.9945086680654028e-05,-0.013094915840765256,0.021927456096855865
9.8989898989899,1.620253164556962,0.023202615407717883,0.02090484431067225,1.4494946433307066e-05,-0.01323223791551704,0.02214333861511362
10.0,1.620253164556962,0.0233696171359227,0.021151317826848395,-1.3670118010782932e-05,-0.01335628048883133,0.02234322295405661
0.0,1.7215189873417722,0.02360927352858738,0.021044471114248772,-2.7629259118062557e-05,-0.013396123392850847,0.022437138328076305
0.10101010101010101,1.7215189873417722,0.023264346559110416,0.020859043142600037,1.7745602798409626e-06,-0.013237016910513136,0.022159817294678943
0.20202020202020202,1.7215189873417722,0.022877804701403156,0.020604642292617246,7.746685546211684e-05,-0.01304473409820612,0.021830580683769547
0.30303030303030304,1.7215189873417722,0.022657750267774827,0.020380399274018902,4.372997531409768e-05,-0.01291144486253812,0.021609397529529686
0.40404040404040403,1.7215189873417722,0.022510063522002265,0.020288288368533778,-4.09451151872549e-05,-0.012839505567160814,0.021485622501299283
0.5050505050505051,1.7215189873417722,0.022391301532190655,0.0201413427000889,-1.3490334124040647e-05,-0.012759793269683866,0.02135541473196844
0.6060606060606061,1.7215189873417722,0.02208728408730997,0.019814547373132315,-8.516458207622928e-05,-0.012570549438132685,0.02104368380493127
0.7070707070707071,1.7215189873417722,0.021873924060198714,0.019709109342728574,4.17177042940892e-05,-0.012474910020878185,0.020875995902436075
0.8080808080808081,1.7215189873417722,0.02167909301913609,0.019534256557217692,4.049631498775922e-05,-0.012364004872906134,0.020690340941283417
0.9090909090909091,1.7215189873417722,0.021515998514792224,0.01936767432734361,-6.9064332508987585e-06,-0.012265101852640748,0.020526331673558773
1.0101010101010102,1.7215189873417722,0.02126398480907737,0.019136505213471044,4.884468267210016e-05,-0.012120147006764526,0.0202842718133256
1.1111111111111112,1.7215189873417722,0.021080360249649155,0.019200345144870404,0.00010796863802989933,-0.012084211618355866,0.020206920127670634
1.2121212121212122,1.7215189873417722,0.02078847768259386,0.01892216520494011,6.592220582863464e-05,-0.01191319286626019,0.01992132446764425
1.3131313131313131,1.7215189873417722,0.020879306148617577,0.018981750405535746,4.0099174046284095e-05,-0.011958316966245998,0.01999828291587073
1.4141414141414141,1.7215189873417722,0.020842310962068077,0.018822426264985516,-4.672588732810606e-05,-0.011899421168116077,0.01990952900976248
1.5151515151515151,1.7215189873417722,0.020422834943741877,0.018510664128301182,1.6959633013108824e-05,-0.011680049721612918,0.01953708008649751
1.6161616161616161,1.7215189873417722,0.02041079221752283,0.018457691706661623,1.123247999087013e-05,-0.011660545177255335,0.01950771873774869
1.7171717171717171,1.7215189873417722,0.02030399461843501,0.01838818577679385,-1.805410064980126e-05,-0.011607654118568657,0.01941712971641707
1.8181818181818181,1.7215189873417722,0.02015674969312231,0.01808948626664324,4.952738474309985e-05,-0.011473870787929665,0.019206930616677872
1.9191919191919191,1.7215189873417722,0.01999499916495194,0.018108504135698433,1.4371836807103814e-05,-0.011431050990195113,0.019121689470763214
2.0202020202020203,1.7215189873417722,0.020132262239836846,0.018239747557604952,3.7085157380783896e-05,-0.01151160293923254,0.019255989166160323
2.121212121212121,1.7215189873417722,0.01990118932791778,0.017947035323933252,2.1036730619790423e-05,-0.011354467395555309,0.018999668243414623
2.2222222222222223,1.7215189873417722,0.019963711330255814,0.01797871108114199,-7.5118707701238494e-06,-0.011382726723419343,0.019048942054286887
2.323232323232323,1.7215189873417722,0.019974489977314547,0.01783040713340573,7.388031843128268e-06,-0.011341469133216082,0.018993434222600143
2.4242424242424243,1.7215189873417722,0.01978328204361597,0.017701016249691805,2.5807440116360754e-05,-0.011245289487992334,0.018828755291700118
2.525252525252525,1.7215189873417722,0.019432428916850944,0.017672627144152055,6.546898971293532e-05,-0.011131516818300899,0.018615365470432795
2.6262626262626263,1.7215189873417722,0.019759055416828274,0.017681875664908996,-4.211419973005828e-05,-0.01123227932452118,0.018806838056293365
2.727272727272727,1.7215189873417722,0.019660115846321134,0.017666618574544754,-2.365598037513123e-05,-0.011198020326259765,0.018743091473316802
2.8282828282828283,1.7215189873417722,0.019525426195150606,0.017534652333119155,6.214770250790303e-05,-0.011118023558480928,0.01861038225207833
2.929292929292929,1.7215189873417722,0.019406308079218497,0.01735423990268705,9.001351644992497e-05,-0.011028164394571664,0.018466646071573903
3.0303030303030303,1.7215189873417722,0.01940932819399154,0.017389654550921035,3.326165133304705e-05,-0.011039694823473773,0.018482529940347096
3.131313131313131,1.7215189873417722,0.019303837459084063,0.017398191908488528,3.57902234347826e-05,-0.011010608810271778,0.018425178329345936
3.2323232323232323,1.7215189873417722,0.01921718191960974,0.017215081033841485,-6.113917920498574e-05,-0.010929678886035368,0.018298769519906267
3.3333333333333335,1.7215189873417722,0.01936886653783684,0.017074133343587306,-3.4634849071539604e-07,-0.010932899964427244,0.018329550206533575
3.4343434343434343,1.7215189873417722,0.019132326321395537,0.01712052906223076,1.0096861108433558e-05,-0.010875856615087888,0.01820997481781154
3.5353535353535355,1.7215189873417722,0.019080064322616257,0.017328973034883725,6.964788299830084e-05,-0.010922711207249993,0.018267971790301606
3.6363636363636362,1.7215189873417722,0.01906622272548263,0.017270835582673255,-2.400444529995639e-05,-0.010901117492446764,0.01823498674272034
3.7373737373737375,1.7215189873417722,0.018952203931535027,0.017186454353847802,-3.327500911969269e-05,-0.01084159748561485,0.01813401171897548
3.8383838383838382,1.7215189873417722,0.01896616688758227,0.01730002309687855,3.9706837008176374e-05,-0.010879856995338246,0.018190543978794108
3.9393939393939394,1.7215189873417722,0.019136024586160386,0.017329707819955836,-1.7893326877006175e-05,-0.010939719721834867,0.018299875838020393
4.040404040404041,1.7215189873417722,0.018773928471540028,0.017169573359915136,3.273330214884047e-05,-0.010783050549436549,0.01802546842324248
4.141414141414141,1.7215189873417722,0.019001051566862246,0.01721414180594025,-6.568594491208135e-05,-0.010864558011840749,0.018173959022670463
4.242424242424242,1.7215189873417722,0.018872731261239877,0.017126187936870502,5.948419347149281e-05,-0.010799675759433114,0.018063193824840704
4.343434343434343,1.7215189873417722,0.01895994854929283,0.017011265242539025,-9.148943937155146e-05,-0.010791364137549555,0.01806530352193076
4.444444444444445,1.7215189873417722,0.01896903603713924,0.01691863535967961,-1.911011459556751e-05,-0.010766301419045655,0.018031512481335204
4.545454545454545,1.7215189873417722,0.018924809858795594,0.017083718639027204,-2.2955565364041417e-05,-0.010802558549346837,0.01807477039074643
4.646464646464646,1.7215189873417722,0.018921205707531804,0.01720960827586484,4.3789292817398865e-05,-0.010839244195018992,0.01812627530984415
4.747474747474747,1.7215189873417722,0.018991404223949272,0.016869804641228427,-6.362265314771046e-05,-0.01075836265955331,0.018024833076508824
4.848484848484849,1.7215189873417722,0.018791839431266198,0.01706458266019954,6.00888802516116e-05,-0.01075692662743972,0.01799080724386275
4.94949494949495,1.7215189873417722,0.01869423952651001,0.01701767330795175,-2.8475133233598898e-05,-0.010713573850338528,0.01791495932977786
5.05050505050505,1.7215189873417722,0.018983101067654398,0.017014991579222066,3.2312342819899284e-05,-0.010799427794062939,0.0180796540905686
5.151515151515151,1.7215189873417722,0.018767768349204877,0.017065453718190904,1.09094009854499e-05,-0.010749966620218734,0.017977172033029492
5.252525252525253,1.7215189873417722,0.01889719602323061,0.01707240199672543,-3.897875039231617e-06,-0.010790879405986812,0.018054097760313935
5.353535353535354,1.7215189873417722,0.018874629548244284,0.01704088145862663,3.8361837603856494e-05,-0.010774653302061276,0.018027960829085796
5.454545454545454,1.7215189873417722,0.018967771027518746,0.017146842716461642,1.3783892324025422e-05,-0.010834384123194115,0.01812605131824894
5.555555555555555,1.7215189873417722,0.019043008918272073,0.017195421393722436,3.179742064179619e-05,-0.010871529093598353,0.0181898096703306
5.656565656565657,1.7215189873417722,0.01886229636807146,0.017113587843544643,-4.3553558139238584e-05,-0.010792765263484829,0.018051737812936366
5.757575757575758,1.7215189873417722,0.018984084143338447,0.01706215045236123,-5.469889320419051e-05,-0.010813870378709903,0.0181000581455749
5.858585858585858,1.7215189873417722,0.019091580185545434,0.01723708419146747,-5.093342547606196e-05,-0.010898599313103871,0.018235408222464947
5.959595959595959,1.7215189873417722,0.019104184451601412,0.017167553961151494,-1.4954963439940114e-05,-0.010881521523825871,0.01821327334846741
6.0606060606060606,1.7215189873417722,0.01916041164115978,0.01714747185832647,-1.585422305370538e-05,-0.010892365049845875,0.018237469672331662
6.161616161616162,1.7215189873417722,0.019119576474507946,0.017181373548792407,0.0001165590551967419,-0.010890285006990106,0.01822904205175142
6.262626262626262,1.7215189873417722,0.0190294925011502,0.017162892276709932,-1.5535861057268798e-06,-0.010857715433358039,0.018168250700506917
6.363636363636363,1.7215189873417722,0.018968300894620097,0.017152659729314845,-8.09735219707437e-05,-0.01083628818718048,0.01812934179344658
6.4646464646464645,1.7215189873417722,0.019014839833755497,0.01707353833952895,2.2073157521371747e-05,-0.010826513451985334,0.018122381468393216
6.565656565656566,1.7215189873417722,0.01913218603967829,0.017207329916342873,-7.11496341188501e-05,-0.01090185478680635,0.018246481718743518
6.666666666666667,1.7215189873417722,0.019124848393539975,0.017130464134068584,-6.325593139891623e-05,-0.010876593758282567,0.018210082426722687
6.767676767676767,1.7215189873417722,0.019179504684267636,0.017359572628136755,3.582286901476474e-06,-0.010961723193721316,0.018337398826592178
6.8686868686868685,1.7215189873417722,0.01935874109828082,0.01745368455962518,-5.896706719211532e-05,-0.0110437276973718,0.018480287669875698
6.96969696969697,1.7215189873417722,0.019153195615115713,0.017359096638455286,-7.872412010243395e-05,-0.0109536876760713,0.01832265147890292
7.070707070707071,1.7215189873417722,0.01938430305229721,0.01755992008028264,-9.188014402133142e-05,-0.011083266939773954,0.018540240330737107
7.171717171717171,1.7215189873417722,0.019433389686049487,0.01729341312290516,5.132207071678048e-06,-0.011018040842686393,0.018456684830399885
7.2727272727272725,1.7215189873417722,0.019491292209324385,0.017666677283444093,-2.9866001336073384e-05,-0.011147390847830544,0.018646132705236615
7.373737373737374,1.7215189873417722,0.019497552404251245,0.017916322125973192,-3.3558936606125474e-05,-0.011224162359067329,0.018757081258613507
7.474747474747475,1.7215189873417722,0.01971529512214035,0.017811416003909446,2.992812985203206e-05,-0.01125801333781494,0.01883573109374822
7.575757575757575,1.7215189873417722,0.019566158175696836,0.017818050738268545,-3.6416798897787474e-05,-0.011215262674189612,0.018753417216338792
7.6767676767676765,1.7215189873417722,0.01997004472232429,0.01790089140439406,-5.428464223765023e-05,-0.011361280838015506,0.019020300676789264
7.777777777777778,1.7215189873417722,0.01988327596174225,0.01790187467041572,0.0001082242573239447,-0.01133554518964739,0.018971267824035635
7.878787878787879,1.7215189873417722,0.020032957880679627,0.01793855143346797,5.959774710224605e-05,-0.01139145279424428,0.01907247858427346
7.979797979797979,1.7215189873417722,0.02007684681013367,0.018164018796863295,-0.0001283979339058192,-0.01147225968209909,0.019193347595916108
8.080808080808081,1.7215189873417722,0.020238221491985443,0.018097969453723703,-3.898819792265627e-05,-0.011500857283712742,0.019257620657434874
8.181818181818182,1.7215189873417722,0.02018845346396095,0.018376846588429387,4.785536921976784e-05,-0.0115695900157171,0.019346547548475385
8.282828282828282,1.7215189873417722,0.020468262580972497,0.018268030780772146,1.6908718254366514e-05,-0.011620888008523391,0.019461673323406807
8.383838383838384,1.7215189873417722,0.020562348646401624,0.018434067778112184,-6.358127091911314e-05,-0.01169892492735414,0.019585439382697106
8.484848484848484,1.7215189873417722,0.020732023520112403,0.018700659323860596,3.3442729248194304e-05,-0.0118298048531919,0.0197947544741055
8.585858585858587,1.7215189873417722,0.020717723416710153,0.018808792640701493,-3.884127922653882e-05,-0.011857954817223492,0.019832395376625987
8.686868686868687,1.7215189873417722,0.02088278680976466,0.01871069024846175,-6.799173679824235e-06,-0.011878043117467924,0.019885912040439116
8.787878787878787,1.7215189873417722,0.020962960649625065,0.018824261745800208,-5.426047316573506e-05,-0.01193616671862758,0.019979867963365483
8.88888888888889,1.7215189873417722,0.02104932369306785,0.018934899085705198,-3.905029263814582e-05,-0.011995266833631913,0.020075910593217665
8.98989898989899,1.7215189873417722,0.021400713721094318,0.01916105156938828,-4.756945032418246e-05,-0.012168529587144778,0.020373587174162548
9.09090909090909,1.7215189873417722,0.021516918069481975,0.01941542842136876,0.0001784715749523039,-0.01227970394725522,0.020549257837615652
9.191919191919192,1.7215189873417722,0.02167866348278223,0.01935281277499153,-1.634245178593445e-05,-0.012309442877332127,0.020614400266232635
9.292929292929292,1.7215189873417722,0.02195610966575981,0.019749613139833797,-5.079174061158147e-05,-0.012511716841678082,0.02094041638258868
9.393939393939394,1.7215189873417722,0.021936490898749217,0.019641061916959236,-3.743606698718882e-05,-0.012473265844712535,0.020883705958735434
9.494949494949495,1.7215189873417722,0.022227564896271836,0.019960626873877722,-2.6835158983071096e-05,-0.012656457531044865,0.021185308531716827
9.595959595959595,1.7215189873417722,0.02239649192258707,0.020270582126598855,-7.917919256378085e-06,-0.012800122214755778,0.021412837490755957
9.696969696969697,1.7215189873417722,0.022611444873719615,0.020415333058271725,8.911169752347073e-05,-0.012908033379597401,0.021597844980821422
9.797979797979798,1.7215189873417722,0.02305174290259493,0.020613305419197134,4.811354152828025e-05,-0.013099514496537618,0.021934574055474013
9.8989898989899,1.7215189873417722,0.02305785443202284,0.020918129828219355,1.1678136833967477e-05,-0.013192795278072659,0.022065947137750477
10.0,1.7215189873417722,0.02351896731821457,0.02112902057630039,1.8235828124843345e-05,-0.013394396368354489,0.022419758862783527
0.0,1.8227848101265822,0.023520964199683383,0.02117248499961404,2.247831648070311e-05,-0.013408034759789226,0.022439120572597067
0.10101010101010101,1.8227848101265822,0.02317636727560951,0.020823984416521727,3.6707122093368875e-05,-0.01320010550763937,0.02209438974792116
0.20202020202020202,1.8227848101265822,0.022820112995192942,0.020406857061720546,1.3252056484246589e-05,-0.012968091017074046,0.021714306691134694
0.30303030303030304,1.8227848101265822,0.022610253534683593,0.020387020464258276,3.465577281779677e-05,-0.01289918219968256,0.021584764762833622
0.40404040404040403,1.8227848101265822,0.022353282884853085,0.02018265748105874,-8.423552347954416e-05,-0.012760782109773546,0.021351382942471138
0.5050505050505051,1.8227848101265822,0.022267034584810587,0.019760880059270385,-2.681045122879528e-05,-0.01260837439322429,0.021125793869410884
0.6060606060606061,1.8227848101265822,0.02204756230817504,0.019812445187958414,-1.0351659434480266e-05,-0.012558002248840038,0.021019328956235983
0.7070707070707071,1.8227848101265822,0.021714480920210524,0.019628703083891676,4.801070642917688e-05,-0.012402955201230659,0.020750529700947824
0.8080808080808081,1.8227848101265822,0.021732388118337387,0.01951614366698219,-1.7224436012207147e-05,-0.012374559535595873,0.020713402382415105
0.9090909090909091,1.8227848101265822,0.02138509106972201,0.019230253720963104,1.5361620364187074e-05,-0.012184603437205533,0.02039325278258482
1.0101010101010102,1.8227848101265822,0.021294942109342466,0.018990834291858858,-4.645694703392473e-05,-0.012085732920360397,0.02024164282936596
1.1111111111111112,1.8227848101265822,0.02133000157113821,0.018997521699781292,5.605665559315374e-05,-0.012098256981275849,0.020264921838000296
1.2121212121212122,1.8227848101265822,0.020926863526118427,0.018980484849894882,6.460816595600874e-05,-0.011972204512803994,0.020025057520763605
1.3131313131313131,1.8227848101265822,0.020973507458284742,0.018829230628812903,6.873675490865534e-05,-0.011940821426129294,0.019988174163064688
1.4141414141414141,1.8227848101265822,0.020925435682674395,0.018706613248939553,-6.0963634994449335e-05,-0.011889614679484184,0.01990925300125973
1.5151515151515151,1.8227848101265822,0.02067859363297655,0.01858094209907861,-2.8741602070458316e-05,-0.01177786071961655,0.019713710233780095
1.6161616161616161,1.8227848101265822,0.02048006577261055,0.018172791817108878,-5.824861018406342e-05,-0.011595857276915826,0.01942971084431907
1.7171717171717171,1.8227848101265822,0.020420927031142014,0.018378813524371155,7.044501576100667e-05,-0.01163992216665395,0.019480696213827215
1.8181818181818181,1.8227848101265822,0.020220845333121976,0.01816477708488493,3.060821256913755e-05,-0.01151568672540207,0.01927530480105399
1.9191919191919191,1.8227848101265822,0.020138020625578634,0.018029730169723503,1.0554358391594266e-06,-0.011450325238590641,0.019171019013594283
2.0202020202020203,1.8227848101265822,0.020054195226274572,0.01820613281853079,-4.322027771590497e-05,-0.011478098413441608,0.0191971425086765
2.121212121212121,1.8227848101265822,0.019948989700574078,0.017928580249141582,-1.8903752124852604e-05,-0.011363270984914698,0.019019468687190295
2.2222222222222223,1.8227848101265822,0.019740301804295948,0.018035606695359675,2.0874398712791106e-05,-0.011332772549896685,0.01894559611165552
2.323232323232323,1.8227848101265822,0.01986941236471091,0.01775117875311546,-5.0537482010672465e-05,-0.01128617733534791,0.018899737203196834
2.4242424242424243,1.8227848101265822,0.01985949637342239,0.017812055883176477,0.00010915314414926074,-0.011301465676979658,0.018919995111068913
2.525252525252525,1.8227848101265822,0.01961299682961211,0.01774821922631288,-3.296239483286928e-05,-0.011208364816777497,0.018750371262594268
2.6262626262626263,1.8227848101265822,0.019688095845755378,0.017636783930974884,6.696820894843062e-05,-0.011197463933019078,0.01874716051135909
2.727272727272727,1.8227848101265822,0.01952810078161158,0.017648075473032657,4.7720283253792306e-05,-0.011152852876393272,0.018659440593867437
2.8282828282828283,1.8227848101265822,0.01932641597063329,0.017423402489470927,3.284053942212093e-05,-0.011024945538031265,0.01844875659625485
2.929292929292929,1.8227848101265822,0.019364015833264362,0.017552209221277225,1.406455322797256e-05,-0.011074867516362477,0.01852469956311826
3.0303030303030303,1.8227848101265822,0.019356301054109456,0.01738347301020471,9.904309132427381e-06,-0.01102193221929425,0.01844917563817809
3.131313131313131,1.8227848101265822,0.01942104170971306,0.017469471177757566,3.614863299433153e-05,-0.011067153866241188,0.018522631457275687
3.2323232323232323,1.8227848101265822,0.019224063129532395,0.01736697743451636,-3.819118737519966e-05,-0.010977312169214626,0.01836619213526091
3.3333333333333335,1.8227848101265822,0.01914043402698954,0.017187010048537357,-5.766974300068565e-05,-0.01089823322265807,0.018242606025253103
3.4343434343434343,1.8227848101265822,0.01925951029075474,0.017325269697555476,-3.4706074403296264e-06,-0.010975433996493065,0.018368928461886362
3.5353535353535355,1.8227848101265822,0.019097722166833444,0.01755290773194964,5.445912292860782e-05,-0.010995188969634924,0.01837432731044249
3.6363636363636362,1.8227848101265822,0.01915889676330086,0.017144759342740266,-2.3941748170067505e-05,-0.010891096831812337,0.01823549131364487
3.7373737373737375,1.8227848101265822,0.018773897355790225,0.017207635934697884,-3.155296432758415e-05,-0.010794459987146432,0.018041910995836925
3.8383838383838382,1.8227848101265822,0.019055128183705958,0.01728832474732559,4.254248031635481e-06,-0.010903035879309464,0.01823603281474645
3.9393939393939394,1.8227848101265822,0.018982180475007753,0.017178003379007233,4.342928803244109e-05,-0.010848055156204494,0.01814763548354215
4.040404040404041,1.8227848101265822,0.019000234905727737,0.01716735122614435,-3.467815099116082e-06,-0.010850275839561625,0.018153324892866973
4.141414141414141,1.8227848101265822,0.019199431437331722,0.017089763168536557,2.9413926910154897e-05,-0.010886758381760484,0.018236420481448783
4.242424242424242,1.8227848101265822,0.019080038740156888,0.017052434132972135,-4.325161402194748e-05,-0.010839741861938708,0.0181515260080387
4.343434343434343,1.8227848101265822,0.018981462589031314,0.01709594767151191,9.638518145560344e-06,-0.010823223078162967,0.018112469085084026
4.444444444444445,1.8227848101265822,0.01879765491343068,0.01723751712126016,-1.0970280629044529e-06,-0.01081055161040725,0.018068174560557353
4.545454545454545,1.8227848101265822,0.01879260082398103,0.017064690067310047,8.541950538086216e-05,-0.010757187267387322,0.017991594528518853
4.646464646464646,1.8227848101265822,0.01884256138371622,0.01707546134091908,3.927477683730809e-06,-0.01077540681739059,0.01802409823841508
4.747474747474747,1.8227848101265822,0.018905055225928596,0.01696235764700204,8.62177626835297e-05,-0.010760223861879189,0.01801306976807394
4.848484848484849,1.8227848101265822,0.019065847620134177,0.016945676399290937,1.844215024004818e-05,-0.010803457205827535,0.018099166566264684
4.94949494949495,1.8227848101265822,0.018857670408087435,0.01704729352231829,-3.289289138973929e-05,-0.010771489179121716,0.01802090322068351
5.05050505050505,1.8227848101265822,0.018912156963153813,0.016844122851586058,4.25889820503172e-05,-0.010726883944421962,0.017967773980842077
5.151515151515151,1.8227848101265822,0.018927020320577755,0.016878846277556245,-3.545387868669394e-06,-0.010741759979440199,0.017990589793084818
5.252525252525253,1.8227848101265822,0.019136428190868016,0.017003873155370913,-4.9098951535491496e-05,-0.010842090403871678,0.018164482395734087
5.353535353535354,1.8227848101265822,0.018997208635681734,0.017119872285315717,-1.0414263439375178e-05,-0.010835124276299237,0.018131588533921196
5.454545454545454,1.8227848101265822,0.018902900698130064,0.017271319873120996,-2.2073055210075095e-05,-0.010852266171375318,0.018142259014110748
5.555555555555555,1.8227848101265822,0.018929293519504523,0.01711975601097483,-5.82061178622375e-05,-0.010814714859143806,0.01809280178317582
5.656565656565657,1.8227848101265822,0.018825739038155775,0.0170504673336704,-9.444236104178607e-05,-0.010762861911547851,0.018004610415271488
5.757575757575758,1.8227848101265822,0.019083472798375377,0.017039746936379472,7.850495153386806e-05,-0.010836965920426456,0.018148632224849196
5.858585858585858,1.8227848101265822,0.018978541478538485,0.017054171989746243,-7.103646706326944e-05,-0.010809814040485416,0.018093690805302307
5.959595959595959,1.8227848101265822,0.019070376884688926,0.017166398473803836,-2.1321465691636493e-05,-0.010871032607547829,0.018193300587084304
6.0606060606060606,1.8227848101265822,0.019190524587694966,0.017296537022773888,-4.845631530009706e-05,-0.010946118483140657,0.018317310172540933
6.161616161616162,1.8227848101265822,0.01904076663760116,0.01729443720888417,-0.00011507815105291349,-0.010900561153945599,0.01823153143428061
6.262626262626262,1.8227848101265822,0.019113077888718705,0.017172866682500416,1.895717250703213e-05,-0.010885783371365736,0.018220643131435187
6.363636363636363,1.8227848101265822,0.019071696342287798,0.0173695104633311,-4.681024979474798e-05,-0.010932362041685668,0.01828031836527522
6.4646464646464645,1.8227848101265822,0.01927799456726931,0.017163201549403123,5.3974235553636e-05,-0.010932358835001729,0.018312651238667436
6.565656565656566,1.8227848101265822,0.01906365238025631,0.01727262708330801,3.773397130424094e-05,-0.010900883839069295,0.018234346755013307
6.666666666666667,1.8227848101265822,0.01917412296099047,0.01738491809801515,4.141777130958116e-05,-0.010967712317701685,0.018345216205188926
6.767676767676767,1.8227848101265822,0.019356951319937244,0.01737997218018015,-2.6978019436047642e-05,-0.011021077050035218,0.018448140973909635
6.8686868686868685,1.8227848101265822,0.019356943078181404,0.017201913443346557,-1.3748123356485706e-05,-0.010967656956458387,0.018374470852744757
6.96969696969697,1.8227848101265822,0.01943225864647988,0.017286429392796128,3.8119319679219306e-05,-0.011015606411782803,0.01845327367890288
7.070707070707071,1.8227848101265822,0.0195487375633826,0.017452988434857757,-7.505891846985535e-05,-0.011100517799472107,0.018590130622005433
7.171717171717171,1.8227848101265822,0.019447492577267456,0.01743226468387464,4.855346629773123e-06,-0.011063927178342628,0.018522285286381234
7.2727272727272725,1.8227848101265822,0.019468403263268923,0.017549441835967263,-5.679080035897482e-05,-0.011105353529770854,0.018583640635041917
7.373737373737374,1.8227848101265822,0.019528172223647625,0.017689076281834276,4.5188324584938695e-05,-0.01116517455164457,0.018676823283046044
7.474747474747475,1.8227848101265822,0.01957438098003246,0.01750654725892846,2.3922573055111402e-05,-0.011124278471688275,0.018626794647975484
7.575757575757575,1.8227848101265822,0.01963784467157143,0.017830877667338735,-3.5367572713330545e-05,-0.011240616701673048,0.01879970447477764
7.6767676767676765,1.8227848101265822,0.01981634613368856,0.017877588263241827,-1.5359106114467148e-05,-0.011308180319079117,0.018921626960877576
7.777777777777778,1.8227848101265822,0.0199272979851994,0.017926983755421913,4.9250566117402655e-05,-0.011356284522186394,0.019006443148121124
7.878787878787879,1.8227848101265822,0.01998575171566503,0.01787910429844305,1.3841248624792676e-05,-0.011359456804232422,0.019020143992308284
7.979797979797979,1.8227848101265822,0.019975529032601493,0.01818177188710627,3.274567109243848e-05,-0.011447190275912327,0.019141872785309436
8.080808080808081,1.8227848101265822,0.02017968476993253,0.018305770388660516,1.8702640160682085e-05,-0.011545636547577913,0.01931106626751924
8.181818181818182,1.8227848101265822,0.02035300602690818,0.018059208169711585,-5.211053381580904e-06,-0.011523664258985928,0.019308567082884247
8.282828282828282,1.8227848101265822,0.02040073627543626,0.01837562690044212,3.807483037727925e-05,-0.011632908952763513,0.019467453232268103
8.383838383838384,1.8227848101265822,0.020396386398579464,0.018484219704213975,-5.919330808911183e-05,-0.011664181830838031,0.019510975894956987
8.484848484848484,1.8227848101265822,0.020609892277871685,0.0183964526305109,-0.0001002690385711273,-0.011701903472514777,0.019597917841510496
8.585858585858587,1.8227848101265822,0.02064333858031277,0.01859840875029256,0.00013094111926679732,-0.011772524199181598,0.01970193959048682
8.686868686868687,1.8227848101265822,0.020926549793356074,0.018639726508200376,5.0174790634188976e-05,-0.011869882890466935,0.019882210092813376
8.787878787878787,1.8227848101265822,0.02101401732380549,0.01891361039970703,-2.5639867898605542e-05,-0.011978288317053757,0.02004656125250487
8.88888888888889,1.8227848101265822,0.021031722953517563,0.019065719362114375,4.575810100449009e-05,-0.01202923269468958,0.02012104319031044
8.98989898989899,1.8227848101265822,0.021123467907803242,0.019322510097825,3.467768627078281e-05,-0.012133793401688473,0.02028313285981008
9.09090909090909,1.8227848101265822,0.02150123684310721,0.019546925946470905,-9.358455194512778e-05,-0.012314448836873432,0.020594384905006223
9.191919191919192,1.8227848101265822,0.021610919672884397,0.019591207327959038,-8.214102921906107e-05,-0.01236063810025303,0.020675673804295573
9.292929292929292,1.8227848101265822,0.0218293925987759,0.01969764673640707,-2.6002867591369203e-05,-0.012458111800554889,0.020845479911724803
9.393939393939394,1.8227848101265822,0.021964129493717656,0.019876408932006158,9.69583436289908e-07,-0.012552161527717143,0.02099825229910191
9.494949494949495,1.8227848101265822,0.02223088189953224,0.020062927535449405,4.383106004684212e-05,-0.012688142830494494,0.021230222848799052
9.595959595959595,1.8227848101265822,0.022557841926693776,0.020069602892102297,3.099889776311217e-05,-0.012788233445638822,0.021422444908548888
9.696969696969697,1.8227848101265822,0.022483089292291113,0.02025393805951638,7.80824876570023e-05,-0.01282110820554225,0.021455966623665723
9.797979797979798,1.8227848101265822,0.023014065286254225,0.020680964772196286,3.741253310360703e-05,-0.013108509017535153,0.021940843888776162
9.8989898989899,1.8227848101265822,0.023171072854720417,0.020766788933644614,-0.0001616813673171342,-0.01318135853650951,0.022069159093786
10.0,1.8227848101265822,0.02342437620759878,0.021220523302435783,4.766384226583665e-05,-0.013393469853010367,0.02240404660572608
0.0,1.9240506329113924,0.023400772148415582,0.02138568851584375,-7.33522035219264e-05,-0.013435938199277799,0.0224614854335102
0.10101010101010101,1.9240506329113924,0.023071353112272215,0.020857504798806964,-1.0294746052286889e-05,-0.013178657373323754,0.02204795456623152
0.20202020202020202,1.9240506329113924,0.023041202782163973,0.020735342834212776,-5.140000325204513e-05,-0.013132963684913025,0.021979357474261062
0.30303030303030304,1.9240506329113924,0.022685072076145247,0.020403005758775454,1.6453337917101544e-05,-0.012926423350476212,0.02163451628813751
0.40404040404040403,1.9240506329113924,0.02239917621349441,0.02040020189377135,4.285194344887182e-06,-0.012839813432179726,0.021469598748673224
0.5050505050505051,1.9240506329113924,0.02223176952738235,0.020084748040855846,-3.8531357852282394e-05,-0.012694955270471459,0.021239906890569732
0.6060606060606061,1.9240506329113924,0.02202976621009424,0.01992231599898469,3.923266207684432e-05,-0.012585624662723678,0.021055401392965165
0.7070707070707071,1.9240506329113924,0.022038230236447704,0.019770673500552963,8.666816675711638e-05,-0.0125426711211002,0.020997023650953732
0.8080808080808081,1.9240506329113924,0.02159798581582326,0.019605794058440894,0.00011196979559126015,-0.012361133962279247,0.020674914792707486
0.9090909090909091,1.9240506329113924,0.021534035023617594,0.019335869108144325,-1.3894998740138356e-05,-0.012260971239528575,0.020523445012760013
1.0101010101010102,1.9240506329113924,0.02131239526099165,0.019219515517797662,-3.5841690687586326e-05,-0.012159573233636794,0.020346938613460062
1.1111111111111112,1.9240506329113924,0.021171952812679886,0.018984969567539,-3.0375123882060863e-05,-0.012047076714065665,0.020167660833450143
1.2121212121212122,1.9240506329113924,0.021079491902965593,0.01896598252572692,9.139705140296409e-05,-0.012013642328607752,0.020106846028990693
1.3131313131313131,1.9240506329113924,0.020816214297906605,0.01878142278795548,1.8664454318699323e-05,-0.011879291125758626,0.019877111036269886
1.4141414141414141,1.9240506329113924,0.020852506036237114,0.018723199305323103,1.9239842002145307e-05,-0.011872711602468064,0.01987361779346672
1.5151515151515151,1.9240506329113924,0.020475267417120184,0.018499586767739704,6.773801986377873e-05,-0.011692456255457966,0.019562746880794374
1.6161616161616161,1.9240506329113924,0.02040123629305253,0.018394631608266536,-1.8986933089009015e-06,-0.011638760370395719,0.019475618068241437
1.7171717171717171,1.9240506329113924,0.020516019709251824,0.018595222028446438,-3.764908833103708e-05,-0.011733372521309479,0.019626351105737013
1.8181818181818181,1.9240506329113924,0.020190987843920018,0.018299515953472952,-8.14146929335915e-06,-0.01154715113921789,0.019314843228178454
1.9191919191919191,1.9240506329113924,0.020339597028348266,0.018045025812992523,-4.11187161769969e-05,-0.011515386852402236,0.019295042956967205
2.0202020202020203,1.9240506329113924,0.020116876566855325,0.018148715157894266,3.632216364375737e-05,-0.011479677517424878,0.01920867199753315
2.121212121212121,1.9240506329113924,0.020094777249671188,0.01797038231209151,-3.2804592756263134e-05,-0.011419547868528808,0.019121378400304773
2.2222222222222223,1.9240506329113924,0.01979175350491739,0.0177588304634156,5.9525496921443443e-05,-0.011265175190499898,0.018857937347826766
2.323232323232323,1.9240506329113924,0.019845147891615296,0.017928044036170206,6.0123251261849055e-05,-0.011331957578335649,0.018959715633779392
2.4242424242424243,1.9240506329113924,0.019561355897435927,0.017499020485269287,-3.459669845650303e-05,-0.011118112914811564,0.018616159263279395
2.525252525252525,1.9240506329113924,0.0196448388081445,0.017779744654281386,-5.1033346435878436e-05,-0.011227375038727765,0.018782082078232072
2.6262626262626263,1.9240506329113924,0.019540512702764534,0.01763079830884843,-5.749390033094243e-05,-0.011151393303483888,0.01865936129737533
2.727272727272727,1.9240506329113924,0.019510914657649685,0.017462588360619046,-6.884460557785677e-05,-0.011092050905480618,0.018572047021369605
2.8282828282828283,1.9240506329113924,0.019554441031209607,0.017542280371279598,5.664136484858756e-05,-0.011129016420746762,0.01863029528287564
2.929292929292929,1.9240506329113924,0.019444184947868728,0.01735720435838468,-2.3409929265928013e-05,-0.011040416791876022,0.01848928943409218
3.0303030303030303,1.9240506329113924,0.019416414094512856,0.017457525134829614,-4.834538660703245e-05,-0.011062181768802741,0.018515042394464172
3.131313131313131,1.9240506329113924,0.0194141293944641,0.017531832137061543,5.355757030329227e-05,-0.011083788459457693,0.018544996787170722
3.2323232323232323,1.9240506329113924,0.01921495969179186,0.017347943414441826,1.4232826702586982e-05,-0.010968870931870104,0.018352830597592937
3.3333333333333335,1.9240506329113924,0.01911185408540234,0.017483567794330145,-2.7256992038921105e-05,-0.010978626563919744,0.01835202827084832
3.4343434343434343,1.9240506329113924,0.019008889072879443,0.01736407569538241,2.5850180897126138e-05,-0.010911889430478555,0.01824223682800321
3.5353535353535355,1.9240506329113924,0.01924046158225888,0.0171839357292388,3.1737254236385163e-05,-0.010927319193449303,0.01829915778320096
3.6363636363636362,1.9240506329113924,0.019140421532150093,0.01712191740915357,5.848756055473157e-05,-0.0108787016823911,0.018215524640499144
3.7373737373737375,1.9240506329113924,0.01901995726223048,0.017047857396429434,-1.557973774639189e-05,-0.010820344397597974,0.018114619100551493
3.8383838383838382,1.9240506329113924,0.019176776441867067,0.01713977310784079,5.1186838525400896e-05,-0.010894964864912355,0.018243980925596714
3.9393939393939394,1.9240506329113924,0.018894975769152427,0.017161999208594382,-1.632458806665765e-05,-0.010817092493324042,0.018090869698070746
4.040404040404041,1.9240506329113924,0.01880956348340409,0.016987688544320135,-1.0434091839106522e-05,-0.010739175608317268,0.01796804277085197
4.141414141414141,1.9240506329113924,0.0189731605801728,0.017255028340617613,0.0001130554852234075,-0.010868456676237122,0.01817615874003049
4.242424242424242,1.9240506329113924,0.018770134687465634,0.017019216794122924,-3.2699875942738475e-05,-0.010736805444476567,0.01795889508894553
4.343434343434343,1.9240506329113924,0.019100730119547875,0.016973690078227965,-6.593912086995425e-06,-0.010822326059332752,0.01813103149557377
4.444444444444445,1.9240506329113924,0.018782154115527666,0.017048247952118224,-4.5961880995733786e-05,-0.010749120620293765,0.017978197587729325
4.545454545454545,1.9240506329113924,0.01890255179570635,0.016925541417146462,-1.999258235953306e-05,-0.010748427963855842,0.017995713168834568
4.646464646464646,1.9240506329113924,0.0188373738435286,0.01698580538130765,8.728271339662846e-05,-0.010746953767450872,0.017983857388991296
4.747474747474747,1.9240506329113924,0.018931303671124736,0.017165878657683063,1.7695523511690143e-05,-0.010829154698642339,0.01811325830774297
4.848484848484849,1.9240506329113924,0.018983491634855805,0.017043094575279923,2.8689876120259802e-05,-0.010807975863040718,0.018091574098946416
4.94949494949495,1.9240506329113924,0.01883686111050423,0.01694371648612906,-1.0104859961284697e-05,-0.010734173278989987,0.017965264736105588
5.05050505050505,1.9240506329113924,0.018734704309501287,0.016995794720787143,3.43715759224422e-05,-0.010719149709086528,0.01792870713053081
5.151515151515151,1.9240506329113924,0.01889487014636122,0.017203465158652086,1.4962036453423753e-06,-0.01082950059150399,0.018108508988552978
5.252525252525253,1.9240506329113924,0.01877212291526202,0.01718317648751258,1.3373251892048361e-05,-0.01078658982083238,0.01803025203318253
5.353535353535354,1.9240506329113924,0.018872300676343132,0.017031355846352538,1.3574997635455342e-05,-0.0107710969568087,0.018022499803493162
5.454545454545454,1.9240506329113924,0.01875673068883188,0.016808379558399103,4.484191328947961e-05,-0.010669533074169294,0.01786259648571786
5.555555555555555,1.9240506329113924,0.018689113943314368,0.016886573762217697,2.7940598237566178e-05,-0.010672706311659619,0.01785627604764854
5.656565656565657,1.9240506329113924,0.018820040968134503,0.017086427511962918,1.9745398764448255e-05,-0.010771940544029225,0.018015933254537188
5.757575757575758,1.9240506329113924,0.0190005825829142,0.017169954519197124,6.377282912483124e-06,-0.010851161130633396,0.01815462640496263
5.858585858585858,1.9240506329113924,0.01894899903709039,0.01708933790210937,1.8405327809550034e-05,-0.010811501081759928,0.018091025489363973
5.959595959595959,1.9240506329113924,0.019151223093769456,0.017002145825305567,5.528789696976199e-05,-0.010846010675722507,0.01817249545697316
6.0606060606060606,1.9240506329113924,0.019193245905837125,0.017128760457270787,-9.307626773200557e-05,-0.010896601908932373,0.018249509616994213
6.161616161616162,1.9240506329113924,0.019057804661363562,0.017209694145435668,2.915725338135662e-05,-0.01088024964203977,0.0182043141101466
6.262626262626262,1.9240506329113924,0.018950034530388068,0.017156315611352932,-4.496682948736349e-05,-0.010831905042522301,0.018120051513644795
6.363636363636363,1.9240506329113924,0.01904411996165274,0.01703483238806621,1.6746129062499207e-06,-0.010823685704915683,0.018123207124880924
6.4646464646464645,1.9240506329113924,0.019202558839550788,0.017386788659890257,1.4553846402755542e-05,-0.010976804249832313,0.018362148269226473
6.565656565656566,1.9240506329113924,0.01908015532169389,0.017299101249440646,-5.060416333189082e-05,-0.010913776971340362,0.018255119137309563
6.666666666666667,1.9240506329113924,0.019250562533739163,0.017227433374503446,1.7265598989618463e-05,-0.010943398772472782,0.018322983637207642
6.767676767676767,1.9240506329113924,0.019261018832580263,0.017360002732161293,-0.00012518120932570066,-0.010986306469422466,0.0183856523620284
6.8686868686868685,1.9240506329113924,0.019282966252434183,0.01735973228951682,1.1453774400961735e-05,-0.010992809562585299,0.01839691154332726
6.96969696969697,1.9240506329113924,0.019329683295333647,0.017431958150428445,0.00010225209881835294,-0.011028492433728627,0.018454998170307026
7.070707070707071,1.9240506329113924,0.019431367948673138,0.017402349345372627,-5.6773677097910895e-05,-0.011050115188213729,0.018500757810021185
7.171717171717171,1.9240506329113924,0.01945385990154224,0.01750003972875058,-5.406889006143859e-06,-0.011086169889087845,0.018554266951984137
7.2727272727272725,1.9240506329113924,0.019470774970910133,0.017653870327378567,1.1925875658816357e-05,-0.01113739358948661,0.018628905112035785
7.373737373737374,1.9240506329113924,0.019650557348396845,0.017678103506696494,-6.750882668650548e-05,-0.011198598256528003,0.018742700799295575
7.474747474747475,1.9240506329113924,0.01960586596800058,0.01765717916464918,5.781670855263127e-05,-0.011178913539794928,0.018708065016136855
7.575757575757575,1.9240506329113924,0.01960349637522363,0.017645162440122226,-3.328203992436855e-05,-0.011174597644603757,0.01870147782446838
7.6767676767676765,1.9240506329113924,0.01981808833138255,0.017860711242222087,-5.5012316035631084e-05,-0.01130363987208139,0.018915748919712164
7.777777777777778,1.9240506329113924,0.020021166288457994,0.017916041596433327,8.00736086238931e-06,-0.011381162365467396,0.019056017169271702
7.878787878787879,1.9240506329113924,0.02009133294309099,0.018050552919246513,9.230588745127325e-05,-0.011442565758701251,0.01915332902510062
7.979797979797979,1.9240506329113924,0.020049652731614687,0.018039218712033855,3.1150366220405006e-05,-0.011426661433094563,0.01912393334826702
8.080808080808081,1.9240506329113924,0.020090901599959177,0.018303427851074323,-2.9316063486583197e-06,-0.01151829883531005,0.019259477045958085
8.181818181818182,1.9240506329113924,0.020162064290961165,0.018214928553107,-4.743245999495806e-05,-0.011513097853220447,0.019262623072661206
8.282828282828282,1.9240506329113924,0.020353680852731513,0.018391720412411616,-4.7056006114749465e-05,-0.011623620379542938,0.01944723988589148
8.383838383838384,1.9240506329113924,0.02049183447804266,0.01845885375339655,-7.319036637361647e-06,-0.011685206469431763,0.01955476788664783
8.484848484848484,1.9240506329113924,0.020745961881651658,0.018678281386315373,9.733769637405509e-08,-0.011827272980390111,0.01979328715283241
8.585858585858587,1.9240506329113924,0.02076655100948549,0.01849390445283904,-7.158949774245979e-05,-0.011778136638697357,0.019729037171753484
8.686868686868687,1.9240506329113924,0.02078280929292138,0.018759001500238997,1.383665438297459e-05,-0.011862543237948114,0.019848453920792635
8.787878787878787,1.9240506329113924,0.02084668315640274,0.01870375714474978,-8.802348238767355e-06,-0.011865132090345756,0.01986211628619481
8.88888888888889,1.9240506329113924,0.021267733242021438,0.019046503831586587,5.300342968795141e-05,-0.012094271122082407,0.02024890739935811
8.98989898989899,1.9240506329113924,0.02128006665760589,0.019180187490064587,1.695344706695038e-05,-0.012138076244301141,0.02031172132219053
9.09090909090909,1.9240506329113924,0.02151853256444472,0.019448822670851015,-1.3453421491421932e-05,-0.012290206570588722,0.02056196406013072
9.191919191919192,1.9240506329113924,0.021606872999294348,0.019379971424721695,2.073130773739443e-05,-0.012296053327204811,0.020583997699380723
9.292929292929292,1.9240506329113924,0.021877174113839024,0.019718661225176057,-1.5139415776523225e-05,-0.012478750601704523,0.020881773162527106
9.393939393939394,1.9240506329113924,0.021861529961331564,0.019612122731426433,-5.668127111599389e-06,-0.012442095807827399,0.020828128527722676
9.494949494949495,1.9240506329113924,0.022240465998407736,0.020139749473996337,4.694230954347269e-05,-0.012714064641721222,0.021268216522550183
9.595959595959595,1.9240506329113924,0.02248142400481627,0.02027561747837667,-8.541644319022322e-05,-0.012827112444957881,0.021464207971160616
9.696969696969697,1.9240506329113924,0.022576002602264316,0.020638983313098658,2.6825908285338297e-05,-0.012964495774608892,0.021672561998971673
9.797979797979798,1.9240506329113924,0.022913318540787625,0.020768172866282082,2.141128610661468e-05,-0.013104447422120911,0.02191964383126769
9.8989898989899,1.9240506329113924,0.023253199837820617,0.020957820468007527,8.698946462392492e-06,-0.013263306091748443,0.022194715158661494
10.0,1.9240506329113924,0.02349483639233194,0.021003433168873833,8.230544171990063e-06,-0.01334948086836173,0.02235351245839003
0.0,2.0253164556962027,0.02315405618255284,0.021092758221636112,-1.6818938400173533e-05,-0.013274044321256687,0.022195330743706256
0.10101010101010101,2.0253164556962027,0.023253651075552682,0.020849928829453572,-8.472309703661657e-05,-0.013231073971501877,0.022150313419817023
0.20202020202020202,2.0253164556962027,0.023026408866535803,0.020735604965028936,2.9317530904131656e-05,-0.01312860414946942,0.021970818807858304
0.30303030303030304,2.0253164556962027,0.02265234724039,0.020322642081758605,1.0209390343853698e-05,-0.012892496796644582,0.02158201529281419
0.40404040404040403,2.0253164556962027,0.022412172177472583,0.02024772650516518,6.493408196626632e-05,-0.01279796960479133,0.02141244981335648
0.5050505050505051,2.0253164556962027,0.022009899739484026,0.019954510431515197,9.019833444726993e-06,-0.012589323051299766,0.021057579234746722
0.6060606060606061,2.0253164556962027,0.02199445799292487,0.019746548155561705,-1.4947074872292749e-05,-0.012522301844545973,0.020961116210613064
0.7070707070707071,2.0253164556962027,0.02180685443828179,0.019629690490439312,-2.2241995246664744e-05,-0.012430963478616332,0.020803925835485407
0.8080808080808081,2.0253164556962027,0.021822400942293815,0.01947484252170465,4.729726094227986e-06,-0.012389173039199538,0.020748467881886536
0.9090909090909091,2.0253164556962027,0.02130043221183163,0.019200351060006792,-1.6511158073470236e-05,-0.012150234981551527,0.02033191911493642
1.0101010101010102,2.0253164556962027,0.021175871463652123,0.01911702038002505,3.943035824046582e-05,-0.012087867553103152,0.020225308363024625
1.1111111111111112,2.0253164556962027,0.021270260642775023,0.018992024781091254,8.704558992951255e-06,-0.012078685627159884,0.020227602506905185
1.2121212121212122,2.0253164556962027,0.02098868076990128,0.01895439505704853,-3.50920295934983e-05,-0.011982922748084943,0.020049183518341243
1.3131313131313131,2.0253164556962027,0.021044757987355663,0.018839564587643444,-6.728321343390041e-06,-0.011965296772499731,0.0200333993888998
1.4141414141414141,2.0253164556962027,0.020676849105856022,0.018429825741893436,7.399080124298449e-06,-0.011732002454324838,0.019649936492256288
1.5151515151515151,2.0253164556962027,0.020561282639228365,0.018446567840856853,-8.500260482174664e-05,-0.011702355144025565,0.01959027284410529
1.6161616161616161,2.0253164556962027,0.02056613303659289,0.018492782297466658,2.2807504405757532e-05,-0.011717674600217862,0.01961186795745515
1.7171717171717171,2.0253164556962027,0.02046398259315386,0.01833250125932067,4.8867629197777015e-05,-0.011638945155742358,0.019486055616048596
1.8181818181818181,2.0253164556962027,0.02025012076746104,0.018271639056378224,4.687171705222743e-05,-0.01155652794715178,0.019337111425075475
1.9191919191919191,2.0253164556962027,0.02015714460453071,0.018190529484072775,7.184694374397369e-05,-0.011504302226581045,0.01924973231568232
2.0202020202020203,2.0253164556962027,0.019821447858388696,0.018023818969829304,-7.994918948000147e-06,-0.011353580048465399,0.01898657023521307
2.121212121212121,2.0253164556962027,0.020000474965895316,0.018007093815662994,4.48882357889112e-05,-0.011402270634467493,0.01908219175933243
2.2222222222222223,2.0253164556962027,0.020001429915016324,0.018000417857307927,1.4150080110140545e-05,-0.011400554331697276,0.019079799426182358
2.323232323232323,2.0253164556962027,0.01989043536032431,0.018024774907665436,6.994749483739563e-05,-0.011374563080396924,0.01902671771656983
2.4242424242424243,2.0253164556962027,0.01980023361246953,0.01764363255629033,2.781148840991484e-05,-0.011233159850627958,0.018814922134818883
2.525252525252525,2.0253164556962027,0.01979064891051853,0.01771138419505975,5.544909578760696e-06,-0.011250609931673483,0.018837282721208836
2.6262626262626263,2.0253164556962027,0.019641069106660698,0.017592712827034895,-1.2190201449829654e-05,-0.011170134580108678,0.018701227169914413
2.727272727272727,2.0253164556962027,0.019543686730863014,0.017556346918618175,1.4029904392193082e-06,-0.011130010094844356,0.018629687859712134
2.8282828282828283,2.0253164556962027,0.019447580522251217,0.01743803659542877,-1.768663585704838e-05,-0.011065685135303996,0.018524762510884106
2.929292929292929,2.0253164556962027,0.019443648103463468,0.01751388847547501,2.144928056899474e-05,-0.011087260973681543,0.018554224232696048
3.0303030303030303,2.0253164556962027,0.019273226453946142,0.017293635306742904,-1.798798894280899e-05,-0.010970058528206714,0.018363657078374625
3.131313131313131,2.0253164556962027,0.01939245904904584,0.01737142674532753,-1.3031750431928086e-05,-0.011029165738312011,0.018465095798140197
3.2323232323232323,2.0253164556962027,0.019255100742060917,0.017394808677470033,-8.391754188668846e-05,-0.010994972825859284,0.0183962117432
3.3333333333333335,2.0253164556962027,0.019170539962052913,0.017223680436164242,8.747141173015858e-06,-0.010918266119465147,0.018275058020320895
3.4343434343434343,2.0253164556962027,0.019129250345441964,0.017173174854208776,-5.587824968701909e-05,-0.010890727559895222,0.01823034721216181
3.5353535353535355,2.0253164556962027,0.01906046864943247,0.01716582925877875,-3.953677862721104e-05,-0.010867889372463366,0.01818744342450781
3.6363636363636362,2.0253164556962027,0.019190604220741637,0.017050031434778432,6.587756402701108e-05,-0.01087219069665602,0.018215253954539566
3.7373737373737375,2.0253164556962027,0.01901363420236754,0.017203723345000668,-4.383664231536463e-05,-0.010865207264210463,0.01817654656049428
3.8383838383838382,2.0253164556962027,0.019180387114758113,0.017282430741348578,-3.220366067277489e-05,-0.010938845356832008,0.018305438031517022
3.9393939393939394,2.0253164556962027,0.01905786933078758,0.017151964901526272,6.921412118014047e-05,-0.010862950269694156,0.01818039464194143
4.040404040404041,2.0253164556962027,0.018974267721759537,0.017302996020158827,-1.145297167642204e-05,-0.010883179122575509,0.01819629691688079
4.141414141414141,2.0253164556962027,0.018722157047378923,0.017158357138576576,-4.507025526106961e-05,-0.01076415425578665,0.01799147078929191
4.242424242424242,2.0253164556962027,0.019049740294605294,0.017112898882712727,-3.269351796676802e-05,-0.010848791753195405,0.01815904294440353
4.343434343434343,2.0253164556962027,0.018753160894023114,0.017084813134261728,-1.9246949288111902e-05,-0.010751392208485451,0.01797717289046865
4.444444444444445,2.0253164556962027,0.01892920671562705,0.017024073050589592,-5.95333780850986e-06,-0.010785983929864993,0.01805219760929118
4.545454545454545,2.0253164556962027,0.0189383238567494,0.01702594456083264,2.1260577986887077e-05,-0.010789280525274612,0.018058277954115378
4.646464646464646,2.0253164556962027,0.018899596268326872,0.01725066073940731,6.670857657269371e-05,-0.010845077102320253,0.018131819043266828
4.747474747474747,2.0253164556962027,0.01901472106363702,0.017027705973866263,-1.800485800017814e-05,-0.010812728111250983,0.018103211895638974
4.848484848484849,2.0253164556962027,0.01895240719650368,0.017095423714124657,-3.463068263856064e-05,-0.010814349273188502,0.018095618722033916
4.94949494949495,2.0253164556962027,0.018730870996833158,0.016924690259205493,-7.12945581030961e-05,-0.010696668376811595,0.017896695994109067
5.05050505050505,2.0253164556962027,0.018909003101485796,0.01685471828496422,-0.00010487895765263323,-0.010729116415935004,0.017971060214125482
5.151515151515151,2.0253164556962027,0.018968133760642592,0.016986039642171154,1.3920408707505841e-05,-0.010786252020844123,0.01805886902394762
5.252525252525253,2.0253164556962027,0.018835426107780946,0.016861792531669795,-4.766024246997386e-05,-0.010709165591835223,0.017930451507530126
5.353535353535354,2.0253164556962027,0.018946814905509833,0.01705609387037052,3.948848871128252e-06,-0.010800872632764106,0.018075771806090372
5.454545454545454,2.0253164556962027,0.018781064409355924,0.016943739730070344,9.203114677676836e-06,-0.01071744124182788,0.017933139247629938
5.555555555555555,2.0253164556962027,0.018940086493466863,0.01705756448084694,8.138208962974436e-05,-0.01079929529229414,0.018073060197339723
5.656565656565657,2.0253164556962027,0.018843346313989477,0.017053499727748462,2.5295568562613227e-05,-0.010769053812521382,0.01801528438951589
5.757575757575758,2.0253164556962027,0.018905259239796645,0.0171692040461393,7.754920266745529e-05,-0.010822338985780782,0.01810028128801198
5.858585858585858,2.0253164556962027,0.018983891183722245,0.01715105681282226,4.6409374941471055e-05,-0.01084048439896335,0.018137241784291668
5.959595959595959,2.0253164556962027,0.018885199278916503,0.017224388227452314,-9.909514962808645e-06,-0.010832876251910645,0.018112001327213575
6.0606060606060606,2.0253164556962027,0.018866199015963755,0.017125537138702743,3.734014515373409e-05,-0.01079752084639995,0.018059011006816363
6.161616161616162,2.0253164556962027,0.01907022898972566,0.017061522089233252,-7.420189037027469e-05,-0.010839525323687673,0.01814989130349353
6.262626262626262,2.0253164556962027,0.019056448520901468,0.01719740675545989,6.846270745379331e-05,-0.010876156582908407,0.01819867012286932
6.363636363636363,2.0253164556962027,0.0190001647087335,0.017290889652928357,-6.209319499676353e-05,-0.010887316308498556,0.01820612367521343
6.4646464646464645,2.0253164556962027,0.0191146185886479,0.017179007712113156,6.215619341180328e-05,-0.010888087890228318,0.018224389147265863
6.565656565656566,2.0253164556962027,0.019240389041015073,0.017116758527685558,1.6549227067645286e-05,-0.01090714427061019,0.018271390789474026
6.666666666666667,2.0253164556962027,0.0193140574997978,0.01724737682513273,-5.723190981551766e-05,-0.010968430297479159,0.018368391960289585
6.767676767676767,2.0253164556962027,0.01911844985447213,0.017201385119730277,-4.2062734423977354e-05,-0.010895950492260722,0.018235796222186157
6.8686868686868685,2.0253164556962027,0.019162153225567684,0.017308405632543107,-7.340272556177287e-06,-0.010941167657433236,0.018305814994108233
6.96969696969697,2.0253164556962027,0.019393790772955485,0.017478290765356907,-5.994904167814704e-05,-0.011061624461493719,0.018510814031644215
7.070707070707071,2.0253164556962027,0.019351547594772974,0.0176107308529382,-8.73243685102594e-06,-0.011088683534313352,0.01854253402246799
7.171717171717171,2.0253164556962027,0.01939470591328846,0.017488624615476484,4.855197584548107e-05,-0.011064999158629482,0.01851558665130565
7.2727272727272725,2.0253164556962027,0.019607266359418573,0.017613271616688696,5.962954300708216e-06,-0.01116616139283218,0.01869021748813289
7.373737373737374,2.0253164556962027,0.01950347769008154,0.01763172837976775,3.094166792348599e-05,-0.011140561820954787,0.018638303000366733
7.474747474747475,2.0253164556962027,0.01968452369869403,0.01762357549649966,6.966456158159957e-05,-0.011192429758558107,0.018739630638358915
7.575757575757575,2.0253164556962027,0.019697498254632035,0.01779405375478543,5.879333821414307e-05,-0.01124746560282524,0.01881839030606938
7.6767676767676765,2.0253164556962027,0.01970258244164328,0.017715386660196106,5.93652651541027e-05,-0.011225390730551815,0.018788251274028226
7.777777777777778,2.0253164556962027,0.019889804247871273,0.018020311946772984,1.1568144565542029e-05,-0.011373034858393275,0.019024086838444112
7.878787878787879,2.0253164556962027,0.0197246552119594,0.01807366092115742,-8.01483743203117e-06,-0.011339494839935045,0.018953171369161744
7.979797979797979,2.0253164556962027,0.0199545785842741,0.017989146723633345,2.386082119909815e-05,-0.011383117592372234,0.019048109417366472
8.080808080808081,2.0253164556962027,0.020242240510458875,0.018049193735992352,6.51180977129624e-05,-0.011487430273935367,0.019240018084159177
8.181818181818182,2.0253164556962027,0.020152798772580766,0.018097085409834263,-7.118047632661255e-06,-0.011474965254724507,0.019207629475398
8.282828282828282,2.0253164556962027,0.020527231507672914,0.018256616017961927,-1.904054646306499e-05,-0.01163515425769045,0.019491397227411337
8.383838383838384,2.0253164556962027,0.02049166922350082,0.018512615061186614,1.069603738559958e-05,-0.01170128528540623,0.019577318071913118
8.484848484848484,2.0253164556962027,0.02078379094716808,0.018454209961448767,3.116137050461161e-05,-0.011771400272585053,0.01972253286461853
8.585858585858587,2.0253164556962027,0.02077123964539672,0.018634285120526534,-2.0531467225090374e-05,-0.011821657429776975,0.019789518466195918
8.686868686868687,2.0253164556962027,0.020760184076659017,0.018783505629253478,1.4467585843696968e-05,-0.011863106911773749,0.01984582878304207
8.787878787878787,2.0253164556962027,0.0210700973921347,0.01888617968054072,3.2114048929559887e-06,-0.011986883121802626,0.02006746552867916
8.88888888888889,2.0253164556962027,0.02136489092840145,0.018923614976940555,-8.895411620629501e-05,-0.0120865517716026,0.02025548164643217
8.98989898989899,2.0253164556962027,0.021448560459352374,0.019114861291302444,2.8911854293507475e-05,-0.012169026525196445,0.020382220624150547
9.09090909090909,2.0253164556962027,0.021471316107027738,0.019347581474258437,-9.901002548681997e-05,-0.012245669274385853,0.020492869381473672
9.191919191919192,2.0253164556962027,0.021565885390590695,0.01930564664697833,9.103218595834965e-06,-0.012261459611270708,0.02052930322158716
9.292929292929292,2.0253164556962027,0.021806191787399724,0.01950769715149569,2.2032847074256748e-05,-0.012394166681668624,0.020752665355234647
9.393939393939394,2.0253164556962027,0.021945135441322625,0.019888125191159303,2.0929760393070387e-05,-0.012549978189744578,0.020992384484089906
9.494949494949495,2.0253164556962027,0.022278116384890096,0.02011045846925528,-2.1580848560244542e-05,-0.012716572456243613,0.02127729476154936
9.595959595959595,2.0253164556962027,0.022415148046068364,0.020290043810777012,-1.2639766158906168e-05,-0.012811557557053613,0.021431772749394735
9.696969696969697,2.0253164556962027,0.02257506875800599,0.020608850041562096,-2.3992688614426687e-05,-0.012955175639870425,0.021659038522056192
9.797979797979798,2.0253164556962027,0.022841945056734092,0.02076103374998625,-5.863860357876645e-05,-0.013080893642016103,0.021876080534735377
9.8989898989899,2.0253164556962027,0.023075625083120485,0.02087845875452562,-3.613044773042501e-05,-0.013186225151293833,0.02205935045816396
10.0,2.0253164556962027,0.023440031139645906,0.021111054443526928,3.8360030212726515e-06,-0.01336532567495185,0.022366670519834955
0.0,2.1265822784810124,0.023398001010585187,0.021178552665414074,0.00014917110360990307,-0.013372966102799777,0.022372494355333505
0.10101010101010101,2.1265822784810124,0.023440769567086073,0.020890788798826516,-3.156977446821216e-05,-0.013299467509773776,0.022275582106387897
0.20202020202020202,2.1265822784810124,0.02307113716589363,0.020526459496920276,6.940622871319134e-05,-0.01307927899884417,0.02191023958555296
0.30303030303030304,2.1265822784810124,0.022581387478781603,0.02041405622001943,4.9877973102285854e-05,-0.012898633109640309,0.021579677980444946
0.40404040404040403,2.1265822784810124,0.022590304517336148,0.02022028110023336,3.341885603141108e-06,-0.012843175685270852,0.021503473021412662
0.5050505050505051,2.1265822784810124,0.022011219138752126,0.01992631195375449,1.0679502562368578e-05,-0.012581259327751984,0.021046367837862328
0.6060606060606061,2.1265822784810124,0.021963777231227118,0.019940063614361493,3.957014414084161e-05,-0.012571152253676584,0.021025204621937514
0.7070707070707071,2.1265822784810124,0.021912629170217083,0.019556881278250858,-1.9136240208312135e-05,-0.012440853134540382,0.02083490662071331
0.8080808080808081,2.1265822784810124,0.021673295336274562,0.019482494074944134,1.776337058755992e-05,-0.012346736823365609,0.02066519791224208
0.9090909090909091,2.1265822784810124,0.021396698454191267,0.019532524942707876,-5.9535465452360036e-05,-0.012278767019069742,0.02052845153790091
1.0101010101010102,2.1265822784810124,0.021266261424332564,0.019226890698353094,-2.3382787398597425e-05,-0.012147945636805697,0.020323502581751664
1.1111111111111112,2.1265822784810124,0.021099300322810877,0.019036187215301294,5.3108953717909836e-05,-0.012040646261433651,0.020147335516990023
1.2121212121212122,2.1265822784810124,0.021008836780954686,0.018813263293396464,-2.0633934499375777e-06,-0.011946630022305345,0.020001633272314003
1.3131313131313131,2.1265822784810124,0.020833419536862498,0.01885190640695437,-9.0864887665644e-06,-0.01190559778314506,0.019916734602403556
1.4141414141414141,2.1265822784810124,0.020795409752303408,0.018701024780210032,3.8465530452397914e-05,-0.011848930359754031,0.01983144876943883
1.5151515151515151,2.1265822784810124,0.020521277219183676,0.018625271911724597,2.007733574433965e-05,-0.011743964739272481,0.01964205726514716
1.6161616161616161,2.1265822784810124,0.020347674792818835,0.01851246832485807,-1.7949937329323256e-05,-0.011658042935303073,0.01949498998377191
1.7171717171717171,2.1265822784810124,0.02032170216882587,0.018538270895128165,-8.299519583558673e-05,-0.011657991919186211,0.01949180626754242
1.8181818181818181,2.1265822784810124,0.020213793922199755,0.01834565710310125,7.019787770885311e-05,-0.0115678353075903,0.019347869403384052
1.9191919191919191,2.1265822784810124,0.02025598786619016,0.01818912684357167,-2.4440217243341466e-05,-0.01153353441292855,0.019305761810906548
2.0202020202020203,2.1265822784810124,0.020133851886117805,0.018098227880592836,3.256644600695285e-05,-0.011469623930013191,0.019197239029640434
2.121212121212121,2.1265822784810124,0.019955220859927902,0.017775762880728463,1.1939990935746002e-06,-0.011319295122196909,0.01895967604150035
2.2222222222222223,2.1265822784810124,0.01982128249430553,0.017833301190490907,6.233254054168647e-05,-0.01129637510543893,0.018906153136053434
2.323232323232323,2.1265822784810124,0.01967276780696133,0.017800021488578982,3.9741018847555763e-05,-0.011241836788662092,0.018806584126908537
2.4242424242424243,2.1265822784810124,0.01968649307857384,0.017596717109169505,-4.98423710860396e-06,-0.011184963056323003,0.018729252192905242
2.525252525252525,2.1265822784810124,0.01976650731078977,0.017715189059481502,5.363637544870958e-05,-0.011244508911081382,0.01882508834525693
2.6262626262626263,2.1265822784810124,0.01954105912115944,0.017451781694555843,-3.993551334058967e-05,-0.011097852244714585,0.018584836899038865
2.727272727272727,2.1265822784810124,0.019596527175142802,0.017883311167486853,1.8556167785500252e-05,-0.011243951502788896,0.018798588653358213
2.8282828282828283,2.1265822784810124,0.019431219445132743,0.01769668459661398,-0.00010367240165993676,-0.011138371212524015,0.018625493735453844
2.929292929292929,2.1265822784810124,0.01947028436263619,0.017180048079479242,2.671642976067676e-05,-0.01099509973263463,0.018432247421483052
3.0303030303030303,2.1265822784810124,0.019305338815418443,0.017299493514022043,-2.6002962514275008e-05,-0.010981449698832146,0.018384722664719258
3.131313131313131,2.1265822784810124,0.019363995592455236,0.01730303960550787,6.338276853070518e-05,-0.011000110559388931,0.018420520469392465
3.2323232323232323,2.1265822784810124,0.019041057375524317,0.01728529738589464,2.0474604733010877e-05,-0.010897906428425688,0.018226746556841176
3.3333333333333335,2.1265822784810124,0.019209141989559524,0.017430069668072624,-7.468341679377075e-05,-0.010991763497289643,0.01838473590523493
3.4343434343434343,2.1265822784810124,0.019006951939339285,0.01716912768867468,2.7681858037965858e-05,-0.010852823888404188,0.018157992225219813
3.5353535353535355,2.1265822784810124,0.01924804739509613,0.01721981913788219,-1.7388463532041567e-05,-0.010940359959893495,0.018318365424903307
3.6363636363636362,2.1265822784810124,0.01905838187281544,0.01707603287579425,-7.925153213160354e-05,-0.010840324424582907,0.018149107564331208
3.7373737373737375,2.1265822784810124,0.019024985718565472,0.01714893736373518,7.455935744988318e-05,-0.010852176924690194,0.01816024567996389
3.8383838383838382,2.1265822784810124,0.019103924583691586,0.016986369862748724,-1.4413277031832007e-05,-0.010827088333932092,0.01813810877772253
3.9393939393939394,2.1265822784810124,0.019101370418957323,0.017057632280861396,4.658418060356276e-05,-0.010847700809945616,0.01816610933859677
4.040404040404041,2.1265822784810124,0.019067754047097225,0.01699862431085767,-4.3292304626514455e-05,-0.010819913507386468,0.01812215517080549
4.141414141414141,2.1265822784810124,0.0190615624676538,0.01705894881258279,-1.2219718129872577e-05,-0.010836153384070978,0.01814334941072254
4.242424242424242,2.1265822784810124,0.01906365865655247,0.017175473525572724,2.4791005425806933e-05,-0.01087173965463756,0.01819325290944078
4.343434343434343,2.1265822784810124,0.01896128382808381,0.01710389073588143,-0.00011196922399351753,-0.010819552369189573,0.01810522706921698
4.444444444444445,2.1265822784810124,0.018960534610251583,0.016952223634772657,-5.71074166803768e-06,-0.010773827473507271,0.018040416673673926
4.545454545454545,2.1265822784810124,0.01890824391273193,0.017033396555482465,7.960242673216453e-05,-0.010782492140464318,0.018044547070662664
4.646464646464646,2.1265822784810124,0.01887971667470305,0.016865688696208397,4.286658504931325e-06,-0.010723621611273434,0.01795761086371567
4.747474747474747,2.1265822784810124,0.018967202117746548,0.016895742156594094,2.0309449112577174e-05,-0.010758883282302192,0.018021019399725384
4.848484848484849,2.1265822784810124,0.01878830632410081,0.017051651376500453,-1.8228528305407765e-05,-0.010751987310180379,0.017983009109663016
4.94949494949495,2.1265822784810124,0.018855233187872807,0.016879777908862987,-3.0464284338234667e-06,-0.010720503329020739,0.017949222825310907
5.05050505050505,2.1265822784810124,0.018788481966924106,0.016975691813558593,-1.2993732191181448e-05,-0.01072925213414481,0.017950882824153098
5.151515151515151,2.1265822784810124,0.01894605126858834,0.016954949676330863,4.820387429090211e-05,-0.01077030028347576,0.018033324768751878
5.252525252525253,2.1265822784810124,0.01883746604808066,0.01697791152846063,1.200422422635999e-06,-0.010744613272962389,0.017979954930955073
5.353535353535354,2.1265822784810124,0.018810454289428652,0.01698963406323726,5.462404012411485e-05,-0.010740026505799773,0.017969615260044678
5.454545454545454,2.1265822784810124,0.01891840530686582,0.01699129166915755,-7.774031891959361e-05,-0.010772909092807011,0.018032749100691595
5.555555555555555,2.1265822784810124,0.019037558920873658,0.017048082525524616,-0.00010599792714690453,-0.010825692433919482,0.018125826838434732
5.656565656565657,2.1265822784810124,0.018855560662504045,0.016985194175875205,-9.365426871176922e-05,-0.010752226451513774,0.017994164145857774
5.757575757575758,2.1265822784810124,0.01874522427360065,0.017017418219505347,7.988651142191361e-05,-0.010728792747931799,0.01794435232620491
5.858585858585858,2.1265822784810124,0.018887765563390568,0.017112513659823053,-0.00013984634435378708,-0.010800083766964086,0.018067300200313934
5.959595959595959,2.1265822784810124,0.018937879086513162,0.016968568998053806,2.7351736995846844e-05,-0.010771934425370092,0.018034110306121467
6.0606060606060606,2.1265822784810124,0.01909861983564028,0.01712602878581238,4.12333655577899e-06,-0.010867394586435796,0.018192709515903255
6.161616161616162,2.1265822784810124,0.019078816024702204,0.01700723060538616,5.301064937530365e-06,-0.01082581398902651,0.018131998628481045
6.262626262626262,2.1265822784810124,0.01895659188685937,0.017249963327266273,-7.66064131676094e-06,-0.010861966564237692,0.018163514856848948
6.363636363636363,2.1265822784810124,0.018988595301778467,0.017062236003593512,-3.085809938857894e-05,-0.010815249391611595,0.018102530520020355
6.4646464646464645,2.1265822784810124,0.01910208575559877,0.017214279783767335,2.509337513449831e-06,-0.01089490966180983,0.018231634016949782
6.565656565656566,2.1265822784810124,0.019232931538916826,0.0171856001480712,-5.269020967324702e-05,-0.010925559506096407,0.018295610558316452
6.666666666666667,2.1265822784810124,0.019204782209115825,0.01743238550089153,4.188225554802679e-05,-0.010991150313002207,0.018382921949224612
6.767676767676767,2.1265822784810124,0.019337195149864143,0.01736390025067326,-4.421688127760624e-05,-0.01101032862016122,0.018430108134978106
6.8686868686868685,2.1265822784810124,0.01908253570050629,0.0173969985510198,-5.844320071325855e-05,-0.010943860275457825,0.018298364086358085
6.96969696969697,2.1265822784810124,0.01934886783213286,0.017374296066540337,7.288625465936293e-06,-0.011016949169601957,0.018441042576207385
7.070707070707071,2.1265822784810124,0.019409442532199072,0.01751245485746796,1.0733143564411595e-05,-0.011076569216900109,0.018533911999169223
7.171717171717171,2.1265822784810124,0.019529752313373977,0.017479299417931856,-4.638450879067571e-05,-0.011102715519391751,0.01858970682630324
7.2727272727272725,2.1265822784810124,0.019619506783237733,0.017631180626105476,-4.0352846687651376e-06,-0.011175206222802962,0.018704773659364862
7.373737373737374,2.1265822784810124,0.019757177612759417,0.017519657669594745,-7.084896205792444e-05,-0.011183050584706249,0.018739278068144988
7.474747474747475,2.1265822784810124,0.019746825669505544,0.017537230989590584,-4.515793141661083e-05,-0.011185216997728838,0.018740145929077325
7.575757575757575,2.1265822784810124,0.019765276506590247,0.017776463100679197,2.9279526575383336e-05,-0.011262521882180835,0.018849792018207627
7.6767676767676765,2.1265822784810124,0.01972498194248363,0.017844916858903936,-3.0213596033490267e-05,-0.011270969640416269,0.018855451363190785
7.777777777777778,2.1265822784810124,0.020053426386777495,0.018029462068794827,2.3273234201401364e-05,-0.011424866536671697,0.01912199118503436
7.878787878787879,2.1265822784810124,0.02022153605875152,0.018027827403517438,-2.208233282503559e-05,-0.011474809038680686,0.019218849665198347
7.979797979797979,2.1265822784810124,0.02009520606748892,0.018053788144629258,-1.3442531233424962e-05,-0.011444698263635452,0.019156265875838747
8.080808080808081,2.1265822784810124,0.020039525308525617,0.01822331136348185,-3.862162641874874e-06,-0.011478851001602241,0.01919596799113578
8.181818181818182,2.1265822784810124,0.020360139809458326,0.01812043372386605,7.988006160109995e-06,-0.011544172059997313,0.019337813702704414
8.282828282828282,2.1265822784810124,0.02043520507165934,0.018377572429802428,-4.2160862145399526e-07,-0.01164383325043853,0.01948803001702281
8.383838383838384,2.1265822784810124,0.020447679201839288,0.018685109694934768,3.5212625361075974e-05,-0.011739836669032217,0.019625939466604587
8.484848484848484,2.1265822784810124,0.020595436155043816,0.01866696971059731,-5.555656454865507e-06,-0.011778721759692337,0.01970211811724962
8.585858585858587,2.1265822784810124,0.020706279646434605,0.018734451892138376,2.425172214755165e-05,-0.011832219461571895,0.019794207966776226
8.686868686868687,2.1265822784810124,0.020669246222484366,0.018818453351451072,2.8540589091272156e-05,-0.011846309872180633,0.019808864778038723
8.787878787878787,2.1265822784810124,0.021108674819000004,0.019025088043767083,-9.236940915029412e-06,-0.012040128858830124,0.02014785315441529
8.88888888888889,2.1265822784810124,0.021169299491230358,0.018850151735366853,-4.994052708157728e-05,-0.012005835367979162,0.0201104558880046
8.98989898989899,2.1265822784810124,0.02138933995406398,0.019208299087113405,3.605493790719121e-06,-0.012179291712353215,0.020386510671904362
9.09090909090909,2.1265822784810124,0.021458786501284688,0.019377572872867222,5.633738747150141e-05,-0.012250907812245571,0.02049780893321858
9.191919191919192,2.1265822784810124,0.02160269515426036,0.01961191116096026,1.4871786211974898e-05,-0.012364381894566186,0.02067931388176881
9.292929292929292,2.1265822784810124,0.02197251434319273,0.01960513499409293,9.183734912176353e-05,-0.012473294801185697,0.02089028236134117
9.393939393939394,2.1265822784810124,0.021912368760820033,0.019910898663380406,7.968825268591913e-05,-0.01254698022726013,0.02098380058700291
9.494949494949495,2.1265822784810124,0.022239597499712944,0.01997886650450349,4.189918941296998e-06,-0.012665539201264928,0.02119983270829318
9.595959595959595,2.1265822784810124,0.02243968748104756,0.02013564747638388,9.132857760653762e-06,-0.01277260048722943,0.02138098424228785
9.696969696969697,2.1265822784810124,0.02259707283513813,0.0205297088844425,-2.23067077569099e-05,-0.01293803451587419,0.021637624948644393
9.797979797979798,2.1265822784810124,0.02276257181927119,0.020548897861880175,2.375193240557053e-05,-0.012993440904345408,0.021740464765970986
9.8989898989899,2.1265822784810124,0.02325953794532161,0.021026860716784994,-3.626847963003782e-06,-0.013285919598631981,0.022227459409072312
10.0,2.1265822784810124,0.023308208128268188,0.02089177599727676,3.0446533051957043e-05,-0.013259995237663484,0.022198914125053433
0.0,2.2278481012658227,0.02332147553083229,0.0211226116923934,-4.786211874028275e-05,-0.013333226166967705,0.022303639753606355
0.10101010101010101,2.2278481012658227,0.023235599635218443,0.020723561882884132,3.3105070847098454e-05,-0.01318774845543077,0.02208705522319962
0.20202020202020202,2.2278481012658227,0.02286913051019623,0.020678515664830296,-1.5186769441446274e-05,-0.01306429385250796,0.021856329948341673
0.30303030303030304,2.2278481012658227,0.02268972568176083,0.02018141734469885,9.530512821506435e-05,-0.012861342907937905,0.021545989959538034
0.40404040404040403,2.2278481012658227,0.022422747081236385,0.02014543193662865,-3.1307978420569644e-06,-0.012770453705359511,0.021375268859849028
0.5050505050505051,2.2278481012658227,0.022275243716611187,0.020021972027009904,8.161190988744892e-05,-0.012689164723086328,0.02123891525967092
0.6060606060606061,2.2278481012658227,0.021775585213544817,0.019727669907658854,-3.0420123155704673e-05,-0.012450976536361102,0.020827344775334895
0.7070707070707071,2.2278481012658227,0.021789689989728665,0.01950364232983915,4.8887170944340756e-05,-0.012387999695870346,0.02074154053602286
0.8080808080808081,2.2278481012658227,0.021660678268358068,0.019663381905522626,7.588264818616695e-05,-0.012397218052164208,0.020734721035337373
0.9090909090909091,2.2278481012658227,0.021401460827945248,0.019029468462206933,-1.9837202453270416e-05,-0.012129278787045655,0.020319595276418904
1.0101010101010102,2.2278481012658227,0.021431634582188573,0.01921211428063934,-2.7105135283235754e-05,-0.012193124658848373,0.020412630581284088
1.1111111111111112,2.2278481012658227,0.02118387253906477,0.01919849926741948,9.05944281807603e-05,-0.012114711541945275,0.02026486838105193
1.2121212121212122,2.2278481012658227,0.021014589391330003,0.018744975414475087,-0.00014236670801889975,-0.011927869441741526,0.019978236006423625
1.3131313131313131,2.2278481012658227,0.0209358957750277,0.018822284937304035,1.6788103513417014e-05,-0.011927454213699522,0.019963205954702586
1.4141414141414141,2.2278481012658227,0.020720364268250465,0.01881657610563655,-4.468986668819457e-05,-0.011861082112166103,0.019837255659760748
1.5151515151515151,2.2278481012658227,0.020563105672814958,0.018560624823970338,-6.30370977853089e-05,-0.011737119149035588,0.01963888846614939
1.6161616161616161,2.2278481012658227,0.020666908294294208,0.018447371018909735,4.321384386823856e-05,-0.011734283793961183,0.019651515797626275
1.7171717171717171,2.2278481012658227,0.020279643222625456,0.01830778999972031,4.268277359628976e-05,-0.011576229966703731,0.019369282897909387
1.8181818181818181,2.2278481012658227,0.020249792079172074,0.018223591130494394,-2.5358809012240554e-05,-0.011542014962899938,0.019316608160346412
1.9191919191919191,2.2278481012658227,0.020228307182198233,0.017910935584427454,3.294195409986694e-05,-0.011441772829987705,0.019175019519195754
2.0202020202020203,2.2278481012658227,0.019941578307600797,0.01807202926814447,-9.86987224106513e-06,-0.011404082272723578,0.01907564658621098
2.121212121212121,2.2278481012658227,0.019999613723919122,0.018076893857369696,1.813364308604458e-05,-0.011422952274386645,0.019110958443990682
2.2222222222222223,2.2278481012658227,0.019975022373526295,0.017866736096447466,-2.4927217661824298e-05,-0.011352527540992127,0.019008818700621245
2.323232323232323,2.2278481012658227,0.019781506685990873,0.017922262782418544,2.500354118847559e-06,-0.011311130840522826,0.01892052239518721
2.4242424242424243,2.2278481012658227,0.019615966058219456,0.017909681591599544,-7.199357768925701e-05,-0.0112576942949457,0.018821335290596368
2.525252525252525,2.2278481012658227,0.019606705177077403,0.017804893097500874,2.507743889003778e-07,-0.011223479482373485,0.018770770272709944
2.6262626262626263,2.2278481012658227,0.01948913254786175,0.017735702252839356,-3.444880404219735e-05,-0.01116745044021033,0.018674354874929376
2.727272727272727,2.2278481012658227,0.019426202562280514,0.0175574275021133,-5.174141075791576e-05,-0.011095089019318143,0.018562717874138806
2.8282828282828283,2.2278481012658227,0.019357287581848837,0.01742606784391223,-1.5205024021726439e-05,-0.01103500662772832,0.018467585384393925
2.929292929292929,2.2278481012658227,0.019425835181443515,0.01745352355070833,-3.7356492599096346e-05,-0.011063807619645554,0.018518732989134385
3.0303030303030303,2.2278481012658227,0.01941558996905189,0.017300726649822625,-7.1880171667816906e-06,-0.011014894985662356,0.018449298541174913
3.131313131313131,2.2278481012658227,0.019300903470866833,0.017334690514348994,-3.179550633924207e-05,-0.010990678195564747,0.018396853387681537
3.2323232323232323,2.2278481012658227,0.01926781667538712,0.01739881035225136,-1.208643871869614e-06,-0.010999988108291545,0.018404626517682675
3.3333333333333335,2.2278481012658227,0.01905112420838428,0.017338533499483517,-1.7317949328735797e-05,-0.010916897312360339,0.018255202599812812
3.4343434343434343,2.2278481012658227,0.01915203468112849,0.01728767433882385,2.67248297105815e-05,-0.0109319127059857,0.01829131270928188
3.5353535353535355,2.2278481012658227,0.019199419291303137,0.01708483426370161,-7.025974214288723e-05,-0.010885276066501423,0.018234724447720178
3.6363636363636362,2.2278481012658227,0.019063254271176982,0.017365806260564186,1.7108452068788897e-05,-0.010928718159522349,0.018273778706530897
3.7373737373737375,2.2278481012658227,0.019097909116124055,0.017253623398329105,5.53974408125733e-05,-0.010905459754335947,0.01824606061656403
3.8383838383838382,2.2278481012658227,0.01906409151980477,0.017129738501827748,1.753989925276012e-05,-0.010858149006489756,0.01817431008460904
3.9393939393939394,2.2278481012658227,0.019012203259438996,0.017219681736094797,-2.6644559783985605e-05,-0.010869565498660137,0.018182391273945078
4.040404040404041,2.2278481012658227,0.018934942166611318,0.01709097850226474,-0.0001187698567315233,-0.010807776200662816,0.01808477841565151
4.141414141414141,2.2278481012658227,0.018979425924927438,0.017254915819467184,1.230751558713325e-05,-0.010870302523318385,0.0181786354318769
4.242424242424242,2.2278481012658227,0.018924853305458254,0.017197452252098067,-4.6394285108788497e-05,-0.010836691667266895,0.018123179433719702
4.343434343434343,2.2278481012658227,0.018889582127813713,0.01719333756101846,3.2497634323885726e-05,-0.010824875906649652,0.018101253432543696
4.444444444444445,2.2278481012658227,0.019034789858860434,0.01708563119109672,-7.561817138784278e-05,-0.010836126314987144,0.018139398368307805
4.545454545454545,2.2278481012658227,0.01885860263675773,0.016971418570039455,7.74308329549668e-05,-0.010749006362039154,0.017989905205359386
4.646464646464646,2.2278481012658227,0.018766489915736758,0.017074487334420067,5.320076490375365e-05,-0.010752293175047046,0.01798053275287222
4.747474747474747,2.2278481012658227,0.01893724007263831,0.01682973952909658,-1.168153691191995e-05,-0.010730093880520467,0.017976395237600203
4.848484848484849,2.2278481012658227,0.018841691521941015,0.016989138713106745,1.7267273888181779e-06,-0.010749249070514328,0.017987108486638575
4.94949494949495,2.2278481012658227,0.018970436248531772,0.016962753167429366,4.485645142806907e-05,-0.01077995682478834,0.018050696807052857
5.05050505050505,2.2278481012658227,0.018619893437268966,0.017017875479708053,3.586362187002954e-05,-0.010691330675093107,0.017872922203583413
5.151515151515151,2.2278481012658227,0.01893439687201492,0.017123924398951492,2.8042063845206117e-05,-0.010817496381289924,0.01809727466288451
5.252525252525253,2.2278481012658227,0.018856137700665406,0.01699039394192456,-7.404072484617218e-05,-0.01075395949277699,0.01799640668626847
5.353535353535354,2.2278481012658227,0.01890963661909386,0.017062968047545923,-3.3297124104801946e-05,-0.010791781399991934,0.018057354078902774
5.454545454545454,2.2278481012658227,0.01896089405550793,0.016925688113925644,-2.4605338865360864e-05,-0.010765974650830073,0.0180296993496139
5.555555555555555,2.2278481012658227,0.018734277763239937,0.01714294668511595,-3.969213736882394e-06,-0.010763167334506765,0.017991473167685623
5.656565656565657,2.2278481012658227,0.018735139193114304,0.016959170165875892,-4.566162678332373e-05,-0.010708292807697058,0.017913479131525172
5.757575757575758,2.2278481012658227,0.018792395672176887,0.017007504129338276,3.598653090631005e-05,-0.010739969940454548,0.017966676651668886
5.858585858585858,2.2278481012658227,0.018886101320326917,0.016996301173708015,7.2293494762265354e-06,-0.01076472074821048,0.018015697805582865
5.959595959595959,2.2278481012658227,0.019026247715993663,0.017021272785701272,-3.659837485127304e-05,-0.01081425615050848,0.018107316069933727
6.0606060606060606,2.2278481012658227,0.01903898366449522,0.017252253876485647,2.9775396267250755e-05,-0.01088737126229426,0.018211546963071642
6.161616161616162,2.2278481012658227,0.018980956721044506,0.016891425447817427,-9.11007312980572e-06,-0.01076171465065858,0.018027251740181136
6.262626262626262,2.2278481012658227,0.019090810049622903,0.017150273957075853,3.414408723015802e-05,-0.010872325202009628,0.018198401034049273
6.363636363636363,2.2278481012658227,0.019191580207074288,0.017111866792275575,-4.1930255518483305e-05,-0.010891034099804959,0.018241004532739004
6.4646464646464645,2.2278481012658227,0.019170218580291318,0.017157499895916476,-3.996813006485362e-05,-0.010898315542862337,0.01824743412517877
6.565656565656566,2.2278481012658227,0.01909884121630232,0.017203641874296908,-7.939675921579678e-05,-0.01089074492717977,0.01822581456564798
6.666666666666667,2.2278481012658227,0.01926564903859568,0.017189161671790142,-2.9963449717680604e-05,-0.010936443213115746,0.018315972517064155
6.767676767676767,2.2278481012658227,0.01929495726438886,0.017331211573663137,-2.1557865729919206e-06,-0.010987850651415599,0.018391881299475672
6.8686868686868685,2.2278481012658227,0.019227162513349112,0.01745085234004495,-1.22064304223684e-05,-0.011003404456018218,0.01840342627776463
6.96969696969697,2.2278481012658227,0.01938132618915748,0.017288112223845818,-5.4461100302890857e-05,-0.01100083152390099,0.018424358467638183
7.070707070707071,2.2278481012658227,0.019405490280694517,0.01747841809621053,2.7464834301717108e-05,-0.011065172513071514,0.018517374075270775
7.171717171717171,2.2278481012658227,0.019672642669187564,0.01749355174051029,-5.519910958752154e-05,-0.011149858322909358,0.01867891780876356
7.2727272727272725,2.2278481012658227,0.0195454169002774,0.01750948347086125,0.00012791989580259006,-0.011116470111341594,0.018612476180635933
7.373737373737374,2.2278481012658227,0.019588144647145703,0.017650678438020838,6.145375212673476e-05,-0.011171646925549963,0.018695163742707896
7.474747474747475,2.2278481012658227,0.0195470675196734,0.017613484282559187,9.680036696973867e-06,-0.011148165540669776,0.018655588754367177
7.575757575757575,2.2278481012658227,0.019665868448508386,0.017676617805024407,9.783130328364789e-05,-0.011202745876059838,0.01875131652397983
7.6767676767676765,2.2278481012658227,0.019727778124505376,0.017804951367748494,5.406126984083272e-05,-0.011259818847676161,0.018840333348954883
7.777777777777778,2.2278481012658227,0.020036009059700627,0.01777520061592908,2.5495147593575903e-05,-0.01134336290268891,0.019006769462637053
7.878787878787879,2.2278481012658227,0.01997850198218022,0.01792595553347478,5.5432026082893265e-05,-0.011371337254696497,0.019035648221446006
7.979797979797979,2.2278481012658227,0.02014850005994503,0.018104357925068506,-6.3795215658296e-05,-0.01147585739550406,0.01920849768448093
8.080808080808081,2.2278481012658227,0.020226368050360717,0.018027169150201736,-2.0032436268409694e-05,-0.011476061160168735,0.019221390111957507
8.181818181818182,2.2278481012658227,0.02045878815665638,0.01816607230592766,-4.537726790887193e-05,-0.01158745813877521,0.019414390235260738
8.282828282828282,2.2278481012658227,0.02030035741435314,0.018139613612604782,-5.5184166083467073e-05,-0.011531991308087377,0.019311100158911083
8.383838383838384,2.2278481012658227,0.020389321364465873,0.018467985064814486,-2.3690859835311548e-05,-0.011657191928784106,0.019499817932163776
8.484848484848484,2.2278481012658227,0.020419184130838697,0.018470638966865696,1.0764788592296485e-05,-0.011666946929311316,0.019518005891400323
8.585858585858587,2.2278481012658227,0.020703354668340106,0.01874579672283745,3.030215206841607e-05,-0.011834745417353267,0.01979736512429803
8.686868686868687,2.2278481012658227,0.020740510532196374,0.018909016350968498,3.5977414570600334e-05,-0.011894858064949462,0.01988821024727174
8.787878787878787,2.2278481012658227,0.021121394187341155,0.018946110567971273,-2.7790164547443298e-05,-0.012020251426593728,0.020122187886199325
8.88888888888889,2.2278481012658227,0.021167668599433042,0.019071703939111895,2.613413134793697e-05,-0.012071811761563482,0.020201451072767062
8.98989898989899,2.2278481012658227,0.021288671185436727,0.01912070633418146,-5.35899004553903e-06,-0.012122813255885457,0.020291736932413835
9.09090909090909,2.2278481012658227,0.021522074905025147,0.019337406481981886,-6.780082829270056e-05,-0.01225784441610211,0.02051749686851997
9.191919191919192,2.2278481012658227,0.021632738519170178,0.01957380217506344,-2.0521748191036953e-05,-0.012361962208270084,0.020680314953468237
9.292929292929292,2.2278481012658227,0.02197840558778958,0.01965222301524826,2.109053819347774e-05,-0.012489188580911354,0.020912603566366816
9.393939393939394,2.2278481012658227,0.022094695048162683,0.01984942863271394,-6.203457995626443e-05,-0.012583237104262986,0.021062284744627218
9.494949494949495,2.2278481012658227,0.02255411477689031,0.020073400094010558,1.3521888045825249e-05,-0.01278825446127026,0.02142177078453084
9.595959595959595,2.2278481012658227,0.022251994037233425,0.020115210987730708,2.948273320532869e-05,-0.01271016150748924,0.021264336445137196
9.696969696969697,2.2278481012658227,0.022783900976005623,0.020344098837190426,6.564510742622891e-05,-0.012938399943958815,0.021667567830044334
9.797979797979798,2.2278481012658227,0.022860506936651495,0.020680721336670708,5.6438193275732466e-05,-0.01306236848199666,0.0218525237591172
9.8989898989899,2.2278481012658227,0.023242036594015785,0.020990999920181243,-5.518833499504023e-05,-0.013269910954259109,0.02220247489929313
10.0,2.2278481012658227,0.023334028929246926,0.020854196256671644,6.262152553559244e-05,-0.01325646755577557,0.022198507904805723
0.0,2.329113924050633,0.02348414209698379,0.02093762186219378,-1.5955190046538562e-06,-0.013326529187753271,0.022320099908555754
0.10101010101010101,2.329113924050633,0.023251119371467344,0.0209310963198813,-3.894885394875789e-05,-0.013254664707404593,0.022182391149486193
0.20202020202020202,2.329113924050633,0.022922914487174196,0.020797180054517337,5.440891466428078e-05,-0.01311602836250746,0.021937629950207326
0.30303030303030304,2.329113924050633,0.022598422162325018,0.02049505870220777,-2.7212094379892122e-05,-0.012928044259359837,0.021623652516023335
0.40404040404040403,2.329113924050633,0.022451093733618917,0.02033812211396515,-1.1888032335164154e-05,-0.01283676475427522,0.02147273058993243
0.5050505050505051,2.329113924050633,0.022160662694533755,0.019991576608517216,-6.214962881586009e-05,-0.01264567179091529,0.0211599411183235
0.6060606060606061,2.329113924050633,0.02212805750246497,0.019728458539497982,3.089652593176373e-05,-0.012556954812588885,0.021031248274080726
0.7070707070707071,2.329113924050633,0.021666625138093327,0.019692419994968964,-3.4382914917724126e-05,-0.012407713539918689,0.02075016420644761
0.8080808080808081,2.329113924050633,0.02183043472530925,0.01958785113041843,-5.0487875293581524e-05,-0.012425485756718304,0.02080019552235995
0.9090909090909091,2.329113924050633,0.021435981284948752,0.019201616785987616,-3.092748950117026e-05,-0.012191279421280909,0.020410799893885265
1.0101010101010102,2.329113924050633,0.021277818781793793,0.019242391053908067,-6.94176083869832e-05,-0.012156062950710556,0.020336999095785357
1.1111111111111112,2.329113924050633,0.021152095481775133,0.019030747119828675,3.684562938289418e-05,-0.012054852780481141,0.02017534068713785
1.2121212121212122,2.329113924050633,0.02101054376879219,0.018755740506370414,1.0664197864211042e-05,-0.011929885282548779,0.01997880841673948
1.3131313131313131,2.329113924050633,0.021089064265248706,0.018901268805934353,-0.0001262765670779512,-0.011997099921354918,0.020085924395682308
1.4141414141414141,2.329113924050633,0.020906338485680555,0.018698949085042615,1.5719944716418866e-05,-0.01188158627121695,0.01989471960632876
1.5151515151515151,2.329113924050633,0.02058141354940029,0.01836401689128601,-2.3768392722601448e-05,-0.011683629132205888,0.019567216685482478
1.6161616161616161,2.329113924050633,0.02048695564072814,0.018386531261331236,-7.382174168198067e-05,-0.01166204607061781,0.019522094709839774
1.7171717171717171,2.329113924050633,0.020611994027768536,0.018194735430641637,-0.00010692333458928676,-0.01164201883752305,0.019516844390347458
1.8181818181818181,2.329113924050633,0.020354222028626672,0.018175194763684267,-4.055843091479135e-05,-0.01155882503769328,0.019357041210212877
1.9191919191919191,2.329113924050633,0.020035828562669063,0.018081043785126493,-3.4948298355763386e-05,-0.011435061704338665,0.019133571051690623
2.0202020202020203,2.329113924050633,0.020056037802543933,0.01800009588734225,1.3577202282196358e-05,-0.011416840106965854,0.019111202310317904
2.121212121212121,2.329113924050633,0.019934504300470487,0.01798852289014716,4.280479437158535e-05,-0.011376908157185292,0.019036402688358375
2.2222222222222223,2.329113924050633,0.01984783161445539,0.01774071033798462,5.2174164569928494e-06,-0.011276562585732001,0.018882655354774815
2.323232323232323,2.329113924050633,0.019669457173526934,0.017893926423762203,-3.133611357404233e-05,-0.011269015079186743,0.018844608639020193
2.4242424242424243,2.329113924050633,0.019789702040939803,0.017820111285746894,2.300129824027575e-05,-0.01128294399800601,0.018882149443414094
2.525252525252525,2.329113924050633,0.019645660782783073,0.017831392853661046,5.015353421105394e-07,-0.011243116090933234,0.018804283133393333
2.6262626262626263,2.329113924050633,0.01968807930673297,0.017655132795095698,3.728416525843274e-05,-0.011202963630548601,0.0187545380238187
2.727272727272727,2.329113924050633,0.019591304168825655,0.017555733588652526,6.441043103403603e-05,-0.011144111327243455,0.01865732323619616
2.8282828282828283,2.329113924050633,0.019530822921602402,0.017554638052374942,1.039717039603056e-05,-0.011125638292193202,0.01862155090733794
2.929292929292929,2.329113924050633,0.01937938780571026,0.0173878375562179,1.3872154649278549e-05,-0.011030167608578448,0.018464357470838706
3.0303030303030303,2.329113924050633,0.019390562217677855,0.017435947066185287,-8.5296656318805e-06,-0.011047952785158943,0.018490904657886133
3.131313131313131,2.329113924050633,0.019324316388562513,0.01740735343879777,-1.3751049638399645e-05,-0.011019500948208085,0.018440729908648652
3.2323232323232323,2.329113924050633,0.019194505315080445,0.017485225724232088,2.5817115194111242e-05,-0.01100391931179376,0.018399562342326398
3.3333333333333335,2.329113924050633,0.019374112371153215,0.017379054828934672,-1.759051383641127e-06,-0.011025950160026365,0.018457627828075897
3.4343434343434343,2.329113924050633,0.019039884194570842,0.017224669030183347,-2.3769109124371363e-05,-0.010879365967426257,0.018200340783325178
3.5353535353535355,2.329113924050633,0.019298818969481546,0.01721746835657518,5.711078950723017e-05,-0.010954886197817017,0.01834716899761381
3.6363636363636362,2.329113924050633,0.01901199690540208,0.017143404108816672,2.0077109414530504e-06,-0.010846620304265626,0.018149986143163866
3.7373737373737375,2.329113924050633,0.01909930067028324,0.01711594140432802,-1.2098530495831412e-05,-0.010864572622383379,0.01818891597202488
3.8383838383838382,2.329113924050633,0.01914285596722075,0.016983506692359564,6.499397271339451e-05,-0.010837908797874095,0.018160073908728445
3.9393939393939394,2.329113924050633,0.01911073003196129,0.017035798861671485,-4.9418157007584926e-05,-0.010843958668089832,0.01816257742580506
4.040404040404041,2.329113924050633,0.01910231696394049,0.01719808201845212,4.877143846398881e-05,-0.010890119694717782,0.018225160097391915
4.141414141414141,2.329113924050633,0.018980459318516954,0.01718442193670583,-5.84427716221427e-05,-0.010849464376566835,0.018149496368533285
4.242424242424242,2.329113924050633,0.01896020154392056,0.017221193546252005,-3.7482740749109513e-06,-0.01085441852705177,0.018153277704823247
4.343434343434343,2.329113924050633,0.01893044568222518,0.017143820962644704,6.5550111411895e-05,-0.010822279993460965,0.01810373137944422
4.444444444444445,2.329113924050633,0.019048431663978044,0.016969067658791633,-6.9144079228713e-05,-0.010805249796830904,0.01809895640850749
4.545454545454545,2.329113924050633,0.018886030170385152,0.017139510196691358,-7.354476901498804e-06,-0.010807662110122953,0.01807616665567785
4.646464646464646,2.329113924050633,0.019045957770330645,0.017093538866203378,7.13762438303442e-05,-0.010841848990960207,0.01814910583673363
4.747474747474747,2.329113924050633,0.019045711822273576,0.016899797154406253,-1.638787018435458e-05,-0.010783652693003949,0.01806860320850331
4.848484848484849,2.329113924050633,0.01903787752558347,0.016965227678667816,-2.365502337525534e-05,-0.010800931561275387,0.018090867386845462
4.94949494949495,2.329113924050633,0.018949730580070916,0.016916628347817556,-2.923780242195125e-05,-0.010759907678366543,0.018019478870056088
5.05050505050505,2.329113924050633,0.01895805052057249,0.01687715789073549,-1.7992399034549006e-06,-0.010750562523392394,0.01800800199314029
5.151515151515151,2.329113924050633,0.018953912680611005,0.016823042977974594,-1.120877510980061e-05,-0.01073308669757568,0.017983422094424318
5.252525252525253,2.329113924050633,0.018737434708995596,0.017162123312742018,-1.422004785411937e-05,-0.010769867406521283,0.018001565978122126
5.353535353535354,2.329113924050633,0.018867202976539137,0.01700378907962724,-7.5800349466985385e-06,-0.010761297616849914,0.018007954455117343
5.454545454545454,2.329113924050633,0.01887913120911687,0.016928725086766863,-4.261191272020919e-05,-0.01074235688876512,0.01798358010751912
5.555555555555555,2.329113924050633,0.01880595651609217,0.016961532761538882,-5.466505910563174e-06,-0.010730246783289316,0.017954939047353905
5.656565656565657,2.329113924050633,0.018863141820713386,0.017050336570448583,-2.7418663918526432e-05,-0.01077404351734859,0.018025299860031412
5.757575757575758,2.329113924050633,0.018983806661458033,0.017042723672113704,-1.0344978161805656e-05,-0.010807959100071521,0.01809154209577785
5.858585858585858,2.329113924050633,0.01893526864603198,0.0169075615154853,-4.7666693864532244e-05,-0.010752849048455183,0.018007432687460127
5.959595959595959,2.329113924050633,0.01904919062538686,0.017027848394354176,3.60482527583517e-06,-0.01082311170592231,0.01812326111392462
6.0606060606060606,2.329113924050633,0.019044985732357026,0.01712123630831338,-8.804988870994796e-05,-0.010849866612201123,0.018160335112749303
6.161616161616162,2.329113924050633,0.019081610639937328,0.017105614633160182,4.213966134405217e-05,-0.010856167581929251,0.018174503175018314
6.262626262626262,2.329113924050633,0.019202283447494254,0.017066729645433362,-1.2326860060533214e-05,-0.010880703927878283,0.01822858266759372
6.363636363636363,2.329113924050633,0.01918001111027758,0.0172194253177436,-3.8736077469052315e-05,-0.010919830928406354,0.018278872148135845
6.4646464646464645,2.329113924050633,0.019146346538368688,0.017117467355972894,4.245280881616003e-05,-0.010879144168302473,0.01821698985333084
6.565656565656566,2.329113924050633,0.019256562830843923,0.017223344176143553,-5.792434779963174e-05,-0.010943972102096241,0.01832502259407021
6.666666666666667,2.329113924050633,0.019376040783960217,0.017319243795839732,-5.8853267678286e-05,-0.011008585373939986,0.018434185067619107
6.767676767676767,2.329113924050633,0.019278225671685217,0.017347630341506087,4.7243083695586873e-05,-0.010987756803957392,0.01838927477222277
6.8686868686868685,2.329113924050633,0.019132378404161838,0.017322353764226528,-8.215952272281086e-06,-0.010936419650516508,0.01829465000405111
6.96969696969697,2.329113924050633,0.019156519432907193,0.01756057731617836,-4.7520147136176546e-05,-0.011015129024725664,0.018410685656529483
7.070707070707071,2.329113924050633,0.019281280692548954,0.017558506725970396,7.456320578663846e-05,-0.011051936225555805,0.018480668978160298
7.171717171717171,2.329113924050633,0.01961709061132309,0.0175751949819175,0.00017655062332469214,-0.011157685677972175,0.01868253303492653
7.2727272727272725,2.329113924050633,0.01966234991801487,0.017538276984434536,-2.1096495338879325e-06,-0.011160188070734822,0.018691052356837764
7.373737373737374,2.329113924050633,0.019662149923281518,0.017591552330654802,9.441412354330378e-05,-0.011176110676180894,0.018713680978881517
7.474747474747475,2.329113924050633,0.019561698991448755,0.017695558995568312,2.3023889127554164e-05,-0.01117717739610512,0.018698643462544736
7.575757575757575,2.329113924050633,0.019688388048632634,0.017766288893870417,-1.1571694993976775e-05,-0.011236403082750916,0.018801182324517406
7.6767676767676765,2.329113924050633,0.01972595855753321,0.01791215014083743,-1.2733513866316462e-05,-0.011291432609511192,0.01888451002155138
7.777777777777778,2.329113924050633,0.019847483323485907,0.017989451219839067,1.8013116461824646e-05,-0.011351080362997491,0.018986800409750332
7.878787878787879,2.329113924050633,0.019963837521830816,0.018044271448338235,-1.727675276202249e-05,-0.011402432691050715,0.019076648887147267
7.979797979797979,2.329113924050633,0.020159012879215125,0.01795529381877072,4.506285335587443e-05,-0.011434292009395752,0.019152636085466523
8.080808080808081,2.329113924050633,0.02022750262253539,0.018166481433472832,3.410394637045925e-05,-0.011518195216802465,0.019279881960661768
8.181818181818182,2.329113924050633,0.020279261624167,0.018143651041549455,9.529113352813994e-05,-0.011526873799714937,0.019300982359718034
8.282828282828282,2.329113924050633,0.020379555676954583,0.018282128006996988,-2.349317431734677e-05,-0.011598505105185472,0.01941603729472696
8.383838383838384,2.329113924050633,0.02057172055632479,0.018605435263398088,5.608074899909899e-05,-0.011753146745916864,0.019662693815238576
8.484848484848484,2.329113924050633,0.020540556866935497,0.018425859275975263,5.311051018917359e-05,-0.011689924842873227,0.01956930807055813
8.585858585858587,2.329113924050633,0.020810223044059807,0.01872238407904484,2.9822958777581362e-05,-0.011859782136931394,0.019848897409476502
8.686868686868687,2.329113924050633,0.020881426316620454,0.018622415288905424,-7.131835933105616e-05,-0.011851152481657762,0.019848954190114298
8.787878787878787,2.329113924050633,0.02089386401312009,0.018927071012775906,5.0990322768444565e-05,-0.011946280507768798,0.019983386165834303
8.88888888888889,2.329113924050633,0.02100549017380053,0.018940634335045146,-2.1439218576406773e-05,-0.011983837352653702,0.02005298773164392
8.98989898989899,2.329113924050633,0.021330370833914817,0.01908257189482798,1.0567578486135309e-05,-0.012123882818622839,0.020300031282567677
9.09090909090909,2.329113924050633,0.0214420957970656,0.019331737272970023,-4.809811301722051e-06,-0.012232149921010687,0.020468674725878176
9.191919191919192,2.329113924050633,0.021856662332489545,0.01950565963290636,-1.2033624615961607e-05,-0.012408696589618773,0.02078115165929737
9.292929292929292,2.329113924050633,0.021776942507431212,0.019695014634823038,-2.0837589744250197e-05,-0.012441587142676276,0.02081424818886667
9.393939393939394,2.329113924050633,0.021871751007930564,0.019745978866034453,2.989051259153064e-05,-0.012485318962189506,0.02089020633438682
9.494949494949495,2.329113924050633,0.022208379351268258,0.01985931774026308,-1.5049711731038088e-05,-0.012620309127459402,0.021132014384977638
9.595959595959595,2.329113924050633,0.022532710012576562,0.02021253624038557,-2.8956315237668636e-05,-0.012823573875888639,0.02146692664218709
9.696969696969697,2.329113924050633,0.022610168518969947,0.020426409917457106,3.2052681207156814e-06,-0.012910973530928115,0.02160123614338255
9.797979797979798,2.329113924050633,0.022796527274438618,0.020717851338557636,9.287884519267863e-07,-0.013054313583898877,0.021831535890576924
9.8989898989899,2.329113924050633,0.023121834863100404,0.020712221140704583,4.769373884111792e-05,-0.013150216801141496,0.022016303487023443
10.0,2.329113924050633,0.023455577654848164,0.021028472701328765,-3.7405214722362718e-06,-0.013345215106853079,0.022341124744264165
0.0,2.430379746835443,0.023454680325940298,0.020964294771078754,-5.794697383277997e-05,-0.013325692529105716,0.02231418665068539
0.10101010101010101,2.430379746835443,0.023268380694956924,0.02077927302399511,2.4572446976426314e-06,-0.013214296115685609,0.022129069352292297
0.20202020202020202,2.430379746835443,0.022964956858966736,0.020773522256148556,-9.117202107897053e-06,-0.013121543734534587,0.021951439073778025
0.30303030303030304,2.430379746835443,0.022643747180165416,0.02044705043558449,4.5114561113876426e-06,-0.012927239284724973,0.02162922509686437
0.40404040404040403,2.430379746835443,0.022233738764351828,0.020087756793932925,-7.187617333370384e-05,-0.012696448667485425,0.021242567502267246
0.5050505050505051,2.430379746835443,0.022237991979928984,0.019999306338368203,3.4700954925732485e-05,-0.012671189495489156,0.021207539692932882
0.6060606060606061,2.430379746835443,0.02211933655972337,0.01988585757433131,9.438761980318977e-05,-0.012601558240216403,0.02109211065568979
0.7070707070707071,2.430379746835443,0.02195795768768525,0.01971591813753888,3.577426112793166e-05,-0.012502162747567236,0.020927299801351416
0.8080808080808081,2.430379746835443,0.021479140317105228,0.019362403774407306,-1.6285738807736273e-05,-0.01225246322745376,0.020502906057776313
0.9090909090909091,2.430379746835443,0.021344745677328723,0.019302139177116984,4.551508891043097e-05,-0.01219406545633371,0.020400434013731865
1.0101010101010102,2.430379746835443,0.021296403502466043,0.019351721941668443,3.361783034745941e-05,-0.012194437633240346,0.020393804348030672
1.1111111111111112,2.430379746835443,0.02127035797953642,0.01885528482577354,-3.248475697924387e-05,-0.012037692841592987,0.02017162368691867
1.2121212121212122,2.430379746835443,0.021069385522056183,0.01903183716896525,-1.320227435040334e-05,-0.012030366807306429,0.020128120644939875
1.3131313131313131,2.430379746835443,0.020878180328203474,0.018898571113949016,-2.791796917820721e-06,-0.011933025432645747,0.0199621304395587
1.4141414141414141,2.430379746835443,0.020686321945300713,0.018606014389499822,3.180517822483336e-05,-0.01178770090044016,0.0197286775536248
1.5151515151515151,2.430379746835443,0.020728429816276404,0.018538945581767368,2.0285914176739692e-05,-0.011780212619413132,0.019725068013255062
1.6161616161616161,2.430379746835443,0.020396557782825637,0.018506601919443873,-7.358105173779315e-05,-0.011670947910680853,0.019520736438278768
1.7171717171717171,2.430379746835443,0.02045523274956237,0.01845679777201541,-3.416075121201462e-05,-0.011673609156473334,0.01953292956697568
1.8181818181818181,2.430379746835443,0.020227649045305437,0.018294769115125054,-7.766785127486887e-06,-0.011556725448129147,0.01933381428531345
1.9191919191919191,2.430379746835443,0.020182144384836162,0.018220851754493474,1.6467444456186417e-05,-0.011520898841798891,0.019276497172357323
2.0202020202020203,2.430379746835443,0.019955663464749984,0.01811614233645834,1.6542527835854664e-05,-0.011421541740362496,0.019102468392670748
2.121212121212121,2.430379746835443,0.01990911219274963,0.018049575731762225,2.1312411942669407e-05,-0.011387606377353556,0.0190475790267854
2.2222222222222223,2.430379746835443,0.019852086477687957,0.017812702641690083,-8.209680021387056e-05,-0.011299436735813411,0.01891556553023244
2.323232323232323,2.430379746835443,0.01989580880763086,0.01777761181795582,-8.47434821271549e-06,-0.011302026187676003,0.018925827319225152
2.4242424242424243,2.430379746835443,0.019739998853035633,0.017858001756680293,5.083059532867938e-05,-0.011279400182914777,0.01886972703865458
2.525252525252525,2.430379746835443,0.019556324444069996,0.017839081174889627,-3.557947854938321e-05,-0.011218621685687888,0.01875685425074444
2.6262626262626263,2.430379746835443,0.019570138488549896,0.017587252718734497,5.913100380281174e-05,-0.011147217362185319,0.01865816970503078
2.727272727272727,2.430379746835443,0.01957999701931327,0.017637950746331055,3.819239703231941e-05,-0.011165384329693297,0.01868493892802258
2.8282828282828283,2.430379746835443,0.019441925067364186,0.017450045827688117,-4.723815603861371e-05,-0.011067591268515692,0.018526650011256588
2.929292929292929,2.430379746835443,0.0194836172741147,0.01740580164775352,-2.449096143503863e-05,-0.011066825676560466,0.018532325673069512
3.0303030303030303,2.430379746835443,0.019230425652577612,0.01748489188383945,-6.960848631291243e-05,-0.011014595260925119,0.018420188315471635
3.131313131313131,2.430379746835443,0.019378178863579048,0.017346227445534983,1.808271884800589e-05,-0.011017321892734208,0.01844635751489586
3.2323232323232323,2.430379746835443,0.0191373712323847,0.017498950207099892,2.704156277954229e-05,-0.010990896431845375,0.01837309237675394
3.3333333333333335,2.430379746835443,0.019308509277336544,0.017368897039875,-4.46794857927793e-05,-0.011003221895163463,0.018415634499864303
3.4343434343434343,2.430379746835443,0.019233137714951616,0.017430491920100894,-8.637062489689798e-05,-0.010999088890515754,0.018398776129266863
3.5353535353535355,2.430379746835443,0.019083098365474213,0.017180321454650052,4.125098604700554e-05,-0.010879025946037279,0.01820657653633623
3.6363636363636362,2.430379746835443,0.019127906701527853,0.017100530155094894,-1.9879413611980232e-06,-0.010868531056986824,0.018199110221933316
3.7373737373737375,2.430379746835443,0.01898980801472714,0.01726890942595107,5.280665528186807e-05,-0.010877615232203463,0.01819074303605821
3.8383838383838382,2.430379746835443,0.01909005560743716,0.0171334298205691,2.7564637424114514e-05,-0.010867045628401878,0.018190898601177792
3.9393939393939394,2.430379746835443,0.018976762600131147,0.017148875690685524,4.6838246126029796e-05,-0.010837691487245001,0.01813223358714867
4.040404040404041,2.430379746835443,0.019108991373813843,0.01696070659964675,-4.187315160755772e-05,-0.010820909392038178,0.018130702790014292
4.141414141414141,2.430379746835443,0.01891227129545998,0.016923493034785006,-5.115442131209437e-05,-0.010750729299073497,0.01800068834337382
4.242424242424242,2.430379746835443,0.01892753514579632,0.017028945997651156,-2.2555770390166313e-05,-0.010786944343034241,0.018053313848382463
4.343434343434343,2.430379746835443,0.01891327210277881,0.017096152613436423,-5.138104887798366e-05,-0.01080282741486457,0.018073572683995145
4.444444444444445,2.430379746835443,0.018879108914036373,0.017122123634975773,5.60412076273204e-05,-0.010800369764703645,0.01806507282205075
4.545454545454545,2.430379746835443,0.018815192452495095,0.016950463304816817,1.204050673364489e-05,-0.010729696727193575,0.017955608565423022
4.646464646464646,2.430379746835443,0.018957104864956633,0.017038444763803163,8.376186013824131e-05,-0.010798664888627938,0.018074896648517455
4.747474747474747,2.430379746835443,0.01898896916109667,0.016893874963323563,5.146493841782571e-06,-0.01076485323732607,0.018032935696849623
4.848484848484849,2.430379746835443,0.01916304002007425,0.016949006800180137,1.8043213522066432e-05,-0.010833614046076316,0.01815757184713363
4.94949494949495,2.430379746835443,0.01896196331297667,0.017035734542276366,-2.921461543753335e-05,-0.010799309356575911,0.018076058507279537
5.05050505050505,2.430379746835443,0.0188746165858565,0.016831780143916758,3.3465286330462465e-05,-0.010711919018931976,0.017940734020060214
5.151515151515151,2.430379746835443,0.019188981453739807,0.017122338656434262,3.665157129782269e-05,-0.010893396033052222,0.018243773770458237
5.252525252525253,2.430379746835443,0.018828716807170198,0.01715235136877089,0.00011354076998388558,-0.010794320452782325,0.018050087038628666
5.353535353535354,2.430379746835443,0.01877747523722149,0.017018855070838303,8.721988763957516e-05,-0.010738899092417938,0.017963482303677558
5.454545454545454,2.430379746835443,0.01901227414294173,0.016972336531906544,4.566402901058987e-06,-0.010795383202454482,0.018078830797479534
5.555555555555555,2.430379746835443,0.018976227741190135,0.017053346825211767,-0.0001203190581173286,-0.010808872369920572,0.0180927912205108
5.656565656565657,2.430379746835443,0.018911207037723317,0.01698694515000821,-3.572787053335121e-05,-0.010769445656319458,0.01802637650569206
5.757575757575758,2.430379746835443,0.01903144177968184,0.01713591302467825,7.241743514903259e-05,-0.010850206441308028,0.018158466157322924
5.858585858585858,2.430379746835443,0.01881916780828315,0.017037653064755603,6.010261079073359e-05,-0.010757046261911625,0.017994973849323123
5.959595959595959,2.430379746835443,0.018902670547701398,0.01705214496204806,-2.380626632760362e-05,-0.010786444652924837,0.018048745759950958
6.0606060606060606,2.430379746835443,0.018954880620889628,0.01715330499564912,-8.199973863573424e-06,-0.010832455684961625,0.018121388602930336
6.161616161616162,2.430379746835443,0.019017073398473007,0.017357098889392256,4.1831363921628e-05,-0.010912251686359578,0.01824395758940333
6.262626262626262,2.430379746835443,0.01916668178604917,0.017192556926812777,-9.638271848651923e-06,-0.010907771613858586,0.018259838864389352
6.363636363636363,2.430379746835443,0.019074741123619843,0.017009971305122884,-1.3815385192049358e-05,-0.010825413728622817,0.018130765184166966
6.4646464646464645,2.430379746835443,0.019092375423732842,0.017182537719237796,-7.785843218881284e-06,-0.010882473942891192,0.01821271870928975
6.565656565656566,2.430379746835443,0.01909363786832419,0.017283508822689295,3.2136899178598284e-05,-0.010913144007304044,0.01825608731511583
6.666666666666667,2.430379746835443,0.019286931997159737,0.017401120352092642,-1.550630940521143e-05,-0.011006415704775712,0.018416602069946775
6.767676767676767,2.430379746835443,0.01935766194699008,0.01724491714329556,6.207156346757017e-05,-0.010980773727085691,0.018392838976250554
6.8686868686868685,2.430379746835443,0.019327989283500144,0.017365459039444357,-1.850417213842518e-05,-0.01100803449688335,0.01842530755209895
6.96969696969697,2.430379746835443,0.019403780381721834,0.017410496273301948,1.0656584395128107e-05,-0.011044282996507133,0.018487914112987152
7.070707070707071,2.430379746835443,0.01930343671592767,0.017480796143734118,2.4842341301625725e-05,-0.011035269857898536,0.01845977551829312
7.171717171717171,2.430379746835443,0.019512532901339828,0.017719761971411622,1.300136536088054e-05,-0.011169688461825436,0.018680791556697458
7.2727272727272725,2.430379746835443,0.01947177148622845,0.017817770885725417,2.1274309518922526e-05,-0.011186862711586159,0.018699749700357503
7.373737373737374,2.430379746835443,0.01960624437871362,0.017461595194961606,5.107000797119635e-05,-0.011120351872102566,0.018626960224177733
7.474747474747475,2.430379746835443,0.0195644809126801,0.017651182910630274,8.141252234646127e-06,-0.011164699146993112,0.01868146512524815
7.575757575757575,2.430379746835443,0.01968471459223678,0.017601911624487748,3.830189058807043e-05,-0.01118598786501736,0.018730485202277814
7.6767676767676765,2.430379746835443,0.01999899357520458,0.01791308165901153,-8.997465598098115e-05,-0.011373622570264832,0.019042555496806605
7.777777777777778,2.430379746835443,0.01994989767677855,0.01788636143475189,2.978708353720638e-05,-0.011350877733459133,0.01900241890040246
7.878787878787879,2.430379746835443,0.020063647596710227,0.017927254113370785,-0.00011500934220553779,-0.011397270513024305,0.01908638172806423
7.979797979797979,2.430379746835443,0.01997955350751323,0.01792945564074094,8.2195541798261e-05,-0.01137270274447625,0.01903800640611793
8.080808080808081,2.430379746835443,0.02012637885661665,0.018130128507736314,-8.916933357178386e-06,-0.011476952209305887,0.019206225268291355
8.181818181818182,2.430379746835443,0.02035726809792801,0.018149859794894047,6.171135844585171e-05,-0.011552138367846616,0.01934853064385122
8.282828282828282,2.430379746835443,0.020292249268947612,0.0183218059629876,-3.7671046856548923e-06,-0.011584216569580565,0.019382294576583827
8.383838383838384,2.430379746835443,0.020543119715111822,0.01842891944919718,-4.377185655712504e-05,-0.0116916117492927,0.019571997577040603
8.484848484848484,2.430379746835443,0.020620721789621845,0.018442697563800303,4.829600216634386e-05,-0.011719025806026644,0.019622755223286152
8.585858585858587,2.430379746835443,0.020595182860635688,0.018702852766791674,-4.063804266175115e-05,-0.011789410688228209,0.01971736646419147
8.686868686868687,2.430379746835443,0.021036582432179967,0.01870814488326827,-6.102535403179383e-06,-0.011923418194634472,0.01997441276063043
8.787878787878787,2.430379746835443,0.020989565516545485,0.01888281848424137,7.038153560017324e-05,-0.011961715200236056,0.020019875110794342
8.88888888888889,2.430379746835443,0.02105888264686784,0.01902457718830502,3.9885978129239607e-05,-0.012025037950551858,0.02011913292831694
8.98989898989899,2.430379746835443,0.02133196503312312,0.019276293036645742,-4.435442504671457e-05,-0.012182477420930659,0.02038217108965889
9.09090909090909,2.430379746835443,0.02131250601531656,0.019277750670139215,0.00012334360725834334,-0.012177077005636732,0.020372605316213172
9.191919191919192,2.430379746835443,0.02160977499242562,0.019507313315448294,-1.6764667339318094e-05,-0.012335126492362175,0.020639036792422197
9.292929292929292,2.430379746835443,0.021862508252559705,0.019680215760588298,-9.617353105242089e-06,-0.012462817203944399,0.020857170409213574
9.393939393939394,2.430379746835443,0.021975033109720033,0.019835821333347135,0.00010927274302550615,-0.01254325633292015,0.02098820809836018
9.494949494949495,2.430379746835443,0.022300718309543912,0.019987157160030074,2.5598128650815805e-05,-0.012686362640872195,0.02123870270566273
9.595959595959595,2.430379746835443,0.022429744651772106,0.02003096306698137,-4.3039321316086896e-05,-0.012738212315626041,0.02133187982721024
9.696969696969697,2.430379746835443,0.022573146448629653,0.02045226605114148,-2.4754939545671566e-05,-0.01290762374993134,0.02159101592932344
9.797979797979798,2.430379746835443,0.02272989073195977,0.02066466796036162,-1.811075461018213e-05,-0.013018367607696419,0.021770892812327997
9.8989898989899,2.430379746835443,0.023382900752463655,0.02080997893714844,-4.9183701696371716e-05,-0.013257863906883627,0.022208666234726112
10.0,2.430379746835443,0.0234967823180607,0.02089205453024604,1.9247215125880967e-06,-0.013316651054492023,0.022308757819217942
0.0,2.5316455696202533,0.0339712764160542,0.03063436110942442,4.511801369632446e-05,-0.019381691257643587,0.03243192038326712
0.10101010101010101,2.5316455696202533,0.03349825735497578,0.030241889620137834,5.528547273159425e-06,-0.019122044092534082,0.03199460304356262
0.20202020202020202,2.5316455696202533,0.0330489484651668,0.029780883051690007,1.3579683804487426e-05,-0.01884894945505704,0.03154215709162362
0.30303030303030304,2.5316455696202533,0.032817084653926125,0.02959115109257978,7.191695402003655e-05,-0.01872247072395177,0.03132917927267417
0.40404040404040403,2.5316455696202533,0.032544539731455505,0.029140424340730584,1.1412049280417388e-05,-0.018505489221655826,0.030983061340777097
0.5050505050505051,2.5316455696202533,0.03214001988191338,0.029115468997278633,-5.288431999277038e-05,-0.018376646663757604,0.030739682020987404
0.6060606060606061,2.5316455696202533,0.031771680286100085,0.028744204421575836,-9.179564862160538e-06,-0.018154765412302775,0.03037132752884078
0.7070707070707071,2.5316455696202533,0.031502616584908064,0.028362957784719575,-4.4031662351834904e-05,-0.01795967231088829,0.030056125133646614
0.8080808080808081,2.5316455696202533,0.031315032835026214,0.028277797978794716,-7.229086419964464e-05,-0.017877849244146277,0.029912549969657257
0.9090909090909091,2.5316455696202533,0.030990815291864714,0.027983843855375265,-2.667992180838896e-05,-0.017692397744171993,0.02960213081440025
1.0101010101010102,2.5316455696202533,0.030930254169121263,0.027733905412394743,2.7387881585374208e-05,-0.017599247874454802,0.02946244455523909
1.1111111111111112,2.5316455696202533,0.030576780333577958,0.02761070210846187,-2.3607729656018903e-05,-0.017456244732611946,0.029206945496551034
1.2121212121212122,2.5316455696202533,0.030253399326647543,0.027458949982362493,1.256181612818052e-05,-0.01731370479270301,0.02895748606910314
1.3131313131313131,2.5316455696202533,0.03014881684129866,0.0270837704127276,-4.3853187160684576e-05,-0.017169776176207876,0.028739239942289305
1.4141414141414141,2.5316455696202533,0.02986948998745575,0.027077764843196857,3.690669428333975e-05,-0.01708417644919578,0.028576158619728544
1.5151515151515151,2.5316455696202533,0.029706461409872202,0.02672415922215783,8.795898133190898e-05,-0.016929186189609008,0.02833368209976156
1.6161616161616161,2.5316455696202533,0.029426340357064408,0.02663774825259178,-1.3534949515056941e-05,-0.016819226582896855,0.028135888859893262
1.7171717171717171,2.5316455696202533,0.029270319653128138,0.026403087274773307,-2.855673840697804e-05,-0.016702022078370432,0.02794727665328889
1.8181818181818181,2.5316455696202533,0.02940178808949479,0.026397369847460574,-2.2212283914095677e-05,-0.01673974738108661,0.02802066886255204
1.9191919191919191,2.5316455696202533,0.029052184853874487,0.026172346944870743,1.5485352125651742e-05,-0.01656735953962357,0.02772468299679274
2.0202020202020203,2.5316455696202533,0.029028069528729716,0.026157716376937104,-0.0001066155190707197,-0.016555735771700046,0.027705252886866927
2.121212121212121,2.5316455696202533,0.02878697908668226,0.02585710585833835,4.9454991995053116e-05,-0.016393225483506184,0.027439742347714954
2.2222222222222223,2.5316455696202533,0.028691330393659748,0.025971335334889715,6.121745663236837e-06,-0.016398799718564838,0.02743265660494612
2.323232323232323,2.5316455696202533,0.028714801559335045,0.025711533952911658,0.0001032150133212523,-0.01632790065367401,0.027337760910079677
2.4242424242424243,2.5316455696202533,0.02859143434986514,0.025734354789879458,-4.322612941865926e-07,-0.016297736741923377,0.027275355537254017
2.525252525252525,2.5316455696202533,0.02830647918011836,0.02541521727086309,3.0889963175664045e-05,-0.016116508935294434,0.026977353030519065
2.6262626262626263,2.5316455696202533,0.028279132560415168,0.025309679665670992,2.027860742551468e-05,-0.01607664366782585,0.026917553203941402
2.727272727272727,2.5316455696202533,0.02829972257480964,0.02545332394099808,-2.8424422218516623e-05,-0.016125913954742315,0.02698937596838626
2.8282828282828283,2.5316455696202533,0.028041807165914256,0.025326050989686107,0.00015145531090365194,-0.01601035744668011,0.026788661516940593
2.929292929292929,2.5316455696202533,0.02797619758591762,0.02523969101209371,7.883754429751907e-05,-0.0159647665794034,0.0267136238100636
3.0303030303030303,2.5316455696202533,0.02808643351840751,0.025283576278991974,-0.00011623555954354602,-0.016011002939219844,0.02679593299528763
3.131313131313131,2.5316455696202533,0.027730779762375413,0.025237296021371394,4.9067745918856063e-05,-0.015890422735124043,0.026572063936853744
3.2323232323232323,2.5316455696202533,0.02785573363267507,0.025062477729339307,6.2240574203772595e-06,-0.015875463408604313,0.02656945800278055
3.3333333333333335,2.5316455696202533,0.027761795787571538,0.02490809032917932,3.271840284101271e-05,-0.015800965835025257,0.026450711965880478
3.4343434343434343,2.5316455696202533,0.027711514517356785,0.02485437594682881,-8.72944399141355e-05,-0.015769767139255677,0.02639959283093791
3.5353535353535355,2.5316455696202533,0.027744978183175992,0.02486619490343808,-8.415724133638446e-05,-0.01578335192598422,0.026423865644337474
3.6363636363636362,2.5316455696202533,0.027667996010696534,0.024959863865869937,1.5588181573977103e-07,-0.01578835796296994,0.026418239791007245
3.7373737373737375,2.5316455696202533,0.02747175860528896,0.02483754313532411,-6.109418522087136e-05,-0.015692790522183923,0.026254166869331075
3.8383838383838382,2.5316455696202533,0.02742821095737002,0.02468748973062102,-2.7507060672136175e-05,-0.015634710206397312,0.02616576960643987
3.9393939393939394,2.5316455696202533,0.027331361479664345,0.02482048769389827,-4.7767346380259895e-05,-0.015645554752068785,0.026166563656500295
4.040404040404041,2.5316455696202533,0.027292859640086035,0.024648110559885857,3.8222304347046054e-05,-0.015582291059991565,0.026071373236466765
4.141414141414141,2.5316455696202533,0.027158832052579726,0.024602360472287806,1.791817578391282e-05,-0.01552835775746026,0.025975139774172554
4.242424242424242,2.5316455696202533,0.027296118270604103,0.02443849889149576,-5.971852595597225e-05,-0.015520385148629957,0.02598562763377437
4.343434343434343,2.5316455696202533,0.027321838029432242,0.024807688098904736,1.10400540718922e-05,-0.01563885783850109,0.026155552979138144
4.444444444444445,2.5316455696202533,0.027262181895965312,0.02468481333131909,-4.733720907217506e-05,-0.01558409856818532,0.026069357918032526
4.545454545454545,2.5316455696202533,0.027385630902437064,0.024491223944574467,7.361213722513211e-05,-0.015563056454103458,0.02605957534521637
4.646464646464646,2.5316455696202533,0.027345910069880266,0.024735910887863487,7.583766501381015e-06,-0.015624546287323125,0.026138826731641158
4.747474747474747,2.5316455696202533,0.02726552810811811,0.024593999791861283,1.7350667974519594e-05,-0.015557858369993818,0.026032793920316048
4.848484848484849,2.5316455696202533,0.02713647654264223,0.024572611161936233,-4.85863253260101e-06,-0.015512726311373539,0.025949712192944726
4.94949494949495,2.5316455696202533,0.027204705044423943,0.024420589386854825,1.7421978275580926e-05,-0.015487588329383628,0.025925029254584807
5.05050505050505,2.5316455696202533,0.02715365720356252,0.024529167071860692,4.295461005538263e-05,-0.015504847282626964,0.025941281346633472
5.151515151515151,2.5316455696202533,0.02726121647463755,0.02447608477837215,6.9775613313937334e-06,-0.015521190375902908,0.025980857380375515
5.252525252525253,2.5316455696202533,0.027273028457725272,0.024464220743586795,-0.00013166743541520134,-0.015521174760393618,0.025983741036493684
5.353535353535354,2.5316455696202533,0.027274466745343805,0.02441315237178041,1.5060609533472383e-05,-0.015506285735137265,0.025962347985561223
5.454545454545454,2.5316455696202533,0.02723176137946227,0.024618210586010554,9.384422418345261e-05,-0.015554991589641846,0.026024110056499173
5.555555555555555,2.5316455696202533,0.02751253836347922,0.024548389562887227,4.544023097070724e-05,-0.015618278377909934,0.026156851533898164
5.656565656565657,2.5316455696202533,0.027426045951400344,0.024527352872782786,1.7799317982617874e-06,-0.015586019647254938,0.026097715187802337
5.757575757575758,2.5316455696202533,0.02745284527655734,0.024552589377517507,6.215440917695531e-05,-0.015601630396222452,0.026123964306963236
5.858585858585858,2.5316455696202533,0.02731305432429419,0.02476727773267821,6.611695379860425e-05,-0.015624099617091719,0.026133581748139317
5.959595959595959,2.5316455696202533,0.027577165305791494,0.02463125357562187,1.356397564507602e-05,-0.01566252566442401,0.026228593164904005
6.0606060606060606,2.5316455696202533,0.027555364428837735,0.024700821468639222,5.6843689440547734e-05,-0.015676855769243086,0.026244966115175673
6.161616161616162,2.5316455696202533,0.02753597032945371,0.024711817005229033,6.363289990364253e-05,-0.01567433620040482,0.02623836597960048
6.262626262626262,2.5316455696202533,0.027617802865668867,0.024875875887821204,-4.6016976911069754e-05,-0.01574810362604702,0.02635415626839593
6.363636363636363,2.5316455696202533,0.027685652124434332,0.02482143416318819,3.661827734769114e-05,-0.015752125886286755,0.026370539598116128
6.4646464646464645,2.5316455696202533,0.02756750654583813,0.024872463530639925,5.365952762259321e-05,-0.015731991022943415,0.026323823735933935
6.565656565656566,2.5316455696202533,0.027944759262775624,0.024856583129711146,-6.1949465070805876e-06,-0.01584040271774603,0.026535790521781403
6.666666666666667,2.5316455696202533,0.027898394825654114,0.02509477718795016,1.1820717374316843e-05,-0.015897951604081282,0.026607605925708048
6.767676767676767,2.5316455696202533,0.02783184844468756,0.02504984399155308,4.0710452206783664e-05,-0.015864507730872193,0.026550479888996156
6.8686868686868685,2.5316455696202533,0.027834403671191364,0.025191132074155558,2.911554154820875e-05,-0.015907660723604077,0.026611455558956505
6.96969696969697,2.5316455696202533,0.027959911312452713,0.025077308152679185,-4.75061141691101e-06,-0.01591116583953957,0.026635855169031462
7.070707070707071,2.5316455696202533,0.027908820556074746,0.02534677231745936,-7.754572353561e-05,-0.015976677862060234,0.026720416379210195
7.171717171717171,2.5316455696202533,0.02808102406339123,0.025265310177695583,2.2284404611227527e-05,-0.01600390027232604,0.026784426772643068
7.2727272727272725,2.5316455696202533,0.028114885777203093,0.025406147045527478,-5.513614718582456e-05,-0.01605630984681917,0.026863307832887783
7.373737373737374,2.5316455696202533,0.028434195197903273,0.025438991842291436,4.309289264385704e-05,-0.016161956112058413,0.02706130214559605
7.474747474747475,2.5316455696202533,0.028294037641418916,0.025432532935357494,9.421880679331873e-06,-0.01611797117303292,0.02697735197694447
7.575757575757575,2.5316455696202533,0.02847126689208057,0.025896195246916737,-3.88110163595261e-05,-0.01631023864169919,0.027275135182563148
7.6767676767676765,2.5316455696202533,0.028653834344527805,0.025971039067801654,-1.0178102173721015e-05,-0.016387462023698837,0.02741108448205149
7.777777777777778,2.5316455696202533,0.02876430345328958,0.02597884805215195,2.3847983625612836e-05,-0.01642294545163246,0.027477698897645987
7.878787878787879,2.5316455696202533,0.02886805348455729,0.025948925696532614,-1.5688766478181437e-05,-0.016445093754326973,0.027524843693094884
7.979797979797979,2.5316455696202533,0.028964877288425776,0.025979467205338468,-5.6174409337155454e-05,-0.016483303348129273,0.027593735152717236
8.080808080808081,2.5316455696202533,0.029068206906506792,0.026304073831548536,-1.5884900101045822e-06,-0.0166116842214166,0.02778943504005548
8.181818181818182,2.5316455696202533,0.029642015596457263,0.0262962737677073,-5.0104162843321333e-05,-0.016781486809249367,0.028118962939929694
8.282828282828282,2.5316455696202533,0.029378551772905534,0.026202352690688845,7.017962551108044e-05,-0.01667427133907831,0.02792651412626928
8.383838383838384,2.5316455696202533,0.02964072675718946,0.026590295414420637,6.794404019550732e-05,-0.016869306651483028,0.02823959385909313
8.484848484848484,2.5316455696202533,0.029650752560180696,0.026637506682758258,-5.4917347565232925e-05,-0.016886477772881686,0.028265010488829095
8.585858585858587,2.5316455696202533,0.029864826313235383,0.0270342604356949,-1.4504093511476157e-05,-0.017069726024679082,0.028554968511838384
8.686868686868687,2.5316455696202533,0.03012070329304093,0.02713826733929048,8.585581002783513e-05,-0.01717769118969942,0.02874614298114726
8.787878787878787,2.5316455696202533,0.030462896688306096,0.027510119994940515,-2.0021977157957463e-06,-0.017391905004973982,0.029099086678382995
8.88888888888889,2.5316455696202533,0.030541944040843733,0.027653101258706205,-1.310749141808153e-05,-0.01745851358986498,0.029204886564376385
8.98989898989899,2.5316455696202533,0.03100424490705389,0.027562679405234925,8.727732450392304e-05,-0.017570077293686644,0.02943513695690819
9.09090909090909,2.5316455696202533,0.03089102309027774,0.02802320703923535,-4.9423565576962086e-05,-0.017674269038853926,0.02956175286889754
9.191919191919192,2.5316455696202533,0.03132241546096641,0.028228164437176937,-6.488833754647348e-06,-0.017865173969443003,0.029895631953762842
9.292929292929292,2.5316455696202533,0.03151598285217731,0.028410640258987974,-6.105464324095563e-05,-0.017977986933349583,0.030083942342238046
9.393939393939394,2.5316455696202533,0.03167798271984096,0.028527109780542976,-5.0766198258364405e-05,-0.01806152775011518,0.030226098368385284
9.494949494949495,2.5316455696202533,0.03224832966459323,0.028758453973533136,-2.020143021818808e-05,-0.01830203509143791,0.03065277411613716
9.595959595959595,2.5316455696202533,0.03255886559150877,0.029219919614173688,-6.751528427038145e-05,-0.018533635561704738,0.031024662294583713
9.696969696969697,2.5316455696202533,0.03279820833760454,0.029494638213436505,-4.2630772540470035e-05,-0.018687853965312314,0.03127763284969245
9.797979797979798,2.5316455696202533,0.033281457455184744,0.02966841427818205,4.9192642534801745e-05,-0.01888496152001004,0.03163019772795036
9.8989898989899,2.5316455696202533,0.033445397815958705,0.029976318146986092,-3.132689895200039e-05,-0.01902651478888344,0.03185290164737217
10.0,2.5316455696202533,0.03385202414374401,0.03055853814286361,-4.7309579855744235e-06,-0.019323168685982283,0.032331339103006965
0.0,2.632911392405063,0.033800038372703574,0.030587061232358034,-3.153263375735472e-06,-0.019316129881518485,0.032313574474135916
0.10101010101010101,2.632911392405063,0.033627839463147326,0.030182893266460144,-3.337805780771341e-05,-0.01914321981888224,0.03204460150914863
0.20202020202020202,2.632911392405063,0.03299992039476056,0.02974442679041243,8.479044674266048e-06,-0.018823304155551897,0.031498605851083966
0.30303030303030304,2.632911392405063,0.03280343758795268,0.02940287584434019,-4.2419786926599074e-05,-0.018661894029687858,0.031242353002826535
0.40404040404040403,2.632911392405063,0.03234818748172787,0.02925045408968223,1.2808263699555285e-06,-0.01847959247142303,0.030915936503823686
0.5050505050505051,2.632911392405063,0.032176171694495194,0.028946723105190374,1.8735250349595504e-07,-0.01833686843990567,0.03068915233306196
0.6060606060606061,2.632911392405063,0.03178056752631086,0.02855468938576318,-2.1564834235251977e-05,-0.018100577073622212,0.030296731162304767
0.7070707070707071,2.632911392405063,0.03164315273719907,0.028255615308156887,-5.4405350661349965e-06,-0.017969630413606788,0.03009272751863772
0.8080808080808081,2.632911392405063,0.031419842379944975,0.02822412883732483,-2.2221758065206534e-05,-0.01789319136518094,0.029950154354294836
0.9090909090909091,2.632911392405063,0.030901143263037802,0.02808096167874113,-1.6696093983036872e-05,-0.01769463148253368,0.02959202730881619
1.0101010101010102,2.632911392405063,0.03079418135810014,0.02766010420170798,9.192803701352685e-05,-0.017536285667942436,0.029353331277480754
1.1111111111111112,2.632911392405063,0.030652429888344553,0.027510461149236005,2.5208346818201274e-05,-0.017448867311274166,0.029208498001656414
1.2121212121212122,2.632911392405063,0.03017998314478435,0.027406940001784893,-3.21135439687405e-05,-0.01727607694397077,0.028893491471541456
1.3131313131313131,2.632911392405063,0.029995299686312503,0.02742466798624299,-2.4670139261349074e-05,-0.017225990301766646,0.028796199544899925
1.4141414141414141,2.632911392405063,0.0299620114145095,0.02676589665355963,-2.0316778268051726e-05,-0.017018372420420737,0.02849871030297923
1.5151515151515151,2.632911392405063,0.029636158683807468,0.026665631055689643,-1.5826117002542336e-05,-0.016890536921849133,0.028268209337657595
1.6161616161616161,2.632911392405063,0.02964132335794992,0.026608450282836985,-3.098951218067036e-05,-0.01687493209223607,0.028247316315481115
1.7171717171717171,2.632911392405063,0.029440402970667315,0.026446905238929327,5.274431840715919e-05,-0.01676619246287899,0.028063800920766685
1.8181818181818181,2.632911392405063,0.029267436313004287,0.026424554623933335,8.297622148204977e-06,-0.016707597281081284,0.027954626672612292
1.9191919191919191,2.632911392405063,0.02914178757160067,0.026245917163213454,5.0044309764158494e-05,-0.016616311420444237,0.027807310573178177
2.0202020202020203,2.632911392405063,0.02888605497994511,0.026043854093731,-7.762133383316532e-05,-0.01647897272210283,0.027575358244874653
2.121212121212121,2.632911392405063,0.028863779134524585,0.02590665265716913,4.5208558385141956e-05,-0.016431129537508114,0.027504811012906534
2.2222222222222223,2.632911392405063,0.028651408743402926,0.025710855525592397,7.282676875270979e-05,-0.016308679280698596,0.027300457784583836
2.323232323232323,2.632911392405063,0.028498948652067944,0.025747461563318433,4.5616958541627025e-05,-0.016273923064615912,0.02722778927739783
2.4242424242424243,2.632911392405063,0.028493639105961345,0.025689748496170423,6.610324207299908e-05,-0.01625501628063953,0.027200539219660785
2.525252525252525,2.632911392405063,0.02849250981878411,0.02566818331906557,-8.928757162501115e-05,-0.016248207941354904,0.027191022456634076
2.6262626262626263,2.632911392405063,0.02831093768804841,0.025708927405168343,3.6573926248151716e-05,-0.016205959527965025,0.027103843127179183
2.727272727272727,2.632911392405063,0.02813278242850819,0.02537162554367945,-2.9767794936604208e-05,-0.01605132239165629,0.026858910383435103
2.8282828282828283,2.632911392405063,0.02824063735962399,0.02537583308433394,5.1249079544293546e-05,-0.016084941133187376,0.026922939712691222
2.929292929292929,2.632911392405063,0.02811307238385453,0.025256506762895828,-8.688613860028268e-05,-0.016010873744025107,0.026799638384476156
3.0303030303030303,2.632911392405063,0.028033708616966625,0.02509666196193004,1.691806679052435e-06,-0.015939111173668998,0.026686677581515234
3.131313131313131,2.632911392405063,0.027996293975013256,0.025172793888048824,7.01303241936641e-05,-0.015950726358918626,0.02669703813891037
3.2323232323232323,2.632911392405063,0.027817084028540367,0.024903517053547652,4.0086127029324724e-05,-0.015816180324626405,0.02648087837846834
3.3333333333333335,2.632911392405063,0.02770584380761298,0.025087734227228986,-2.8619311246125534e-05,-0.01583807341045259,0.02649403330858365
3.4343434343434343,2.632911392405063,0.027700154369253927,0.024847073990344436,-1.8180821473005537e-05,-0.015764168507879508,0.02638955938306174
3.5353535353535355,2.632911392405063,0.027640518673125766,0.02494974027129808,-7.303682382033039e-06,-0.015777077683327152,0.026398185738749618
3.6363636363636362,2.632911392405063,0.027707745810210543,0.024685222880718984,3.4356299693218654e-05,-0.015717890607278857,0.02632700261656543
3.7373737373737375,2.632911392405063,0.027675787517695526,0.024772743804138565,-6.864152923799235e-06,-0.01573455939655023,0.02634450602889065
3.8383838383838382,2.632911392405063,0.02749226707943833,0.024559409266292513,-5.477896318101585e-05,-0.015615502903719252,0.026149655753349765
3.9393939393939394,2.632911392405063,0.027365248171883978,0.024643502616206018,-8.739059085417954e-05,-0.015602625236426998,0.026111422311565335
4.040404040404041,2.632911392405063,0.027487409962784513,0.02457288069166434,3.661162203082713e-05,-0.015618087196334654,0.02615231056031549
4.141414141414141,2.632911392405063,0.02746683798128641,0.02474811283695095,-4.85863537098824e-05,-0.015664485245471208,0.026213564312143212
4.242424242424242,2.632911392405063,0.027529290732304083,0.024664809022383088,5.230766591464557e-05,-0.01565822992640615,0.026214846216908335
4.343434343434343,2.632911392405063,0.027384472079817816,0.02462572101068477,-9.433869048409422e-06,-0.015603057927150776,0.026114619352339382
4.444444444444445,2.632911392405063,0.027202354438394936,0.02459947910684854,1.2843203622703135e-05,-0.015540550063573043,0.025998830829473765
4.545454545454545,2.632911392405063,0.0274581661668,0.02472763547240408,2.6304413296661036e-05,-0.015655740491761223,0.02619987399498028
4.646464646464646,2.632911392405063,0.027262318536858576,0.024327835384761323,1.9592035162234288e-05,-0.01547704617648597,0.02591998341984598
4.747474747474747,2.632911392405063,0.027325128857428944,0.024497585544296034,3.915562095047586e-05,-0.015546814320517494,0.026026895365551698
4.848484848484849,2.632911392405063,0.027145111825165723,0.024622862953370905,3.171728964091245e-05,-0.01553039243356099,0.025976049077094852
4.94949494949495,2.632911392405063,0.027358881285289554,0.024500161816784348,6.421353740813762e-05,-0.01555771293062217,0.02604768062132514
5.05050505050505,2.632911392405063,0.027236400247434667,0.02443115054595615,-1.4148902869496135e-05,-0.015500265238017244,0.025947767172475482
5.151515151515151,2.632911392405063,0.02724362084286796,0.02446158733576525,-7.415615466427557e-05,-0.015511562453589962,0.025964945954705065
5.252525252525253,2.632911392405063,0.02731044452989105,0.024541115998533532,8.399159812546093e-05,-0.015555468158527375,0.026036880217488224
5.353535353535354,2.632911392405063,0.027302908671926193,0.024695828727823232,-0.00011379877713547744,-0.015599621219924826,0.026097962998158794
5.454545454545454,2.632911392405063,0.027423015525919404,0.024711992310097144,8.340912489301939e-05,-0.015640502350804962,0.02617341909111739
5.555555555555555,2.632911392405063,0.027256800221812205,0.024495406944437227,-6.213333246265751e-05,-0.015525662149874829,0.025986598236819248
5.656565656565657,2.632911392405063,0.027372089262905443,0.024840607961278856,-5.79483183898612e-05,-0.01566380916725529,0.02619843144282234
5.757575757575758,2.632911392405063,0.02729389624314116,0.02470177270588825,-3.782052543637897e-05,-0.015598700684708823,0.026094654948187832
5.858585858585858,2.632911392405063,0.02722991265574051,0.024538759659606817,-3.332371001373268e-05,-0.015530601694604197,0.02598911152903941
5.959595959595959,2.632911392405063,0.027491429233943463,0.024522424938309605,-6.68783483263199e-05,-0.01560415625167592,0.02613398007353924
6.0606060606060606,2.632911392405063,0.027633683116309708,0.024613627837584768,-1.349101890405616e-05,-0.015674193286168342,0.02625426578512384
6.161616161616162,2.632911392405063,0.027313880510579702,0.02477070058675799,-1.475115016533071e-05,-0.015625374329201306,0.026135270668280402
6.262626262626262,2.632911392405063,0.0276332398527384,0.02477932715711778,5.490429008157681e-06,-0.015723770102956853,0.026322575839586193
6.363636363636363,2.632911392405063,0.027866400135925066,0.024900244023061388,-8.089229501011596e-05,-0.015829993247695934,0.026508449147486162
6.4646464646464645,2.632911392405063,0.027545919996810775,0.024818666008767122,2.6391875062316274e-05,-0.015709375801673368,0.026288647591946872
6.565656565656566,2.632911392405063,0.02778970598782932,0.025110948607078784,-8.783084820042663e-05,-0.01587019637847243,0.026552302400071146
6.666666666666667,2.632911392405063,0.027747407801666225,0.02508355531781894,2.525505278140731e-05,-0.01584928893584555,0.02651606422582258
6.767676767676767,2.632911392405063,0.02785605011543492,0.025118591308640227,-2.896535495611904e-05,-0.015892392427222544,0.026593249820525338
6.8686868686868685,2.632911392405063,0.0280672852471624,0.025022720749305494,7.510299016454298e-05,-0.015927001798940365,0.02667594675526723
6.96969696969697,2.632911392405063,0.028131851694996664,0.025126981993400327,1.0518147882785775e-05,-0.015977650106519095,0.02675627225155003
7.070707070707071,2.632911392405063,0.028131790551638978,0.02529377754839346,2.8357701671892572e-05,-0.01602767043000973,0.026825659032640302
7.171717171717171,2.632911392405063,0.028299232732682457,0.025378619229884963,-6.74145557588688e-05,-0.016103355588770227,0.026958098401414603
7.2727272727272725,2.632911392405063,0.028170214600713304,0.025392363353524437,8.601877075410427e-05,-0.016068773386271322,0.026889532910155698
7.373737373737374,2.632911392405063,0.028311442409414245,0.02544395283886611,7.11791238657247e-05,-0.016126618574484105,0.026992456377766642
7.474747474747475,2.632911392405063,0.02827688950873039,0.02563681482633861,-2.4212967633499255e-05,-0.0161741113005207,0.027053671346642934
7.575757575757575,2.632911392405063,0.028426226529956265,0.02570325654706293,0.00010500157750528457,-0.016238844923105757,0.027167889772412693
7.6767676767676765,2.632911392405063,0.028613815166182378,0.025675151352730304,-5.2627060368057866e-05,-0.016286689955673804,0.02726367709979203
7.777777777777778,2.632911392405063,0.028599356359698444,0.025721998462410144,-2.477798651004769e-05,-0.016296406446632578,0.027274780120562236
7.878787878787879,2.632911392405063,0.028951428400768274,0.025916455997772994,-5.521707126848411e-05,-0.01646036531956238,0.027559728309310447
7.979797979797979,2.632911392405063,0.029136160334201175,0.025950559117152137,5.866132716063083e-05,-0.016526015835405992,0.027681366110932602
8.080808080808081,2.632911392405063,0.028991409839149315,0.026297444410583175,-1.586715819033999e-05,-0.016586656274919745,0.02774271424464268
8.181818181818182,2.632911392405063,0.02921068876515912,0.026280504697389313,-1.730617601262e-05,-0.016647358038764527,0.02786141634032516
8.282828282828282,2.632911392405063,0.029187718599411595,0.02655170675237794,5.480922892874457e-05,-0.016721827605536862,0.027963213614227767
8.383838383838384,2.632911392405063,0.029670179865658064,0.026707707792526618,2.0824905369187284e-05,-0.016913366297455403,0.028305477134608365
8.484848484848484,2.632911392405063,0.029647896245630113,0.0265905856244844,-5.840195597002443e-05,-0.016871544561034353,0.028243801166004744
8.585858585858587,2.632911392405063,0.030100464093124564,0.026755321989139297,-1.96511389772386e-05,-0.017056735824679158,0.02857514204744602
8.686868686868687,2.632911392405063,0.030120447426681633,0.027259210144104533,-3.326210944860394e-05,-0.01721389727123585,0.028796694322948797
8.787878787878787,2.632911392405063,0.030320671735251582,0.02738520379301969,7.233663765984153e-05,-0.017311762658481382,0.02896498652543155
8.88888888888889,2.632911392405063,0.030577765692012315,0.027554936085143724,-6.595904545615247e-05,-0.01743981053314681,0.02918422398983899
8.98989898989899,2.632911392405063,0.030675136215306088,0.02759264281781162,0.0001312356144288493,-0.017480333709935313,0.02925681990377182
9.09090909090909,2.632911392405063,0.031011834847370925,0.027992318571118946,-5.851351919533663e-05,-0.01770124602554696,0.02961791536487454
9.191919191919192,2.632911392405063,0.03134026989885548,0.028010896023401753,2.8867420729673472e-05,-0.01780534977667717,0.02981536972550703
9.292929292929292,2.632911392405063,0.03130131785169528,0.028345243297107667,-6.0241327300935555e-05,-0.01789396834464088,0.029933137721448906
9.393939393939394,2.632911392405063,0.03199699269530495,0.028700047180738184,7.880809012963469e-06,-0.01820911196281294,0.03048253985553797
9.494949494949495,2.632911392405063,0.032177650549537265,0.029098701868095628,4.431604131076631e-05,-0.018382905725289868,0.030754083905625475
9.595959595959595,2.632911392405063,0.03244223883485042,0.02912426305657972,-1.0317680300909901e-05,-0.018469950567429044,0.030917075874010817
9.696969696969697,2.632911392405063,0.03269928892323938,0.029600565771021662,-9.621988554953275e-05,-0.01868995640827831,0.03126575302805297
9.797979797979798,2.632911392405063,0.03302399821215718,0.02979335118692602,-3.776788779214253e-05,-0.018845204819724962,0.031533108565012985
9.8989898989899,2.632911392405063,0.03350921935178838,0.029972827214621984,2.9770915596079007e-05,-0.01904461396992311,0.03188847393648807
10.0,2.632911392405063,0.03379826157894942,0.030479811406400728,-4.821369042645421e-05,-0.019283421895605047,0.032267378635676316
0.0,2.7341772151898733,0.03377839753395664,0.03053574776774224,6.135270252942843e-05,-0.01929424359050966,0.03227963285206448
0.10101010101010101,2.7341772151898733,0.03337420206658899,0.030077487136979292,-8.009038620355583e-06,-0.01903550676107048,0.031854052412934666
0.20202020202020202,2.7341772151898733,0.03307507565903825,0.029902320908989394,1.064022346560202e-05,-0.018893218970408292,0.0316083571036631
0.30303030303030304,2.7341772151898733,0.03262787946287563,0.029482887780656854,-2.9975959408312842e-05,-0.018633230173059744,0.031174633551662057
0.40404040404040403,2.7341772151898733,0.032485073363074275,0.029220257670519906,-9.125945004050991e-06,-0.018511599310078255,0.03098195419062101
0.5050505050505051,2.7341772151898733,0.0320447460885106,0.02887884474766173,2.0687511099043676e-05,-0.018277077250851696,0.030584954838738496
0.6060606060606061,2.7341772151898733,0.03191172237036907,0.028699053451608073,-1.5304105876743917e-05,-0.018183232746593142,0.030432846897203717
0.7070707070707071,2.7341772151898733,0.0314449250973189,0.028310435872478182,-3.1330559123750886e-05,-0.017926608290939124,0.03000079170613626
0.8080808080808081,2.7341772151898733,0.03125911956220906,0.028142197165614266,-7.029093979961017e-05,-0.017820395018346997,0.029823318621814126
0.9090909090909091,2.7341772151898733,0.03091036975047388,0.027945541782963157,-3.335856922920379e-05,-0.01765677346003111,0.029539813348226578
1.0101010101010102,2.7341772151898733,0.030806320282750602,0.027697225733705783,-2.9388653883556944e-05,-0.017551063804936914,0.02937547730488841
1.1111111111111112,2.7341772151898733,0.03053474937637819,0.027432319517509948,1.881623418843022e-05,-0.01739012066816644,0.029107819129249417
1.2121212121212122,2.7341772151898733,0.030348465408955444,0.02741778608676687,5.491847693126896e-05,-0.017329875448716694,0.02899457987368007
1.3131313131313131,2.7341772151898733,0.030255781146617956,0.027123358724142087,5.0045474085553014e-05,-0.01721374196122801,0.028817668007666976
1.4141414141414141,2.7341772151898733,0.029973148324538967,0.027172173307111226,-1.8490053703251377e-05,-0.017143596489495056,0.028675461069155198
1.5151515151515151,2.7341772151898733,0.02993404389452016,0.02682607742483788,-3.5305490095282596e-05,-0.01702803639580741,0.02850747575921894
1.6161616161616161,2.7341772151898733,0.029420529486856053,0.02674690723694412,1.5214476250797271e-05,-0.01685023101714005,0.02817901920618965
1.7171717171717171,2.7341772151898733,0.029386801343531926,0.026353177604610596,5.289704789904246e-06,-0.016721993684442753,0.02799354482679504
1.8181818181818181,2.7341772151898733,0.029249793781657627,0.026512638648466775,-8.319706208718806e-05,-0.01672872972903732,0.027982172834714464
1.9191919191919191,2.7341772151898733,0.028942095824542005,0.02637496077513465,5.8022521956585044e-05,-0.016595116979902996,0.02774791747723678
2.0202020202020203,2.7341772151898733,0.029094362708891486,0.026095520973375527,-4.109864277690855e-05,-0.016556965104680105,0.0277169744259156
2.121212121212121,2.7341772151898733,0.02895694445686074,0.02609127692227035,-4.387741220109215e-05,-0.016514466413739326,0.02763587311353605
2.2222222222222223,2.7341772151898733,0.028774734246555744,0.025950810467616093,-4.0221275744371536e-05,-0.01641766341425155,0.02747193246662343
2.323232323232323,2.7341772151898733,0.028501685649955692,0.0258286777645696,-0.0001031831562185855,-0.016299109024357588,0.027264221350449036
2.4242424242424243,2.7341772151898733,0.028673471753164106,0.025584473259089007,-4.0668432785549915e-06,-0.016277383503675934,0.027260550849682257
2.525252525252525,2.7341772151898733,0.028530642763538994,0.02558790949230866,-2.9262187138351323e-05,-0.016235565676754295,0.027179068282838934
2.6262626262626263,2.7341772151898733,0.028204214391263017,0.025462969710785262,-3.590011546777944e-06,-0.016100155230614484,0.02693840228788671
2.727272727272727,2.7341772151898733,0.028235257901910258,0.025348554012086303,-3.671930967789644e-05,-0.016075143574198966,0.02690836420599352
2.8282828282828283,2.7341772151898733,0.028226787725151758,0.0253959335813682,2.8246243129620854e-05,-0.01608681639195599,0.026923256768404943
2.929292929292929,2.7341772151898733,0.027967221264323123,0.025209769249992155,5.0506909666761534e-05,-0.015953097154294583,0.02669566236473952
3.0303030303030303,2.7341772151898733,0.02805854346710182,0.024949604569169552,-3.708178498486028e-05,-0.01590244441088141,0.02664055537218501
3.131313131313131,2.7341772151898733,0.027851479481085475,0.025175599559741548,-4.9062338705867334e-05,-0.015908123712248107,0.02661475623136263
3.2323232323232323,2.7341772151898733,0.027923850937178817,0.024872384394979564,8.423706933726957e-07,-0.015838870599647514,0.026530062278188275
3.3333333333333335,2.7341772151898733,0.02779241162289962,0.025036353952580574,-4.393039783483597e-05,-0.015848629672644058,0.026522109608936
3.4343434343434343,2.7341772151898733,0.027774009823074305,0.02493398763569836,-1.2528855749170248e-05,-0.015812399237631797,0.026468528755179542
3.5353535353535355,2.7341772151898733,0.027730502242700454,0.024866708432464392,1.6858311546946397e-05,-0.01577916320254945,0.02641530771258558
3.6363636363636362,2.7341772151898733,0.027527639864620087,0.024871255412086932,-4.186390595475222e-05,-0.015719668583012106,0.026300353573373066
3.7373737373737375,2.7341772151898733,0.027475783699207702,0.024785208468257942,-2.825405163101459e-05,-0.015678297650239693,0.02623422605607658
3.8383838383838382,2.7341772151898733,0.027499991858930223,0.024789454892573,-1.578332426245214e-05,-0.015686834025450968,0.026249906013527727
3.9393939393939394,2.7341772151898733,0.027530342143615535,0.02472766413584261,-5.768001666908284e-05,-0.015677401883837445,0.02624168514101907
4.040404040404041,2.7341772151898733,0.02728113575444512,0.02458690994906953,-2.2122535299430388e-05,-0.015560413711054395,0.02603880083669252
4.141414141414141,2.7341772151898733,0.027257760875959956,0.024595528571501483,-4.9103661501860085e-05,-0.015555986834238431,0.026029094313315043
4.242424242424242,2.7341772151898733,0.027293943054058172,0.02469528570970867,8.565044698747677e-06,-0.01559676862913005,0.026091856237872357
4.343434343434343,2.7341772151898733,0.027309266239716783,0.02475776365096103,-5.781908126584056e-06,-0.015620108967203342,0.02612712431163999
4.444444444444445,2.7341772151898733,0.02742581963086753,0.024445785573604262,-3.0202100074324885e-05,-0.015561481561341536,0.02606394147782583
4.545454545454545,2.7341772151898733,0.027434994279438754,0.024687062909425805,-9.844648509942134e-05,-0.015636617156659368,0.026170013978632646
4.646464646464646,2.7341772151898733,0.027364809416027508,0.024614339241838187,4.464637072763319e-05,-0.015593744597359708,0.026098616214824715
4.747474747474747,2.7341772151898733,0.027158424241445673,0.02463047742310551,-4.340643389552123e-05,-0.015536670499365354,0.025986941385971452
4.848484848484849,2.7341772151898733,0.027246088613247753,0.02450299260972458,1.951635816561697e-05,-0.015524724366891701,0.0259833875059347
4.94949494949495,2.7341772151898733,0.027342552390578295,0.024506862978831916,8.482693401635843e-05,-0.01555482461082306,0.026041177127647853
5.05050505050505,2.7341772151898733,0.027219839400537522,0.024607228740936068,2.8012938539339337e-06,-0.015548120442442075,0.026012123566156144
5.151515151515151,2.7341772151898733,0.02721623317107713,0.024445220747353072,5.113610295520271e-05,-0.015498436175529061,0.02594211214095574
5.252525252525253,2.7341772151898733,0.027250819431176583,0.024597636387505936,-3.054704762366317e-05,-0.015554536745604756,0.026025908769133115
5.353535353535354,2.7341772151898733,0.027362995117687416,0.024540862633198345,-5.120460019677591e-05,-0.015571157325265728,0.026066910095162724
5.454545454545454,2.7341772151898733,0.02724618715583155,0.02478813336919665,2.5220896726417455e-05,-0.015610296157508459,0.026104138708636423
5.555555555555555,2.7341772151898733,0.02737651690542233,0.024777854350889222,-2.3752015272760218e-05,-0.015646311376893464,0.026174149232863944
5.656565656565657,2.7341772151898733,0.027420112183336804,0.024538135458392712,-3.673648139090796e-05,-0.015587474292518853,0.02609881732165956
5.757575757575758,2.7341772151898733,0.02738931628575313,0.02469012549576115,-4.948425507732317e-05,-0.015623832534454284,0.02614457177567876
5.858585858585858,2.7341772151898733,0.027413288391606717,0.02451601150955345,1.394229097452221e-06,-0.01557878997034805,0.02608560355610433
5.959595959595959,2.7341772151898733,0.027437957309238356,0.024624597281587144,-4.524973769643783e-05,-0.015618766377247649,0.02614516755025382
6.0606060606060606,2.7341772151898733,0.027717113171968198,0.024641932716439205,1.3155623315189097e-05,-0.01570771376652222,0.02631464405844991
6.161616161616162,2.7341772151898733,0.027438861199367726,0.024772269225394144,2.617841523755828e-05,-0.015663339127428563,0.026207549018420092
6.262626262626262,2.7341772151898733,0.027453045718581877,0.024826670695932383,-1.002641548161648e-05,-0.015683914924354277,0.02623863321520822
6.363636363636363,2.7341772151898733,0.027675511131974393,0.024727815627826215,2.4046113986780823e-05,-0.01572099802794018,0.0263257588705299
6.4646464646464645,2.7341772151898733,0.027517953550481956,0.02503552138158527,1.4370478204733769e-06,-0.015766042479620167,0.026364536600499044
6.565656565656566,2.7341772151898733,0.027714777895974003,0.024976817464694514,8.897880663619386e-05,-0.015807478608200556,0.02645273383961734
6.666666666666667,2.7341772151898733,0.027793301010636404,0.024744704112310955,-6.587969992437072e-05,-0.01576140153688421,0.026401590354856595
6.767676767676767,2.7341772151898733,0.027941468894329982,0.02491912336053509,5.751356694729134e-05,-0.01585817767645952,0.02655977044722265
6.8686868686868685,2.7341772151898733,0.027929408423095325,0.02528579344600659,-0.0001263694943350612,-0.015964560560730576,0.026706812995000512
6.96969696969697,2.7341772151898733,0.0278772392995292,0.025280075115346697,-1.9506827111121586e-05,-0.015947194324462767,0.026673678164983273
7.070707070707071,2.7341772151898733,0.02795357572936689,0.025214480555358975,-2.868272949220889e-05,-0.01595041688541776,0.026689698427484396
7.171717171717171,2.7341772151898733,0.028083961445071314,0.025461675617575452,-2.4597588226827587e-05,-0.01606369111879403,0.026868995412110717
7.2727272727272725,2.7341772151898733,0.02818450703732575,0.025359147165339428,3.4686173236075814e-05,-0.016063096260799554,0.02688347688711712
7.373737373737374,2.7341772151898733,0.02837888746352043,0.025470549176859165,5.541706938566431e-05,-0.01615483099211388,0.02704243874854017
7.474747474747475,2.7341772151898733,0.028385213031551986,0.025496875026957456,3.956246272972492e-05,-0.01616462641755283,0.027057003183523522
7.575757575757575,2.7341772151898733,0.028427158109287875,0.025769924904836598,-1.9126081742067555e-05,-0.01625912490423734,0.027196097430662952
7.6767676767676765,2.7341772151898733,0.028752057878176213,0.0257425952065503,-2.4535511766973246e-05,-0.016348395925417952,0.027371723710046442
7.777777777777778,2.7341772151898733,0.028895272694921495,0.025950723757919774,-5.239631259559281e-06,-0.01645379893585238,0.02754130880004207
7.878787878787879,2.7341772151898733,0.028935554748528013,0.02602966455683946,2.6777883492801883e-06,-0.016489565791610244,0.027597590532291952
7.979797979797979,2.7341772151898733,0.029010120755775064,0.025964135827581652,-3.3149351642098934e-06,-0.016492276975007013,0.027613416536652186
8.080808080808081,2.7341772151898733,0.02915673527136304,0.026316558585470655,4.040994641023255e-05,-0.01664198815705011,0.02784558195528112
8.181818181818182,2.7341772151898733,0.029335359830526056,0.02620663549025848,4.825779824368983e-05,-0.01666259859623536,0.027902992393233093
8.282828282828282,2.7341772151898733,0.02945438449923071,0.026591713023544447,-3.676164913691071e-05,-0.016813829256832547,0.028132569774603395
8.383838383838384,2.7341772151898733,0.029690883702430233,0.02671267702390977,8.00722643227265e-05,-0.016921068217902003,0.028319815264581272
8.484848484848484,2.7341772151898733,0.029909229365853805,0.026776691416399708,5.826603954756106e-06,-0.017005776234676053,0.028472497275168866
8.585858585858587,2.7341772151898733,0.02989126788158616,0.026964154568935722,8.274595422515997e-06,-0.017056626735156566,0.028540514451783044
8.686868686868687,2.7341772151898733,0.030311757660646317,0.02705595077464707,-6.918794044870653e-05,-0.017210312530588016,0.028822353522079156
8.787878787878787,2.7341772151898733,0.03033744208576902,0.02724152021764751,-8.302262476792356e-05,-0.01727368869102496,0.028914415996408614
8.88888888888889,2.7341772151898733,0.030670761311310617,0.027548381151826437,3.311411627918292e-05,-0.017465742738941116,0.029234951176889422
8.98989898989899,2.7341772151898733,0.03068048579757377,0.027772778672043603,-1.0987025334694742e-05,-0.017535979340885213,0.029334918859250825
9.09090909090909,2.7341772151898733,0.030980678287137558,0.028044331859366254,6.449023507235882e-05,-0.017707503043951144,0.02962206998891017
9.191919191919192,2.7341772151898733,0.03128283134475002,0.028066777471603223,-9.549865969365936e-06,-0.01780488264490597,0.029805226758902466
9.292929292929292,2.7341772151898733,0.031516942419677174,0.028424213760853374,-3.0836222882690515e-05,-0.017982346854159163,0.030090066992289104
9.393939393939394,2.7341772151898733,0.031971442721581526,0.028510611299260958,-4.0561592758379355e-05,-0.018144616206252746,0.03038926892792486
9.494949494949495,2.7341772151898733,0.03196309015331645,0.028873535804070725,2.3184572552069736e-07,-0.018250987787216153,0.030535762217254764
9.595959595959595,2.7341772151898733,0.03252674526101802,0.029388998818241394,2.3736661348190253e-05,-0.018574723223777824,0.031076930689238454
9.696969696969697,2.7341772151898733,0.032821755605860516,0.029507854158696712,1.59319655352519e-05,-0.01869888292936717,0.03129668164413298
9.797979797979798,2.7341772151898733,0.0330194346634147,0.029880021547592263,-3.5868291978919296e-05,-0.018869836863302087,0.03156709035605044
9.8989898989899,2.7341772151898733,0.03351878462047569,0.030084207349526344,2.1283136966754798e-05,-0.01908089759100061,0.03194031537997683
10.0,2.7341772151898733,0.03390004792522847,0.03055101348691927,4.218116103833662e-05,-0.01933531842364432,0.03235586794989257
0.0,2.8354430379746836,0.033773398581684426,0.030288154568264475,-9.021474512237714e-05,-0.01921846594498467,0.032173051743212895
0.10101010101010101,2.8354430379746836,0.033348872407747115,0.0301516072805288,2.1623166021573947e-06,-0.019050143906482773,0.03187074869543261
0.20202020202020202,2.8354430379746836,0.033124004511788256,0.029858750186225212,8.079289225999966e-05,-0.01889482640940404,0.031618394079551373
0.30303030303030304,2.8354430379746836,0.032748784634687805,0.0293981442962896,-0.00012261493630155569,-0.018644078679293224,0.031209379842665537
0.40404040404040403,2.8354430379746836,0.03234943151746876,0.02918003379535552,-3.084495648163246e-05,-0.01845883959384728,0.0308869785038167
0.5050505050505051,2.8354430379746836,0.032100153300975175,0.028724106666611286,-1.8122830294123572e-05,-0.018247277990275937,0.030552363306626844
0.6060606060606061,2.8354430379746836,0.03183663656552833,0.028833541682460228,-0.00010592924735938868,-0.018201053474396565,0.030446924792736405
0.7070707070707071,2.8354430379746836,0.03156187911049538,0.028464490401012003,-1.4604611818966618e-05,-0.018007910853452214,0.030132826977903867
0.8080808080808081,2.8354430379746836,0.03121818132190282,0.028125247767833265,-4.606723716646457e-06,-0.017803028726920824,0.029792371274795518
0.9090909090909091,2.8354430379746836,0.030956408794437548,0.027960606583964473,1.0053416330641925e-05,-0.017675104613520606,0.029572539655083083
1.0101010101010102,2.8354430379746836,0.030766245342624447,0.02785971482052223,3.8687325170046275e-05,-0.017587788048944005,0.029420931853818562
1.1111111111111112,2.8354430379746836,0.0306562665927585,0.02742552171802535,-5.562179825945417e-06,-0.017424536493235155,0.029175364787649545
1.2121212121212122,2.8354430379746836,0.03035662254651836,0.02717390294258986,1.0955084223385501e-05,-0.017259157646732467,0.02889702370249862
1.3131313131313131,2.8354430379746836,0.03011244310074854,0.027112616881569285,3.5495593044372605e-06,-0.017167517994695347,0.028730230216655737
1.4141414141414141,2.8354430379746836,0.030032090936031108,0.026900029496330528,-1.9035489587685334e-05,-0.01707963612970849,0.02859501753675574
1.5151515151515151,2.8354430379746836,0.029722120077623034,0.02684769144033239,1.4556093031952531e-05,-0.016970943455386626,0.028394247382646738
1.6161616161616161,2.8354430379746836,0.029665439755439914,0.02653240880770433,7.700880923549379e-05,-0.016859354568943274,0.02822993533540636
1.7171717171717171,2.8354430379746836,0.029394450469132485,0.026489238541241508,6.239175614966603e-05,-0.0167651067031122,0.02805509837454193
1.8181818181818181,2.8354430379746836,0.0291683853333994,0.026569108147372456,-7.237587464895221e-05,-0.016721248044231554,0.027959791506712187
1.9191919191919191,2.8354430379746836,0.02896656975255531,0.02622668732601979,3.7175175480396065e-05,-0.01655797712357253,0.027698524680925964
2.0202020202020203,2.8354430379746836,0.02898118556935054,0.026090938241517047,-7.141423704909764e-05,-0.016521637143260274,0.027649867132622512
2.121212121212121,2.8354430379746836,0.0287288359169943,0.025889542786123636,6.342197002228296e-05,-0.01638551361093538,0.027419884740647677
2.2222222222222223,2.8354430379746836,0.028674070992942672,0.02583361686846173,7.076890554481445e-06,-0.01635230635842132,0.02736463582749044
2.323232323232323,2.8354430379746836,0.02862601395508065,0.025874577054438335,-1.883201327645554e-05,-0.016350177302855696,0.027354295326228927
2.4242424242424243,2.8354430379746836,0.028397706242553146,0.025758212369158224,-5.0364270853612204e-05,-0.016246775583513413,0.027174412335498246
2.525252525252525,2.8354430379746836,0.028445632007085574,0.02558415044284078,-2.5255107714231456e-05,-0.016208934734977906,0.027128348989845917
2.6262626262626263,2.8354430379746836,0.028413134000177195,0.025559294067062328,1.898403518700803e-05,-0.016191728420171855,0.027099172142742534
2.727272727272727,2.8354430379746836,0.028147191344993293,0.025445065470123672,-2.2789040155787863e-05,-0.01607767704453509,0.026898144338190808
2.8282828282828283,2.8354430379746836,0.02810277284271165,0.025334312633535232,9.995552325285163e-06,-0.016031125642874063,0.02682590361440734
2.929292929292929,2.8354430379746836,0.028075403260046868,0.02524269020026519,-2.3553551703014917e-05,-0.015995428038093618,0.026771713324502216
3.0303030303030303,2.8354430379746836,0.027993346622048457,0.02531715942845245,5.1149919778932584e-05,-0.01599315181515027,0.026755968422099378
3.131313131313131,2.8354430379746836,0.027968078169812196,0.025055557691436456,5.8044750851656026e-05,-0.015907090758374594,0.02663172317403807
3.2323232323232323,2.8354430379746836,0.027630824438123102,0.024843391786541606,-6.894877928636495e-05,-0.01574226486739941,0.026348196133531388
3.3333333333333335,2.8354430379746836,0.027784380542161105,0.024948684583887295,-4.806473755572419e-05,-0.01581991953781452,0.026480782630614073
3.4343434343434343,2.8354430379746836,0.0276100003509353,0.025108927332751402,1.4691276860854516e-05,-0.01581567830510601,0.02644831764426634
3.5353535353535355,2.8354430379746836,0.02769571685746087,0.024907323688611403,-7.337726559721147e-05,-0.015780912163821683,0.02641244921794106
3.6363636363636362,2.8354430379746836,0.027548934821585148,0.024863903026525906,-6.000933655276783e-05,-0.015723851354433317,0.02630958462214627
3.7373737373737375,2.8354430379746836,0.027651066552997226,0.024789199485079204,4.7018584471857484e-05,-0.01573207981142293,0.0263371357613872
3.8383838383838382,2.8354430379746836,0.027439812401211454,0.024947090384833993,-3.837694559824064e-06,-0.015716070835813636,0.02628225993613453
3.9393939393939394,2.8354430379746836,0.027526636892143568,0.02466268041561444,-2.2383825213100268e-05,-0.0156567951923274,0.026212294794503318
4.040404040404041,2.8354430379746836,0.027459578249451534,0.024571441272860747,-4.958824589748697e-05,-0.015609305856693683,0.02613561031450896
4.141414141414141,2.8354430379746836,0.027514431448116976,0.024684867999108472,4.376579261109604e-06,-0.015659789834167635,0.02621443486216305
4.242424242424242,2.8354430379746836,0.02738482930450461,0.02472177801562549,-4.90539962456499e-05,-0.01563198219603903,0.02615531938464148
4.343434343434343,2.8354430379746836,0.027306832314644383,0.024598189826144787,-1.896514918259018e-06,-0.015571506642236749,0.026058307691543187
4.444444444444445,2.8354430379746836,0.02720374135326327,0.024493342624201504,-6.86590971322171e-05,-0.015509125193239432,0.025955172145662855
4.545454545454545,2.8354430379746836,0.027491254386161835,0.024612643355046867,4.366769387339116e-05,-0.01563116932236261,0.026171063441526227
4.646464646464646,2.8354430379746836,0.02736380082977759,0.024764110204938985,3.501110852949097e-05,-0.015638373310414972,0.026161082700313615
4.747474747474747,2.8354430379746836,0.02745323686691526,0.02464358512662763,-2.3715787612862742e-05,-0.015629046598062867,0.026161842632902332
4.848484848484849,2.8354430379746836,0.027369427351914114,0.024474607672658313,9.06071555203762e-05,-0.015553210507371726,0.026043436920051902
4.94949494949495,2.8354430379746836,0.027349213573782692,0.024572223041585375,3.3881729120284395e-05,-0.015576430984610418,0.0260719407846359
5.05050505050505,2.8354430379746836,0.027316548242747405,0.024469890195210352,-6.869617327738466e-06,-0.015535931531387326,0.026010316023199895
5.151515151515151,2.8354430379746836,0.027325068604054353,0.024506353674188498,-1.0857903762761133e-05,-0.015549426683472853,0.026030430325303715
5.252525252525253,2.8354430379746836,0.02738776218823666,0.024592848063902245,4.524718735533459e-06,-0.015594183075641671,0.026102771513523883
5.353535353535354,2.8354430379746836,0.02723517774644638,0.0245506214363074,8.098897637057477e-06,-0.015535739754826132,0.025997068641719676
5.454545454545454,2.8354430379746836,0.027395838569500407,0.024599157770072873,1.4404179947164472e-05,-0.015598498901871984,0.026110086195753446
5.555555555555555,2.8354430379746836,0.027142159420799235,0.02433944945635568,-0.00011262217754918642,-0.015444482663146474,0.02585572377189063
5.656565656565657,2.8354430379746836,0.02737635841195238,0.02459340627430714,2.0751383311031656e-05,-0.015590929405877856,0.026096436906143775
5.757575757575758,2.8354430379746836,0.027411574596054086,0.024647194412816067,3.8131902701113e-05,-0.015617630702661044,0.026139329910191748
5.858585858585858,2.8354430379746836,0.027313469845196274,0.024505869997921058,7.926302064958938e-05,-0.0155458019529352,0.026023869927439006
5.959595959595959,2.8354430379746836,0.027525406236150265,0.02475375168567134,1.1090297636271073e-05,-0.01568374737654648,0.02624956207155061
6.0606060606060606,2.8354430379746836,0.02744576011064606,0.024696859060807687,0.0001344385779802575,-0.015642785751436124,0.026180808762238685
6.161616161616162,2.8354430379746836,0.02741862030957902,0.024764570352966492,-7.735091995005603e-05,-0.015654957198763652,0.026192981546675664
6.262626262626262,2.8354430379746836,0.027608336209145767,0.024764887494152628,-4.82199353340957e-05,-0.015711967110989516,0.02630227207298872
6.363636363636363,2.8354430379746836,0.027521202854385793,0.024754509910415324,-8.764300861937521e-05,-0.015682713829440333,0.02624788605854839
6.4646464646464645,2.8354430379746836,0.02766354107736672,0.024896530220344576,8.48023481798686e-05,-0.01576802138931339,0.026389469676976328
6.565656565656566,2.8354430379746836,0.027783782944810747,0.024892013251136266,3.672160033310798e-05,-0.015802738858784103,0.026456769844748058
6.666666666666667,2.8354430379746836,0.027832272258309653,0.024953576391345274,-3.312272977979639e-05,-0.015835754594896476,0.026510467992523476
6.767676767676767,2.8354430379746836,0.02784935508603058,0.024921268492125774,-2.282774266611239e-05,-0.01583118707344691,0.02650691437814721
6.8686868686868685,2.8354430379746836,0.0279283917859766,0.025207229828851225,4.145166042698237e-05,-0.015940686484448345,0.02667221902310859
6.96969696969697,2.8354430379746836,0.027828288573496413,0.025012811320880696,-8.142918301133349e-05,-0.015852329968313133,0.02653319686293795
7.070707070707071,2.8354430379746836,0.028011441292645774,0.02527350308315617,-8.604036031715213e-05,-0.01598548331274058,0.02674819175838106
7.171717171717171,2.8354430379746836,0.028296612000834234,0.025454733664652153,1.924800452050441e-05,-0.016125403699645914,0.02698814751011878
7.2727272727272725,2.8354430379746836,0.028200483113320383,0.025473714001074628,1.6076889332188756e-05,-0.016102259134318505,0.026940807090944166
7.373737373737374,2.8354430379746836,0.028291471838641672,0.02527333415773069,1.1486457585442938e-07,-0.016069441798911708,0.026909644677931645
7.474747474747475,2.8354430379746836,0.02862034280897728,0.025469111169769094,3.96808209512768e-05,-0.01622683619362391,0.02718215733280463
7.575757575757575,2.8354430379746836,0.028432954069629774,0.025617130462940584,3.207654017418969e-05,-0.016215025359771106,0.027134897146401347
7.6767676767676765,2.8354430379746836,0.02865915750288707,0.02568024680584416,8.864968031620784e-05,-0.016301821292619367,0.027292338176860505
7.777777777777778,2.8354430379746836,0.02872062806247919,0.026025157714428128,2.040615709245414e-05,-0.016423735733072195,0.02747227119505076
7.878787878787879,2.8354430379746836,0.028883067902074594,0.025968124750985432,-3.3619804812169e-05,-0.01645535779591801,0.027541593906674402
7.979797979797979,2.8354430379746836,0.028951385237483127,0.026243811425443405,-6.596735931887122e-05,-0.01655855899887796,0.027697268921375678
8.080808080808081,2.8354430379746836,0.029251345486098364,0.026268290239485393,1.572035242607335e-05,-0.016655890717675127,0.027879781080867173
8.181818181818182,2.8354430379746836,0.029237787937262002,0.026380419122598434,7.741793417016193e-05,-0.01668546211795813,0.027919305814350575
8.282828282828282,2.8354430379746836,0.02945857661399036,0.02665937244824108,-1.4055194996322114e-05,-0.01683538471866943,0.02816351012133397
8.383838383838384,2.8354430379746836,0.029626979190687623,0.02664556076528679,-3.858216571213078e-06,-0.016881761986792324,0.02825449300203738
8.484848484848484,2.8354430379746836,0.029657002932002022,0.0268399129729375,-6.859340261556434e-05,-0.016949074771481856,0.028353861972140515
8.585858585858587,2.8354430379746836,0.029841455250146642,0.027172835987433572,3.143215875947172e-05,-0.017104287371274063,0.028600724848326996
8.686868686868687,2.8354430379746836,0.030228668633277986,0.02730540336163087,1.0567092746304613e-05,-0.017260221598472656,0.028878223715379375
8.787878787878787,2.8354430379746836,0.030403528856633628,0.027145184007153853,-3.894760764354675e-05,-0.017264613859136243,0.028912466985483727
8.88888888888889,2.8354430379746836,0.030617457611610145,0.02733735381987335,0.00011946384777998614,-0.017386443429445047,0.02911704256120299
8.98989898989899,2.8354430379746836,0.030845520215385388,0.027781481288121246,5.920094076867937e-05,-0.01758810045105199,0.02943353684979174
9.09090909090909,2.8354430379746836,0.030807465244500547,0.02792352366443142,-5.70063943437318e-05,-0.01761929667267959,0.029471678829347325
9.191919191919192,2.8354430379746836,0.03129790295762161,0.02818294999823179,-8.535281733256593e-05,-0.01784425588675602,0.0298628870230869
9.292929292929292,2.8354430379746836,0.03150603988895788,0.02834962415662435,-2.5693189178141007e-05,-0.017956699213674668,0.030052442999044245
9.393939393939394,2.8354430379746836,0.03179355930964007,0.028658122325582923,3.6372698108512096e-05,-0.018135504490566896,0.030347629987559778
9.494949494949495,2.8354430379746836,0.03203013430727493,0.028885970789527524,-2.1540763983979907e-05,-0.018274831529040737,0.03057954676290118
9.595959595959595,2.8354430379746836,0.03241966861305519,0.028971831189877548,-5.8283255088626245e-05,-0.01841744994087982,0.030840799924764305
9.696969696969697,2.8354430379746836,0.032830593651722154,0.02954153008081882,2.69748200439833e-05,-0.01871163711976229,0.03131590797070528
9.797979797979798,2.8354430379746836,0.033061652737386885,0.029577261978937706,1.608766499256324e-05,-0.018791674414897375,0.031464502536458695
9.8989898989899,2.8354430379746836,0.0335818329834315,0.030189247853479304,6.0598624301525574e-05,-0.01913132425107324,0.032020789024549884
10.0,2.8354430379746836,0.03392006878925483,0.030446048266264455,-1.3757496275950543e-06,-0.019309835116655783,0.03232337970919629
0.0,2.9367088607594938,0.03406871926564109,0.030494828801415005,2.6296570726181003e-05,-0.01936906442011683,0.03242984010241765
0.10101010101010101,2.9367088607594938,0.033512974308906505,0.030135302833193597,5.939005240111354e-05,-0.019094483142630028,0.03195845546600699
0.20202020202020202,2.9367088607594938,0.033106966967512856,0.029843631014650984,5.9812682921028195e-05,-0.018885179394649152,0.03160209170933228
0.30303030303030304,2.9367088607594938,0.03267904534431642,0.029516542702213995,-3.739568614522155e-05,-0.018658676413959123,0.031218232743805897
0.40404040404040403,2.9367088607594938,0.03229567196721209,0.029209269294833126,-3.4368124918090647e-06,-0.018451482378613566,0.030868412599921614
0.5050505050505051,2.9367088607594938,0.03207975278507513,0.028986965840679463,4.331861542760118e-05,-0.018320015587726377,0.030650704049812082
0.6060606060606061,2.9367088607594938,0.03182626665601894,0.028655433034785772,-2.855708331720664e-05,-0.018144509907241414,0.03036531055799284
0.7070707070707071,2.9367088607594938,0.03161326126888158,0.02832369656867603,6.358775266546164e-05,-0.017981087351267282,0.03010378358030408
0.8080808080808081,2.9367088607594938,0.031392467168833954,0.02809740280820939,-5.442850753449177e-05,-0.017846960993113004,0.029881652091445207
0.9090909090909091,2.9367088607594938,0.031050270014184197,0.027898737143845536,6.793743585931444e-05,-0.01768470214740892,0.029600833219515163
1.0101010101010102,2.9367088607594938,0.030885467659173726,0.02771926369891886,-7.376970906130051e-06,-0.017581419407427776,0.02943038282602011
1.1111111111111112,2.9367088607594938,0.030427606017421407,0.02755631328163286,-2.1717791473859742e-06,-0.017395175789716277,0.029098401673470446
1.2121212121212122,2.9367088607594938,0.030466674806371146,0.027374480641901424,-8.374980959084938e-05,-0.01735234663448177,0.029044657108540855
1.3131313131313131,2.9367088607594938,0.03005871421864007,0.02712526804585824,-6.679818051306299e-05,-0.017155194679349492,0.028704863224440387
1.4141414141414141,2.9367088607594938,0.03003742803005574,0.02691780899646045,1.1978461198640702e-05,-0.017086571107954855,0.028605492546420797
1.5151515151515151,2.9367088607594938,0.029809070916996822,0.02692957701873068,-5.5712971128158044e-05,-0.01702159438071825,0.028478877576752888
1.6161616161616161,2.9367088607594938,0.029651802143487054,0.026686704567497763,-6.139950442184541e-05,-0.016901552013295445,0.028286251024653358
1.7171717171717171,2.9367088607594938,0.02941860378999238,0.026483571024102873,-3.5745706196557894e-05,-0.016770652444228575,0.028066491293098694
1.8181818181818181,2.9367088607594938,0.029314011646117646,0.026351434112847266,-6.65707193486734e-05,-0.016699633727689473,0.027950964332175893
1.9191919191919191,2.9367088607594938,0.029010351055748874,0.02629697287251217,4.8174171736877896e-05,-0.01659219717847831,0.02775344659952734
2.0202020202020203,2.9367088607594938,0.029026189898295817,0.02603703534434175,5.463582800702343e-05,-0.01651896757279127,0.027653208357476967
2.121212121212121,2.9367088607594938,0.02880483176046073,0.026103591760848255,-1.757351360234135e-05,-0.016472527056392693,0.027553714686692068
2.2222222222222223,2.9367088607594938,0.02879062802864262,0.02578634549688322,3.9460025082939244e-05,-0.016373092057657752,0.027412323254883048
2.323232323232323,2.9367088607594938,0.028535640485553005,0.02579785378312596,-4.788991130764885e-06,-0.016300048280603687,0.02727001697259172
2.4242424242424243,2.9367088607594938,0.028538048215896897,0.025569498870124278,-3.604651576012595e-05,-0.01623226412580635,0.027175720319507823
2.525252525252525,2.9367088607594938,0.028410135984018335,0.02583375389570755,3.917085772178546e-05,-0.016273166963917764,0.027213651149523607
2.6262626262626263,2.9367088607594938,0.028247190792733957,0.02549662605483545,1.4611330413298022e-06,-0.01612314505427082,0.026977280691797473
2.727272727272727,2.9367088607594938,0.028402330957716593,0.025240316448509607,1.1312085230422447e-05,-0.016092794221867858,0.026960759278891237
2.8282828282828283,2.9367088607594938,0.027910418460983535,0.025125510340941074,-4.008368726110263e-05,-0.01591077864057738,0.02662750534699911
2.929292929292929,2.9367088607594938,0.028019423389389234,0.025236956610401106,-2.722030707420361e-05,-0.0159769139999371,0.026737040160384213
3.0303030303030303,2.9367088607594938,0.028124979842980152,0.025334743104489077,-1.3333651259028093e-05,-0.016037916884240767,0.02683887280711373
3.131313131313131,2.9367088607594938,0.027774604291529184,0.02522751048174804,-1.3789368620617112e-06,-0.015900634431983165,0.026592702259664824
3.2323232323232323,2.9367088607594938,0.027778818527398143,0.025301255998550758,8.449551086642734e-05,-0.01592402235778467,0.026627030128375258
3.3333333333333335,2.9367088607594938,0.027951905999548724,0.024780074865945398,3.664454003863505e-06,-0.015819594259648236,0.026508694353729503
3.4343434343434343,2.9367088607594938,0.027676378802710885,0.024903729125027516,-6.119327973016443e-05,-0.01577403237832152,0.02639969433444212
3.5353535353535355,2.9367088607594938,0.027481909798400674,0.02482801758429137,-5.595635030260346e-06,-0.015692978214807612,0.026255753227475788
3.6363636363636362,2.9367088607594938,0.027502399153878802,0.024814246278756193,-3.414105875563586e-05,-0.0156949936297905,0.02626177771166136
3.7373737373737375,2.9367088607594938,0.02743426202610879,0.024882336476368363,-5.2265061374710354e-06,-0.015694979550743143,0.02625149414176289
3.8383838383838382,2.9367088607594938,0.027503083542477606,0.02474311528869453,1.6485495910407816e-05,-0.01567385964935164,0.02623223602674269
3.9393939393939394,2.9367088607594938,0.02754865889065562,0.024761982664160978,-3.484266892774087e-05,-0.015693192466444978,0.026266492348567275
4.040404040404041,2.9367088607594938,0.027303571113088003,0.024831312164841676,3.9993954805575155e-05,-0.015640464983378902,0.02615531227839746
4.141414141414141,2.9367088607594938,0.02732273962017501,0.02468376683575016,2.62688701384988e-05,-0.015601951936777549,0.026103531975881406
4.242424242424242,2.9367088607594938,0.027337387885487806,0.024610429565912136,1.684998960229015e-05,-0.015584345235419982,0.02608106616906159
4.343434343434343,2.9367088607594938,0.027323077639611913,0.024716213476849214,-6.201190937427078e-05,-0.015611787334938338,0.02611762425985531
4.444444444444445,2.9367088607594938,0.027388568448458824,0.024601130991748474,-2.3831884614781515e-05,-0.015596909832062189,0.02610672847233543
4.545454545454545,2.9367088607594938,0.027384768627286775,0.024681778895741104,-7.713018557157037e-05,-0.015619964256908363,0.026138645815251032
4.646464646464646,2.9367088607594938,0.02742278980134441,0.024482186679330477,-8.823907346024005e-06,-0.015571492944202465,0.02607714017084263
4.747474747474747,2.9367088607594938,0.027286511198758023,0.024653798960205725,0.00011338302881688914,-0.015582093047689123,0.02607078637640753
4.848484848484849,2.9367088607594938,0.0271847889657168,0.024366941393080294,-4.2052159843786546e-05,-0.015465519107639127,0.025891228816066904
4.94949494949495,2.9367088607594938,0.02743104933651495,0.024485530628150058,-2.071974176649188e-05,-0.0155749739893995,0.02608335038057719
5.05050505050505,2.9367088607594938,0.02732735530621851,0.02449178635484779,-4.699443199798157e-06,-0.015545742498319888,0.026025684723657065
5.151515151515151,2.9367088607594938,0.02725874231826853,0.02449219444192689,-9.245299861992625e-07,-0.015525281028058625,0.025986154136727724
5.252525252525253,2.9367088607594938,0.027259710877169368,0.024763034654204902,-5.072067053763688e-07,-0.01560682365941228,0.026101083465041128
5.353535353535354,2.9367088607594938,0.027258553468663186,0.024509910332334066,3.206087003387199e-05,-0.015530539140299176,0.025993515039238527
5.454545454545454,2.9367088607594938,0.027296715232224426,0.024561207896133676,3.819915640455644e-06,-0.01555737693850743,0.026036961071931874
5.555555555555555,2.9367088607594938,0.027480093139316153,0.024646755619273666,8.674754821780142e-05,-0.015638054627576944,0.026179104585784634
5.656565656565657,2.9367088607594938,0.027243234886152302,0.024532565712150466,2.648182671989633e-05,-0.015532740179490828,0.02599415859935467
5.757575757575758,2.9367088607594938,0.027419146540546835,0.024648747498868733,-4.075071299855435e-05,-0.015620368211824671,0.02614436291869396
5.858585858585858,2.9367088607594938,0.02738611872346273,0.024744795875845674,4.743170011008407e-05,-0.015639274379792522,0.02616576491004286
5.959595959595959,2.9367088607594938,0.027339462385527202,0.024636303538333015,5.534480530161168e-05,-0.015592729777158065,0.02609328555012327
6.0606060606060606,2.9367088607594938,0.027477965451444705,0.02461920405598031,2.8788834653345048e-05,-0.015629150852227505,0.02616602074445967
6.161616161616162,2.9367088607594938,0.027455689098088095,0.024887435135972132,4.0037000705012515e-05,-0.015702937270218067,0.026265993581821447
6.262626262626262,2.9367088607594938,0.02764064697334819,0.024767271781461347,2.9571326439321777e-05,-0.01572237562644286,0.026321898187397778
6.363636363636363,2.9367088607594938,0.027799497894406337,0.024749963809047558,3.051047248614539e-05,-0.015764838511036168,0.02640717738799074
6.4646464646464645,2.9367088607594938,0.02775366989970244,0.024999575381123247,4.928872432257896e-05,-0.015825973584247706,0.02648437817870615
6.565656565656566,2.9367088607594938,0.02770342793807983,0.024970747346011735,1.9465102721475714e-07,-0.015802252585227466,0.02644320031675756
6.666666666666667,2.9367088607594938,0.027575284856312523,0.02509677623777373,-6.394410800212151e-05,-0.015801618328225873,0.026423588424942617
6.767676767676767,2.9367088607594938,0.027952966543610264,0.025200511665809437,-4.755972540822991e-05,-0.01594604346282591,0.026683550234423523
6.8686868686868685,2.9367088607594938,0.02778743475856267,0.024991065471921932,-3.311552371098149e-06,-0.01583355006914538,0.026500138026704766
6.96969696969697,2.9367088607594938,0.02779294345089619,0.025186853880709258,1.6508224138742866e-05,-0.015893939199481632,0.02658588584239328
7.070707070707071,2.9367088607594938,0.02788934421188771,0.02508910805889884,-6.890450382775247e-05,-0.015893535681235964,0.02660026948412976
7.171717171717171,2.9367088607594938,0.028101337187276223,0.02513802393135102,-2.2019431742356263e-05,-0.015971808335588172,0.026743125597722843
7.2727272727272725,2.9367088607594938,0.028311096186249093,0.025409756308056013,1.9256680506310763e-05,-0.016116255748291532,0.026977711920297267
7.373737373737374,2.9367088607594938,0.028284414299166543,0.025496492510552905,-7.817304020521324e-06,-0.016134272042915832,0.026998630494420056
7.474747474747475,2.9367088607594938,0.028292008628435453,0.02560673444948535,3.330035671772494e-05,-0.01616962292337624,0.02704958365942632
7.575757575757575,2.9367088607594938,0.02850566972433935,0.025829885808370756,9.66895380390435e-05,-0.016300666659813032,0.02726694078982957
7.6767676767676765,2.9367088607594938,0.028641439047476788,0.025857116219892118,7.899181160865146e-05,-0.01634956658021067,0.027356099701578006
7.777777777777778,2.9367088607594938,0.02865796537335091,0.026007672361406962,-6.297946662271067e-05,-0.01639969132042736,0.02742923488293947
7.878787878787879,2.9367088607594938,0.029069888558405546,0.02604993686343867,-1.4369115826517796e-05,-0.016535947626553263,0.027683740520891773
7.979797979797979,2.9367088607594938,0.028991094853357824,0.02612190838112829,2.7529408816061902e-05,-0.016533900970345836,0.02766834343153719
8.080808080808081,2.9367088607594938,0.029083968427277698,0.026359089875839764,3.287271283577159e-05,-0.016632917490935237,0.02782184650030499
8.181818181818182,2.9367088607594938,0.02919666822866324,0.026418953733549178,-5.262498660091135e-05,-0.016684686588663726,0.027911815295513304
8.282828282828282,2.9367088607594938,0.02939185089839248,0.026497636183177596,-6.547467319527653e-05,-0.016766846124471022,0.028057154372317622
8.383838383838384,2.9367088607594938,0.029601676074067603,0.026377958171943737,-1.1299436392236833e-05,-0.0167938902738034,0.02812871332722926
8.484848484848484,2.9367088607594938,0.029880702690188218,0.026863114724199298,6.450945410083156e-05,-0.017023145224316253,0.02849222816747934
8.585858585858587,2.9367088607594938,0.02986929158013423,0.0270090088897675,1.0700249778648703e-05,-0.01706349014097052,0.028546830338476294
8.686868686868687,2.9367088607594938,0.030042003965122143,0.027175097000710552,3.330970203929774e-05,-0.017165130289749808,0.028716142777177905
8.787878787878787,2.9367088607594938,0.030468288153878968,0.027356476103387005,1.1946363069972806e-05,-0.01734742927717979,0.029037713394429978
8.88888888888889,2.9367088607594938,0.03051794401489748,0.027475531311336107,3.131997579418804e-05,-0.017398042597870075,0.029116248800632974
8.98989898989899,2.9367088607594938,0.030885059148503605,0.02761305650288962,-2.5136124978433907e-05,-0.017549434695417965,0.029386030357126492
9.09090909090909,2.9367088607594938,0.0312121524912515,0.027941275459982134,5.8594693147530186e-05,-0.01774602838537009,0.029712224538477536
9.191919191919192,2.9367088607594938,0.031199749032938956,0.02811990773963335,6.154870235313122e-05,-0.01779589703177169,0.029779705361641724
9.292929292929292,2.9367088607594938,0.03138541537324517,0.02823607270693386,-3.9611866408631346e-05,-0.01788644642405371,0.029935329243988618
9.393939393939394,2.9367088607594938,0.031890202689283276,0.028633433283563076,-1.335979422882831e-05,-0.018157090791853906,0.03039297737170936
9.494949494949495,2.9367088607594938,0.03203872341250775,0.02894749336402316,3.682141592732468e-06,-0.018295865032959272,0.030610398188564873
9.595959595959595,2.9367088607594938,0.03241658514824335,0.029448363924404947,-5.001633251909056e-05,-0.01855948472179449,0.031039220975503417
9.696969696969697,2.9367088607594938,0.03269512634755789,0.029615021360145554,9.21144906552476e-06,-0.018693044312311034,0.03126906085000713
9.797979797979798,2.9367088607594938,0.033121002283406975,0.02980867520846189,-5.441119139154701e-05,-0.01887890324756066,0.031595467903315876
9.8989898989899,2.9367088607594938,0.03356566195288044,0.030096888214463713,1.2338663165543062e-05,-0.019098765050203245,0.03197271999089968
10.0,2.9367088607594938,0.033865506527836015,0.03045759830165464,2.6956407159460008e-05,-0.0192969314488472,0.03229671829348344
0.0,3.0379746835443036,0.026143176363582255,0.023445642712117555,-1.7151356449971152e-05,-0.014876645722709943,0.024904239452115277
0.10101010101010101,3.0379746835443036,0.02583078411751609,0.02320871812640573,-0.00012534541250114743,-0.014711850673176544,0.024625632013138502
0.20202020202020202,3.0379746835443036,0.02537400179551173,0.023066692959256983,-7.207391324970089e-05,-0.014532208426430613,0.02430295386527072
0.30303030303030304,3.0379746835443036,0.025221359429835007,0.022871508312873694,2.9555014602666715e-06,-0.014427860322812609,0.024132392304500143
0.40404040404040403,3.0379746835443036,0.02483826069808264,0.022463788179570534,-9.086019980958876e-05,-0.01419061466329595,0.023740773229606014
0.5050505050505051,3.0379746835443036,0.024814792434458232,0.02229574073975838,-8.948148174846095e-05,-0.014133159952264981,0.023656580921107263
0.6060606060606061,3.0379746835443036,0.024299485911096742,0.022330284814648507,-2.384701631114665e-05,-0.013988931217723575,0.02337720899173258
0.7070707070707071,3.0379746835443036,0.02435441770652439,0.02210096324777614,-5.2760690451025255e-05,-0.01393661428629016,0.023309708250467378
0.8080808080808081,3.0379746835443036,0.02417975070331552,0.021511650100492,-2.319058960439226e-05,-0.013707420241142255,0.022962288885996853
0.9090909090909091,3.0379746835443036,0.02403820600666993,0.02146888656529374,3.8461887476946387e-05,-0.0136521277715891,0.02286218183666112
1.0101010101010102,3.0379746835443036,0.023637343414216964,0.021213047514231306,2.185284316628832e-05,-0.01345511727853448,0.022523293103073036
1.1111111111111112,3.0379746835443036,0.02342020661611115,0.021041106282275266,-4.217143408237864e-05,-0.013338393869515925,0.02232605003690659
1.2121212121212122,3.0379746835443036,0.023260525491739056,0.021020368885889325,1.4696249185632789e-06,-0.013284268313288513,0.022225281424857406
1.3131313131313131,3.0379746835443036,0.023293395315398868,0.020881642859312943,1.212881924594322e-05,-0.013252511452413544,0.02218606213799911
1.4141414141414141,3.0379746835443036,0.023027701126064004,0.020648819248442345,-1.8732254131361557e-05,-0.013102956112351906,0.021935244925438125
1.5151515151515151,3.0379746835443036,0.02286190446507632,0.020734464919330297,-4.601755275258401e-05,-0.013078910815321984,0.021876053300046917
1.6161616161616161,3.0379746835443036,0.022744692216153467,0.02050405717652599,-1.4299250763026095e-05,-0.012974624817803837,0.021711276527395157
1.7171717171717171,3.0379746835443036,0.022604658765538195,0.020353496405310385,-2.472085974629753e-05,-0.012887446551254575,0.021567415382063648
1.8181818181818181,3.0379746835443036,0.022608536821636858,0.02029892108682097,-1.8103718153162774e-05,-0.01287223737253735,0.02154679124387747
1.9191919191919191,3.0379746835443036,0.022476955100165633,0.020078471136222308,2.6242849223334815e-05,-0.012766627870916383,0.021378907493030126
2.0202020202020203,3.0379746835443036,0.022371139645170374,0.019854324484784146,-5.8821185980215635e-05,-0.012667639238986356,0.021225187960462022
2.121212121212121,3.0379746835443036,0.022322357099581004,0.019991073620194737,0.00011668404172513785,-0.01269402921593272,0.02125379053985523
2.2222222222222223,3.0379746835443036,0.022135777817262604,0.0200203060069441,-1.741839682652339e-05,-0.01264682514726201,0.021157532388849574
2.323232323232323,3.0379746835443036,0.02216232017925982,0.019739696544095638,-4.438734067037059e-05,-0.012570605017006638,0.021055937192093054
2.4242424242424243,3.0379746835443036,0.02190049432605223,0.019686274189700672,1.769224420113055e-06,-0.01247603055472587,0.020881616709329233
2.525252525252525,3.0379746835443036,0.021767396412494238,0.019803242839517645,2.651923843666932e-05,-0.012471191775603565,0.02085485665759722
2.6262626262626263,3.0379746835443036,0.021758481962584744,0.01979270639504971,-1.3799177315229461e-05,-0.012465356507290335,0.020845241421514553
2.727272727272727,3.0379746835443036,0.021594900205791804,0.01934204449779501,-4.211445965529735e-05,-0.012281083411076045,0.02056137642352908
2.8282828282828283,3.0379746835443036,0.021723006477837998,0.019499373960073386,0.00014273831869462963,-0.012366714131373415,0.020702432009437714
2.929292929292929,3.0379746835443036,0.02161916954729381,0.019322749083349487,7.238569494306557e-05,-0.012282575589192988,0.02056771874969288
3.0303030303030303,3.0379746835443036,0.02157275739363795,0.019228327039362045,-1.220071057775685e-05,-0.0122403253299,0.020501337384759854
3.131313131313131,3.0379746835443036,0.02142533305508351,0.019277537860662965,-3.8375459404460746e-05,-0.012210861274723941,0.020436367372199876
3.2323232323232323,3.0379746835443036,0.021448818112515033,0.019231122932065525,-8.140830790598449e-05,-0.012203982313374167,0.020430930270559575
3.3333333333333335,3.0379746835443036,0.021260353889833227,0.019173172796454824,-8.904347130510791e-06,-0.012130058005886415,0.020297413668305196
3.4343434343434343,3.0379746835443036,0.021311793867749534,0.019207761389030808,-3.0069459738514022e-05,-0.012155866577034104,0.020341620303522365
3.5353535353535355,3.0379746835443036,0.021348950601094294,0.019363257458217886,2.0541018256436062e-06,-0.012213662417793654,0.02042861270050988
3.6363636363636362,3.0379746835443036,0.02125043357272301,0.019115999077482276,6.548538913612003e-05,-0.012109929795061586,0.020268002965149676
3.7373737373737375,3.0379746835443036,0.021148073656237647,0.01901243993887931,-1.0467427050596481e-05,-0.012048154078535087,0.020165260729482746
3.8383838383838382,3.0379746835443036,0.021124488603783218,0.019126708763710542,9.71184799794664e-05,-0.012075359210248127,0.020200528745400338
3.9393939393939394,3.0379746835443036,0.02103532366054594,0.01900510226033247,3.0119110998147604e-05,-0.012012127776263521,0.020097338074090643
4.040404040404041,3.0379746835443036,0.02127460989017285,0.019043452224316273,1.1963111923527074e-05,-0.012095418634346737,0.02025143231755533
4.141414141414141,3.0379746835443036,0.020909409954121518,0.018897259691964062,-4.438981470252904e-06,-0.011942000893825673,0.019979473408975084
4.242424242424242,3.0379746835443036,0.02099258477944323,0.019006292788051105,1.2815247110377718e-05,-0.011999663270248298,0.020073292237767753
4.343434343434343,3.0379746835443036,0.0210313188096183,0.019037023723731186,2.5625972042326885e-05,-0.012020502760004844,0.020108527993888074
4.444444444444445,3.0379746835443036,0.02101160930490147,0.01902227341967174,-7.231736488692125e-05,-0.012010164817371964,0.020091334546346342
4.545454545454545,3.0379746835443036,0.021115063394032407,0.018892264434012682,-0.00011413677865433978,-0.012002198348413526,0.020097046499682265
4.646464646464646,3.0379746835443036,0.02117489921153081,0.01887366542373896,7.498763614664252e-05,-0.01201456939058093,0.020123630623787195
4.747474747474747,3.0379746835443036,0.02090231065600497,0.019000274578891346,0.00010491187334517454,-0.011970775570468894,0.0200200000634248
4.848484848484849,3.0379746835443036,0.020938774355457677,0.01899864635762522,1.280198024925981e-05,-0.01198122621392487,0.02003928535306388
4.94949494949495,3.0379746835443036,0.02111006785393274,0.01882205608907034,-3.839233949422893e-05,-0.011979637182900923,0.020064254308150776
5.05050505050505,3.0379746835443036,0.021040288115962737,0.018893279843245313,-7.017219176994068e-06,-0.011980070387762415,0.020053175399537215
5.151515151515151,3.0379746835443036,0.021105775121785325,0.018611908589117803,3.864926899752037e-05,-0.011915305113270939,0.019976050882241123
5.252525252525253,3.0379746835443036,0.020831105594533855,0.018855656108156014,3.981343885212772e-05,-0.01190602851080696,0.019917111222418408
5.353535353535354,3.0379746835443036,0.020896211068443523,0.019034167505425532,-1.8016905270113895e-05,-0.011979113572160716,0.020030231195936915
5.454545454545454,3.0379746835443036,0.020705828623351425,0.018924544505444747,-1.8269382220440036e-05,-0.011889111938638851,0.019875169174736917
5.555555555555555,3.0379746835443036,0.020952144992153723,0.01899345681443415,1.9163894749877524e-05,-0.011983680541976363,0.02004473053498996
5.656565656565657,3.0379746835443036,0.021065803721240325,0.01883295945374691,9.313197813524546e-05,-0.01196962895249617,0.02004352867041236
5.757575757575758,3.0379746835443036,0.02109984205475656,0.018973206171840718,-1.5562498136332037e-05,-0.012021914467979185,0.02012100793327018
5.858585858585858,3.0379746835443036,0.021083139883215495,0.018830218613061767,7.890308606004045e-06,-0.011974007548883179,0.02005183218738702
5.959595959595959,3.0379746835443036,0.020990335564260484,0.019023284527470912,3.674653432698369e-05,-0.01200408602751942,0.02007930443194457
6.0606060606060606,3.0379746835443036,0.021094037627173785,0.01916274460331258,-8.030539625197623e-05,-0.01207703466914591,0.02019823990639317
6.161616161616162,3.0379746835443036,0.020995186790737898,0.019027687570208503,-8.320343823487425e-05,-0.01200686230828392,0.020084363976773458
6.262626262626262,3.0379746835443036,0.02121750724095693,0.018864798646109827,4.123007517383269e-05,-0.012024691766120027,0.020144585857311482
6.363636363636363,3.0379746835443036,0.021278199550067503,0.01892629615496102,-5.19616663347337e-06,-0.012061348711508556,0.02020517351841583
6.4646464646464645,3.0379746835443036,0.021130106641612502,0.018901356622356005,3.1266001990719853e-05,-0.01200943897919055,0.020108653372081092
6.565656565656566,3.0379746835443036,0.021171948329301523,0.01918687029398824,5.521472757213488e-05,-0.01210764558698693,0.02025273085956645
6.666666666666667,3.0379746835443036,0.021292573687564,0.01940780222626709,2.3239393405148507e-05,-0.012210112774149327,0.02041558332955484
6.767676767676767,3.0379746835443036,0.02158232497953431,0.01926033279514548,-0.00010237442703388802,-0.012252797332403937,0.020520863794516706
6.8686868686868685,3.0379746835443036,0.021376579395888884,0.019421109369027603,-0.00011134062884282139,-0.012239306629474946,0.02046992768956711
6.96969696969697,3.0379746835443036,0.021618730156554695,0.019548714951972506,-0.00012991773969273448,-0.01235023353255816,0.02066286505445365
7.070707070707071,3.0379746835443036,0.021594080676909707,0.019428752218256466,0.00010062873683854905,-0.012306849868549852,0.020597695711282983
7.171717171717171,3.0379746835443036,0.02159653911292356,0.019411791620768303,1.9016799670717935e-05,-0.01230249922010756,0.020591302132461957
7.2727272727272725,3.0379746835443036,0.02182004507862566,0.019485798862395324,-3.5309972179019244e-05,-0.012391753182306295,0.020751709697056052
7.373737373737374,3.0379746835443036,0.021852022360445107,0.01953185437198455,-5.610659751779187e-05,-0.012415163019728897,0.020789495949231095
7.474747474747475,3.0379746835443036,0.021743228944890516,0.01974362481376517,3.8116496435850374e-05,-0.012446056127596705,0.020815689510819305
7.575757575757575,3.0379746835443036,0.022002031395013725,0.019699085379857324,1.7130445565324227e-05,-0.012510335032461316,0.020945747436792447
7.6767676767676765,3.0379746835443036,0.022069211598523184,0.019676273622014493,1.2898184424609308e-05,-0.012523645566161304,0.020975378358532176
7.777777777777778,3.0379746835443036,0.022104076599503364,0.019871905142549506,3.067625236149368e-05,-0.012592794522615861,0.021076895548433967
7.878787878787879,3.0379746835443036,0.022180409486795182,0.019911237481823368,-6.0760138394513874e-05,-0.012627494090585565,0.021137635102041755
7.979797979797979,3.0379746835443036,0.0224124745425696,0.02022771302305212,9.487520047114433e-05,-0.012792056269686516,0.021404515644875426
8.080808080808081,3.0379746835443036,0.022562248920879952,0.02005403360913953,-2.5246189817530307e-05,-0.012784884759005842,0.021418617002912414
8.181818181818182,3.0379746835443036,0.02246206813073101,0.020278445700838373,6.58949760723207e-05,-0.012822154149470815,0.021454068664882794
8.282828282828282,3.0379746835443036,0.022716821869092726,0.02027396182975132,7.791916568158667e-05,-0.012897235109653212,0.02159967034072971
8.383838383838384,3.0379746835443036,0.022684778021388196,0.020397929314572984,3.787970164104803e-05,-0.012924812200788354,0.021632301778135098
8.484848484848484,3.0379746835443036,0.022785731304862125,0.020553501220563156,-3.341085990841718e-05,-0.013001769757627584,0.021755752255250487
8.585858585858587,3.0379746835443036,0.023012587360985305,0.02068009423196042,8.922729089092164e-05,-0.013107804477883718,0.021940074837421705
8.686868686868687,3.0379746835443036,0.023318207248750132,0.020865295887850417,-2.5523293028862483e-05,-0.013255050940980164,0.022193693299657945
8.787878787878787,3.0379746835443036,0.023371042896195515,0.021125945857893763,5.254110594891711e-05,-0.013349096626226784,0.022333475530744728
8.88888888888889,3.0379746835443036,0.023608765880579467,0.021152085804170023,8.20022675357877e-06,-0.013428255505424846,0.02248132826070475
8.98989898989899,3.0379746835443036,0.02366446032192299,0.02118559401957475,8.984493662878982e-05,-0.013455016302449321,0.022528085661134786
9.09090909090909,3.0379746835443036,0.024079325565229893,0.021446799922893795,4.505697486791518e-05,-0.013657837646437106,0.022877079344317906
9.191919191919192,3.0379746835443036,0.02411750201055687,0.021723587803498454,-7.207184762958707e-05,-0.013752326944216598,0.023014453736984523
9.292929292929292,3.0379746835443036,0.02421665896951017,0.021944011948571426,-1.0170216120152166e-05,-0.01384820127542448,0.023164107765313996
9.393939393939394,3.0379746835443036,0.02454170017266691,0.02202187623561771,8.471110939444363e-05,-0.013969072922485387,0.02338429653429838
9.494949494949495,3.0379746835443036,0.02454797826063872,0.02224642159148283,5.1383715412083645e-05,-0.014038319955636466,0.023482115696092824
9.595959595959595,3.0379746835443036,0.025000687266764333,0.022518831149578363,-1.7283296937952766e-05,-0.014255855524902807,0.023856796958249705
9.696969696969697,3.0379746835443036,0.0250184053513074,0.02274806514951669,1.7637031349701996e-05,-0.014329941150247227,0.02396405000610392
9.797979797979798,3.0379746835443036,0.025507976537999504,0.02283353333188278,7.610024629405253e-05,-0.014502452960964684,0.024281829682182055
9.8989898989899,3.0379746835443036,0.025581071161790564,0.02308106393263597,5.3896924863277495e-05,-0.014598640528327959,0.024427384013273972
10.0,3.0379746835443036,0.02602242822930336,0.02353047298246416,-0.00010710990302603984,-0.014865870363530254,0.02487095299609493
0.0,3.1392405063291138,0.025987355234572653,0.023341787269728756,-1.9503673069242098e-05,-0.014798742751290422,0.024770778926482405
0.10101010101010101,3.1392405063291138,0.025646554932727623,0.022971813037043494,6.616589874631826e-06,-0.014585510390931335,0.02441930057362817
0.20202020202020202,3.1392405063291138,0.025455165401773665,0.022798084476147947,5.5765327544634724e-05,-0.014475974963376482,0.024236303751697514
0.30303030303030304,3.1392405063291138,0.025336164912206745,0.022637187331865913,9.675256379226876e-05,-0.014392005673221797,0.024100872900035295
0.40404040404040403,3.1392405063291138,0.024874043211715192,0.02248275098065466,6.125032094145749e-05,-0.014207038257710955,0.02376902296584386
0.5050505050505051,3.1392405063291138,0.024805089272571704,0.022222716589706412,1.1324224976158116e-05,-0.014108341758683434,0.02362002333348023
0.6060606060606061,3.1392405063291138,0.02445042562649106,0.0220255088621462,-1.509473688577819e-05,-0.013942780346591178,0.023332680325817073
0.7070707070707071,3.1392405063291138,0.024303001788651083,0.02185544942336316,-2.927981040767202e-05,-0.013847535363604273,0.0231764128141196
0.8080808080808081,3.1392405063291138,0.02405302555469342,0.021511936393783168,3.6760455416203195e-06,-0.013669488584542977,0.022888519621728137
0.9090909090909091,3.1392405063291138,0.02367598991097168,0.02145590502458121,0.00010589396866462206,-0.013539568480665867,0.022648448255748767
1.0101010101010102,3.1392405063291138,0.023639265789588207,0.02141590136577365,1.75293914810162e-05,-0.013516550146608556,0.022609742495413553
1.1111111111111112,3.1392405063291138,0.023499368779030548,0.021247179784271052,-7.142336717116994e-05,-0.013423964568990478,0.022458472174776235
1.2121212121212122,3.1392405063291138,0.02335002810319064,0.021063550940141038,1.666294253973338e-05,-0.013324073712999504,0.02229491684629908
1.3131313131313131,3.1392405063291138,0.023067114902881346,0.020894485719500255,-7.8281595240022e-05,-0.01318848018671448,0.022061600225760255
1.4141414141414141,3.1392405063291138,0.022899797481192505,0.0209657178070607,6.474821458513811e-06,-0.013159654586475961,0.02199662432704959
1.5151515151515151,3.1392405063291138,0.022806032646075797,0.0207449359927081,5.4173414290771093e-05,-0.013065290591635168,0.02184872104223552
1.6161616161616161,3.1392405063291138,0.022749292930779517,0.020343662957122293,-5.31148048011781e-06,-0.012927886766370543,0.021646964870444447
1.7171717171717171,3.1392405063291138,0.022602341242272513,0.02045169140610421,4.566249287971099e-06,-0.012916209794513016,0.0216074400476347
1.8181818181818181,3.1392405063291138,0.022567050705315974,0.020303711047218335,-5.427647822383596e-06,-0.012861228525760292,0.02152481524879274
1.9191919191919191,3.1392405063291138,0.0225055653010583,0.020063986236843242,-3.820943237111822e-06,-0.012770865461370462,0.021389546619282176
2.0202020202020203,3.1392405063291138,0.022306384268782547,0.01996602242180328,-3.0022805357493007e-05,-0.012681722007175747,0.021233223168920755
2.121212121212121,3.1392405063291138,0.022211138456500933,0.019740343529326312,1.570218191383236e-05,-0.012585444595748172,0.021084616917469982
2.2222222222222223,3.1392405063291138,0.022015185331159755,0.019813327333993366,-2.8026335500679296e-08,-0.012548553799545937,0.021001005974163222
2.323232323232323,3.1392405063291138,0.021954320145694938,0.01983086264217404,9.379852333939585e-06,-0.012535554836360695,0.020973374619401124
2.4242424242424243,3.1392405063291138,0.022010820887777855,0.019823471681605764,1.565050010318676e-05,-0.012550287770815086,0.021002764482847564
2.525252525252525,3.1392405063291138,0.0217837011996908,0.01965763760209323,4.1348041834002745e-05,-0.01243240164053521,0.020802436857698316
2.6262626262626263,3.1392405063291138,0.021624685732044152,0.01957002804338304,-2.080055178250744e-05,-0.012358414132628157,0.02067410511755918
2.727272727272727,3.1392405063291138,0.021543581051452956,0.019512305946424537,1.0445435465094645e-05,-0.012316766099363247,0.020603187873026323
2.8282828282828283,3.1392405063291138,0.02155309442190762,0.019502857677371706,8.437031629766423e-06,-0.012316785629783798,0.020604626113486544
2.929292929292929,3.1392405063291138,0.021472328401877763,0.01954934516847418,-4.434355982519174e-05,-0.012306502071105582,0.020578477180515205
3.0303030303030303,3.1392405063291138,0.021502541484738638,0.01941642574760493,8.833630038974074e-05,-0.01227569016970307,0.020539663797098505
3.131313131313131,3.1392405063291138,0.02148972981707838,0.019291959943773012,1.732756902178646e-05,-0.012234506928255418,0.020479504388132393
3.2323232323232323,3.1392405063291138,0.021379133722791568,0.019267580677637963,-3.564148833773277e-05,-0.012194014320128859,0.02040555441617471
3.3333333333333335,3.1392405063291138,0.021364621269918675,0.019271673773050658,1.74608945874514e-05,-0.0121908885128908,0.020398856714821476
3.4343434343434343,3.1392405063291138,0.021322785013992866,0.019096494916121455,-2.8067029320286515e-05,-0.012125783979034296,0.02030145774301812
3.5353535353535355,3.1392405063291138,0.02121416245962216,0.019251977189426058,-4.7151593604289586e-05,-0.012139841894714464,0.020304467799436093
3.6363636363636362,3.1392405063291138,0.02107850187321136,0.019115220156502015,-1.4465260149981387e-06,-0.012058116608914012,0.020168656010060584
3.7373737373737375,3.1392405063291138,0.02120875995207935,0.0191293006002903,-1.3845370026981453e-06,-0.012101418165710894,0.020249269157905318
3.8383838383838382,3.1392405063291138,0.021089111173173452,0.019199297561167564,-1.0623862073578004e-05,-0.012086522620302305,0.020210587690657575
3.9393939393939394,3.1392405063291138,0.021086676089527228,0.01904587343783989,7.5203680231929666e-06,-0.012039764858210135,0.020143962101751477
4.040404040404041,3.1392405063291138,0.021106336144441303,0.018894241088723788,1.0157791271735283e-05,-0.012000173169949528,0.020091836095549338
4.141414141414141,3.1392405063291138,0.02091999344428158,0.019031317017974378,6.191072507086871e-05,-0.011985393138676788,0.020042794832782016
4.242424242424242,3.1392405063291138,0.02114277638842552,0.01914510367251962,-2.4633261296095197e-05,-0.01208636401828354,0.02021813944342722
4.343434343434343,3.1392405063291138,0.021026862916370223,0.019028804717671228,-8.930879282661227e-06,-0.012016700290212434,0.020102451196509708
4.444444444444445,3.1392405063291138,0.02087875968420008,0.018895123837180977,3.147434361596792e-05,-0.011932165056414317,0.019961075443878252
4.545454545454545,3.1392405063291138,0.020954431273306044,0.018884990625339007,1.7129803487191696e-05,-0.011951826569593513,0.020000192575114272
4.646464646464646,3.1392405063291138,0.02086699370631973,0.018922381216137537,4.5633680635498126e-05,-0.011936812476737179,0.019965995461812623
4.747474747474747,3.1392405063291138,0.020970291907679357,0.019048297418347925,3.913246124388895e-05,-0.012005576797808185,0.0200785212122965
4.848484848484849,3.1392405063291138,0.02113173451887545,0.018810361466370516,2.965505370961214e-05,-0.01198262879557379,0.02007204463493827
4.94949494949495,3.1392405063291138,0.02100088859934179,0.018922251802674494,1.0110210270145664e-05,-0.011976942120604885,0.020042583160315836
5.05050505050505,3.1392405063291138,0.020914394385379488,0.0188614761161934,-1.2513005956520713e-06,-0.011932761150471866,0.019967243883463288
5.151515151515151,3.1392405063291138,0.02102916978376573,0.018938366238184425,-5.8220041041335e-06,-0.011990260806585046,0.020065634308521815
5.252525252525253,3.1392405063291138,0.02105080885581331,0.018758935721153124,-4.1507364520701304e-05,-0.01194292337308993,0.02000371518627948
5.353535353535354,3.1392405063291138,0.02119352101082952,0.0189836359520356,2.5580764942074993e-05,-0.012053147088859536,0.02017958479530961
5.454545454545454,3.1392405063291138,0.020913737315075363,0.01891065972282707,8.483043189526393e-06,-0.011947319111370728,0.01998762381136421
5.555555555555555,3.1392405063291138,0.021156776486536973,0.019089491953817303,2.652715037360577e-07,-0.012073880532106283,0.020202618148615972
5.656565656565657,3.1392405063291138,0.0210450743664076,0.01884114350597531,3.075941790060996e-06,-0.011965865361714872,0.020034235844005318
5.757575757575758,3.1392405063291138,0.02081791880032697,0.01885631221458144,-4.823229637252362e-05,-0.011902269304472524,0.019909898443167668
5.858585858585858,3.1392405063291138,0.021121611613869197,0.019000273819585183,5.8276937689161035e-05,-0.012036565630036314,0.020145140029702014
5.959595959595959,3.1392405063291138,0.02105477312324442,0.018869111023475767,-8.645800293231252e-06,-0.011977165244016055,0.0200514885906395
6.0606060606060606,3.1392405063291138,0.021070144977638622,0.018974363411241323,-0.00010803447051151614,-0.012013352516663984,0.020105220780875878
6.161616161616162,3.1392405063291138,0.021176167438698056,0.019048182294704875,-1.6563964706042905e-05,-0.012067304920020878,0.020196451211620083
6.262626262626262,3.1392405063291138,0.021213908324900173,0.01919223581976766,5.595402292463363e-06,-0.012121843243400349,0.020278796435538416
6.363636363636363,3.1392405063291138,0.021430815802462224,0.01910208769168437,7.222691922304489e-06,-0.012159871048243977,0.02036655233167193
6.4646464646464645,3.1392405063291138,0.021101752595124167,0.019130027881739946,1.0614906460363346e-05,-0.012069534143059233,0.020188242911962178
6.565656565656566,3.1392405063291138,0.0212977196565234,0.01929498245910484,-5.036016884818051e-05,-0.012177810634688471,0.020370510349848738
6.666666666666667,3.1392405063291138,0.02139167231127126,0.01911468807685885,0.00011713225565841352,-0.012151908116439033,0.020349962181096012
6.767676767676767,3.1392405063291138,0.021483120556612324,0.019370399516080578,-8.993266505064318e-06,-0.01225605602180787,0.020508546044645314
6.8686868686868685,3.1392405063291138,0.021484425169343395,0.019395845281558143,-5.716448922209616e-05,-0.01226408113527046,0.02052024746029987
6.96969696969697,3.1392405063291138,0.021363943895910703,0.01927743045997261,0.0001252469671680345,-0.012192412306764995,0.020402022976432493
7.070707070707071,3.1392405063291138,0.02145087964146628,0.0194007480081476,1.8538430446474572e-06,-0.012255488294884162,0.020502832987207568
7.171717171717171,3.1392405063291138,0.02162600885134364,0.019528076746507604,4.038346159795456e-05,-0.012346225679355375,0.02065721598275298
7.2727272727272725,3.1392405063291138,0.021529681018472076,0.01962570133281751,4.113428345641219e-06,-0.012346614705386874,0.020643649843562713
7.373737373737374,3.1392405063291138,0.02165292276341839,0.019556385767430073,7.421497258893276e-05,-0.012362792559254538,0.020684895492020135
7.474747474747475,3.1392405063291138,0.02188577993576164,0.01977132026613551,-8.615630918019801e-05,-0.012497130060569146,0.02090942306251935
7.575757575757575,3.1392405063291138,0.021868984533297556,0.019705834919161204,2.545232280189296e-05,-0.012472445835737629,0.020871697553821483
7.6767676767676765,3.1392405063291138,0.02199336351203471,0.019652930736023925,-3.1660153448528717e-05,-0.012493888274417591,0.020921631925573794
7.777777777777778,3.1392405063291138,0.022111750531319623,0.01987936236583371,4.9984643310253024e-05,-0.012597333869146,0.021084557232015116
7.878787878787879,3.1392405063291138,0.022221456195148086,0.01983355880855458,-6.6075409599631195e-06,-0.0126165045011108,0.021128955089305332
7.979797979797979,3.1392405063291138,0.022402810772440166,0.019844368753968424,-3.482007784158998e-05,-0.012674153857922577,0.02123955981109362
8.080808080808081,3.1392405063291138,0.02236187002025614,0.020153146631151864,-3.55799231644565e-05,-0.012754504995422399,0.021343483836228666
8.181818181818182,3.1392405063291138,0.02257528723348058,0.020227516368994062,3.884018879407387e-05,-0.012840841080742392,0.021497873052069585
8.282828282828282,3.1392405063291138,0.022762019359420016,0.02039287535488477,4.010454333464892e-05,-0.012946468414291434,0.021674886206380417
8.383838383838384,3.1392405063291138,0.02277609963818882,0.02024434608000199,0.00011605520592061723,-0.012906133715457242,0.021622613762909377
8.484848484848484,3.1392405063291138,0.022841417534228997,0.020560292415256406,-5.444454067625974e-06,-0.013020512984845621,0.021790590731261997
8.585858585858587,3.1392405063291138,0.022888394068755265,0.020801612723662738,1.4354969478223817e-05,-0.0131070020377254,0.021919643789589705
8.686868686868687,3.1392405063291138,0.023295061796741654,0.021042434418046266,-3.568376381343421e-05,-0.013301248864436377,0.022254504268181735
8.787878787878787,3.1392405063291138,0.023212346875563204,0.020900006100877173,-0.0001128326408849049,-0.013233705892932114,0.022147760717232134
8.88888888888889,3.1392405063291138,0.02363896637028385,0.0211407469309087,-8.293572528824456e-05,-0.013433913990357765,0.02249460248844801
8.98989898989899,3.1392405063291138,0.02386175027002432,0.021313575895696574,6.18351539484175e-05,-0.013552597849716269,0.022695459651328805
9.09090909090909,3.1392405063291138,0.023927412835402437,0.021443729964831567,8.60109371804101e-06,-0.013611342840070201,0.022787318449905884
9.191919191919192,3.1392405063291138,0.024156758341716444,0.02158865072866146,6.384946931265092e-05,-0.01372362272111337,0.022980844752802734
9.292929292929292,3.1392405063291138,0.024298167670376205,0.021970436426716027,-2.1260615923122586e-05,-0.013880581229127668,0.02322199467900566
9.393939393939394,3.1392405063291138,0.02438789124329726,0.022125823478102397,-1.331384554516159e-05,-0.013954114416419897,0.023339230043044213
9.494949494949495,3.1392405063291138,0.024757888705467843,0.022385796026222666,2.5261239286555676e-05,-0.01414310541950715,0.02366122956801029
9.595959595959595,3.1392405063291138,0.025129491827063227,0.022469984929613395,-3.42235790333072e-06,-0.014279843027002987,0.02391092458936161
9.696969696969697,3.1392405063291138,0.02527405600509496,0.02256869271526735,-2.5227341827583045e-05,-0.014352824616108692,0.024035875341533113
9.797979797979798,3.1392405063291138,0.02546973256813335,0.02282770516494892,4.774995802257105e-06,-0.014489231319924682,0.024256873724706935
9.8989898989899,3.1392405063291138,0.02580051565817024,0.023121762800234782,-3.588532093207278e-05,-0.014676683537521506,0.02457097847694772
10.0,3.1392405063291138,0.025984475760796624,0.023430205858736924,6.656105258961253e-05,-0.014824404485860065,0.024806434690631343
0.0,3.240506329113924,0.02599879492831203,0.023339447204352926,2.8380115527997382e-05,-0.014801472639799486,0.024776441395324228
0.10101010101010101,3.240506329113924,0.025639372635382074,0.023174063008534158,5.416517570557132e-06,-0.014644030693174867,0.02449992401057292
0.20202020202020202,3.240506329113924,0.025423861704063182,0.022899492644485854,2.219403581590331e-05,-0.01449700630456471,0.02426040912600711
0.30303030303030304,3.240506329113924,0.025153996046152677,0.022978523332302537,-5.139270373765848e-05,-0.014439755813536563,0.024140055720852507
0.40404040404040403,3.240506329113924,0.02506399049842406,0.022410095451365287,-0.00014614197013741959,-0.014242225784936802,0.023849395187486532
0.5050505050505051,3.240506329113924,0.024757485093019834,0.02231562334313589,-2.719412805383619e-05,-0.014121932530846718,0.02363141171463272
0.6060606060606061,3.240506329113924,0.024506893864910454,0.022136691401212015,-2.6638882719692847e-05,-0.013993075579836742,0.023411995542860466
0.7070707070707071,3.240506329113924,0.024195471874112775,0.021690876645638544,3.999878402255488e-05,-0.013765904555925395,0.023045580764455967
0.8080808080808081,3.240506329113924,0.024062534188657187,0.02157219726818258,1.471712710688804e-05,-0.013690419437051932,0.022919078560209843
0.9090909090909091,3.240506329113924,0.023741850740318666,0.021341064563441797,-5.085235522117068e-06,-0.013524874591128139,0.02263714251734708
1.0101010101010102,3.240506329113924,0.023813424179519215,0.021134110595613004,1.76552982777096e-05,-0.013484260432539665,0.022593255557351182
1.1111111111111112,3.240506329113924,0.023525125288981756,0.02129902741927198,-1.6836924009292003e-05,-0.013447245812476121,0.02249485831792207
1.2121212121212122,3.240506329113924,0.0232473690888908,0.021035561632945732,1.4189842696620046e-05,-0.013284879216550959,0.022224179659782302
1.3131313131313131,3.240506329113924,0.023074178881782925,0.020834472392249805,7.118916937311375e-05,-0.01317259538220982,0.02204018674465134
1.4141414141414141,3.240506329113924,0.023025364782409366,0.02087960494331143,-7.663998599353343e-05,-0.013171490917716237,0.02203139638519965
1.5151515151515151,3.240506329113924,0.02285849138389746,0.020434886738601006,6.264723814770754e-05,-0.012988013436749539,0.021748478474396243
1.6161616161616161,3.240506329113924,0.02276117913522958,0.02038013738667504,-7.208023208496539e-06,-0.012942394956571384,0.021668997981767767
1.7171717171717171,3.240506329113924,0.022578373829719684,0.020332461360819485,6.91302417459863e-06,-0.01287325055716175,0.021543402230627
1.8181818181818181,3.240506329113924,0.02260115584126622,0.02014302670332259,-5.2328910218416546e-05,-0.012823254763376642,0.021478042262737126
1.9191919191919191,3.240506329113924,0.02246751604677853,0.020090616465588056,6.847337426743737e-05,-0.012767439753709975,0.02137872693259088
2.0202020202020203,3.240506329113924,0.02238579122556664,0.01998719483416099,-3.431690012250207e-05,-0.012711895817918288,0.021288164982919924
2.121212121212121,3.240506329113924,0.022271751365925217,0.02005705917018293,7.78125781066108e-05,-0.012698643160832444,0.021251561375197382
2.2222222222222223,3.240506329113924,0.022094074909616217,0.019793192886770224,-3.874059896235702e-05,-0.012566180338915931,0.021038318538463666
2.323232323232323,3.240506329113924,0.021901127036935038,0.019912298159183824,5.565533955921861e-07,-0.012544027558835658,0.020977540676062216
2.4242424242424243,3.240506329113924,0.021916642735765608,0.019719412890278024,2.4520960144940624e-05,-0.01249081668781309,0.02090485470175852
2.525252525252525,3.240506329113924,0.02185195830415813,0.01980351901910754,1.8212254488424028e-05,-0.012496643196979702,0.020903176085090985
2.6262626262626263,3.240506329113924,0.02168232074533714,0.01940111436201128,6.7603546330308e-05,-0.012325030532204526,0.02063683109626697
2.727272727272727,3.240506329113924,0.02171349282307212,0.01942184091061545,6.288501349608819e-05,-0.012340600120106269,0.020663483135379926
2.8282828282828283,3.240506329113924,0.021790983981039645,0.019391512715659594,-1.5216396780592101e-05,-0.012354749009009772,0.02069585223963107
2.929292929292929,3.240506329113924,0.021520658340603835,0.019521176538920302,3.3599112723527135e-05,-0.01231255046385724,0.020593928349809953
3.0303030303030303,3.240506329113924,0.02138560740695149,0.01953552790302887,-4.786983158024464e-05,-0.012276340592994107,0.02052337201716333
3.131313131313131,3.240506329113924,0.021388625725630987,0.019316961940642984,0.0001104557896795964,-0.01221167629988219,0.020432612691164177
3.2323232323232323,3.240506329113924,0.02158379215274407,0.019211373447506962,-5.167743513446439e-05,-0.012238549680075308,0.020500992016109894
3.3333333333333335,3.240506329113924,0.021304940191588437,0.019264339247336112,8.970588730294151e-05,-0.012170783831677365,0.020362067408475487
3.4343434343434343,3.240506329113924,0.02118032987861497,0.018943017058320688,-6.404343651169607e-06,-0.012037004081080696,0.020155025226830374
3.5353535353535355,3.240506329113924,0.021372011355639216,0.019030327847532922,-1.3381272085213956e-05,-0.012120701760951641,0.02030271907125929
3.6363636363636362,3.240506329113924,0.02122390910739391,0.019092158568279612,5.314843237159335e-05,-0.012094820302702055,0.020242605384330425
3.7373737373737375,3.240506329113924,0.021102310857073446,0.019065713478047162,-4.400557781362171e-05,-0.012050407300536182,0.020161452102528208
3.8383838383838382,3.240506329113924,0.02110513729682111,0.019002278384412652,1.970121019859171e-05,-0.012032224704370128,0.020136257702810387
3.9393939393939394,3.240506329113924,0.021111948409565907,0.01896228166703792,7.544510513551621e-05,-0.012022269022981147,0.020123837985775963
4.040404040404041,3.240506329113924,0.02104970277201691,0.018929294236674176,-5.1246883739116666e-05,-0.011993699102607325,0.020073864312883986
4.141414141414141,3.240506329113924,0.021250490243170574,0.01882118937814341,-4.312968392641925e-05,-0.012021503886394195,0.02014613075622291
4.242424242424242,3.240506329113924,0.020947503082199483,0.019073121148832688,0.00012722480207703573,-0.01200618726930965,0.020077254048680545
4.343434343434343,3.240506329113924,0.020927540753996495,0.01894210528531814,-5.000279707345429e-05,-0.01196089381179439,0.02000902634223913
4.444444444444445,3.240506329113924,0.020987956963923627,0.01893743955965353,7.87380838580359e-06,-0.011977618957073147,0.02004153123143796
4.545454545454545,3.240506329113924,0.02090296068260566,0.01890920221853277,6.651748048769432e-05,-0.01194364887034153,0.019981157550355382
4.646464646464646,3.240506329113924,0.021019234081051,0.018761366065596235,4.644453352548969e-05,-0.01193418004399417,0.019986344945295796
4.747474747474747,3.240506329113924,0.02113473148391074,0.018896780767312535,1.4045147069977707e-05,-0.012009453675366983,0.02010938593383374
4.848484848484849,3.240506329113924,0.020895604214246258,0.018909295031263856,-3.059710662653452e-05,-0.011941469773653035,0.019976720893652815
4.94949494949495,3.240506329113924,0.021038795607392864,0.018756481057383093,4.841496116338647e-05,-0.011938582999432788,0.019995743622351198
5.05050505050505,3.240506329113924,0.021036918813422706,0.018992301119373348,-4.727325871824486e-05,-0.012008765979838815,0.02009295056795103
5.151515151515151,3.240506329113924,0.020845815374783642,0.018818382238381108,-3.0424889034906523e-05,-0.011899259283949425,0.0199097409309514
5.252525252525253,3.240506329113924,0.021002015993347535,0.019088580176899142,-5.1887277463290794e-05,-0.012027178851074002,0.020113875301837975
5.353535353535354,3.240506329113924,0.020897930896812005,0.01890270277007647,4.520158750586386e-05,-0.011940190100066543,0.019975345831306418
5.454545454545454,3.240506329113924,0.021161336201469295,0.018857011954952183,0.00011190690851125383,-0.012005504446926444,0.020109377151853142
5.555555555555555,3.240506329113924,0.020998736914452917,0.018909743594863266,-3.941582408363668e-05,-0.011972544152794855,0.020036199359637782
5.656565656565657,3.240506329113924,0.020992806254592062,0.018920388378077222,-5.376821836885919e-05,-0.011973958389800785,0.020037356023223932
5.757575757575758,3.240506329113924,0.021127823150651114,0.018981399068236784,2.3836444131875953e-06,-0.012032766665666368,0.02014057586198793
5.858585858585858,3.240506329113924,0.021139269214784474,0.01894702587879362,-2.2178930314998035e-05,-0.012025888528073429,0.020132900621379738
5.959595959595959,3.240506329113924,0.02106984927136289,0.019072468712508627,-2.44668595583293e-06,-0.012042695395161455,0.02014556000862341
6.0606060606060606,3.240506329113924,0.02110905442531571,0.018957865017268587,1.7023539608197734e-05,-0.012020075832775288,0.020119917736146634
6.161616161616162,3.240506329113924,0.02105464229896593,0.018977509642958468,4.220512921050678e-05,-0.01200964558257732,0.0200968778955119
6.262626262626262,3.240506329113924,0.021262230214782046,0.019079392837036798,-5.378286034134512e-05,-0.012102486915545654,0.020259415086947136
6.363636363636363,3.240506329113924,0.02113725740838618,0.019144166246526175,-0.00011416747979550788,-0.012084427096473708,0.02021550604960398
6.4646464646464645,3.240506329113924,0.021101487739347027,0.019204538699804232,-8.112353045085349e-05,-0.012091807931745377,0.020220348578942334
6.565656565656566,3.240506329113924,0.021325360914240178,0.01923036223036362,7.66851979711216e-05,-0.01216671694338114,0.02035929950706274
6.666666666666667,3.240506329113924,0.021338666677737633,0.01919927660147434,-3.394409965573291e-05,-0.012161382983763592,0.020353560139608658
6.767676767676767,3.240506329113924,0.021477046842228863,0.019299843823486682,4.929491193560164e-05,-0.012233067199714663,0.02047562337987718
6.8686868686868685,3.240506329113924,0.021609549716734303,0.019339931698576895,6.569190814388519e-06,-0.012284844424593358,0.02056887237963695
6.96969696969697,3.240506329113924,0.021310037210164667,0.019349312909773327,7.701466411510981e-05,-0.012197805035981397,0.020400902226519312
7.070707070707071,3.240506329113924,0.02145500647221678,0.019406923719931173,-9.319043645529071e-07,-0.012258579057644386,0.020507811184582517
7.171717171717171,3.240506329113924,0.02150419545255722,0.019289571522794622,3.778037133868078e-05,-0.012238130092605553,0.020486960668725605
7.2727272727272725,3.240506329113924,0.02169654575586444,0.019486813680648942,-2.2390020977173887e-05,-0.012355007830954015,0.02068044884526347
7.373737373737374,3.240506329113924,0.021798060203939713,0.019455079656668497,3.693835157193638e-05,-0.012375941958182464,0.020726230935672905
7.474747474747475,3.240506329113924,0.021962154550331472,0.019378096896408414,6.795044210548174e-05,-0.012402075434021966,0.020791247309307
7.575757575757575,3.240506329113924,0.02178229554842183,0.019620619386806797,-2.3814133021701536e-05,-0.012420874480568589,0.020785973046576627
7.6767676767676765,3.240506329113924,0.022021882321262835,0.01970889156976082,2.249306090730992e-05,-0.012519232167307097,0.020961353364267844
7.777777777777778,3.240506329113924,0.021880841407452938,0.020045748053713053,2.8605492910230862e-05,-0.012577976838349799,0.021023507235869755
7.878787878787879,3.240506329113924,0.02223803503359541,0.02001359706996347,-9.614095790890455e-06,-0.012675489631067663,0.02121347388658139
7.979797979797979,3.240506329113924,0.022349974533352586,0.020015429438369352,-4.7819563395545166e-05,-0.01270962119151658,0.02127912825174262
8.080808080808081,3.240506329113924,0.022219824089899216,0.01992316463552278,-7.031017862847926e-06,-0.012642896617626598,0.02116516020422313
8.181818181818182,3.240506329113924,0.022552140068822144,0.020188498838081603,2.3244150126877848e-05,-0.012822191672071123,0.021468168862641065
8.282828282828282,3.240506329113924,0.022638805531466945,0.020221133793053278,4.982620178744035e-05,-0.012857981797356066,0.02153218289334794
8.383838383838384,3.240506329113924,0.02282271059205261,0.020534904240972554,-0.00016673920282589606,-0.01300728444990755,0.021771073476348147
8.484848484848484,3.240506329113924,0.022813401180685634,0.02054881922282948,-1.492288093630143e-05,-0.013008666121054535,0.021769645294325943
8.585858585858587,3.240506329113924,0.022944434326151543,0.020822052854621746,-4.628081886197049e-05,-0.013129946154231987,0.02196044519384344
8.686868686868687,3.240506329113924,0.02332599790888346,0.020816478612591737,3.317944727659085e-05,-0.013242742956442559,0.022178055061552564
8.787878787878787,3.240506329113924,0.023228792000780523,0.020824828508448693,-1.395463498609446e-05,-0.013216086152768765,0.02212499117610347
8.88888888888889,3.240506329113924,0.023342872323925914,0.021089989925469108,-0.0001111681223945001,-0.013329858674818507,0.022302768803417566
8.98989898989899,3.240506329113924,0.023709762955267822,0.021202060675082134,-3.814073251749782e-05,-0.013473547089104986,0.022560779411223416
9.09090909090909,3.240506329113924,0.02376227436389974,0.02143272526058305,7.95774231854696e-05,-0.013558499887344836,0.022687796162952127
9.191919191919192,3.240506329113924,0.023946601586470804,0.021693475162120942,1.8877675658855924e-05,-0.013692023024577523,0.022903332825537175
9.292929292929292,3.240506329113924,0.024357314468712147,0.021873317116210204,-4.573863434527374e-05,-0.013869189475476705,0.023215335069489043
9.393939393939394,3.240506329113924,0.02448253410632405,0.022063003289781107,8.267009248706366e-06,-0.013963661218831547,0.02336691175428478
9.494949494949495,3.240506329113924,0.024761889790872276,0.022170855227665348,2.2802238579588085e-05,-0.014079823505561287,0.02357344467087531
9.595959595959595,3.240506329113924,0.024855579640400423,0.022411677460648247,-6.423971922166632e-05,-0.0141801771303146,0.02372846965328536
9.696969696969697,3.240506329113924,0.025200161418132014,0.022585133673284,2.8135675872149457e-05,-0.014335588527424803,0.023999786648467122
9.797979797979798,3.240506329113924,0.02547358509642395,0.022861916680873274,-7.808254371391294e-05,-0.014500650533189167,0.02427373235827698
9.8989898989899,3.240506329113924,0.02572801754904274,0.023220791185323,-2.6247811158943042e-05,-0.014684642620309723,0.02457057536974563
10.0,3.240506329113924,0.026120796782463495,0.02352297198504149,1.681087381266723e-05,-0.014893130630251494,0.0249236496612231
0.0,3.3417721518987342,0.02593286735189092,0.023647852545377972,3.982429995030562e-05,-0.014874215969180668,0.024869311888489114
0.10101010101010101,3.3417721518987342,0.025675662709189313,0.02332959283955232,-1.0090756182525933e-05,-0.01470157666462249,0.024586726219534862
0.20202020202020202,3.3417721518987342,0.025643761694597606,0.022956885515548843,-3.319937209114196e-05,-0.014580194163043935,0.024411544637883028
0.30303030303030304,3.3417721518987342,0.02514741867418146,0.022526447048111867,2.266945510982977e-05,-0.014302159716687997,0.023944791273633918
0.40404040404040403,3.3417721518987342,0.024891244202937785,0.022496514829466404,2.5760247373166775e-05,-0.014216327709721257,0.023784511007764284
0.5050505050505051,3.3417721518987342,0.024819378500858486,0.022301938524047805,1.2740394037565518e-05,-0.014136395107471889,0.023661323811675985
0.6060606060606061,3.3417721518987342,0.0246512127441824,0.022061156360163373,-5.332376870549542e-06,-0.014013710731303732,0.02346364712043264
0.7070707070707071,3.3417721518987342,0.024238357123743084,0.02174225855555876,-4.866057962321566e-06,-0.013794184703790551,0.02309171294304612
0.8080808080808081,3.3417721518987342,0.02418875221920968,0.02164334346773094,-2.2285537655832112e-05,-0.013749628706082186,0.02302186065425348
0.9090909090909091,3.3417721518987342,0.023894156351132394,0.021496463816231434,3.8672547332895706e-05,-0.013617186050209147,0.022790201482460956
1.0101010101010102,3.3417721518987342,0.023715462055011276,0.021227184766409467,1.0664476255309258e-05,-0.013482794046426222,0.022574418263171924
1.1111111111111112,3.3417721518987342,0.023447869894175438,0.02123859429312608,8.940825352319943e-05,-0.013405939256190455,0.022425536245744122
1.2121212121212122,3.3417721518987342,0.023377097917029827,0.020940879805658407,6.20539336873256e-05,-0.01329539331680647,0.02225946334581904
1.3131313131313131,3.3417721518987342,0.023291784676939105,0.02095798831801221,1.9317436956880274e-05,-0.013274931898485394,0.022217035718115005
1.4141414141414141,3.3417721518987342,0.023149445649904225,0.020909359617504054,9.057413828474227e-07,-0.013217641580222485,0.022114657400316404
1.5151515151515151,3.3417721518987342,0.022966332641345497,0.02083897841196343,-0.00011086877214509759,-0.013141593315992678,0.02198084215370627
1.6161616161616161,3.3417721518987342,0.02281345178189139,0.020553694029457406,-1.5839803636541549e-06,-0.013010143743404638,0.02177170687629802
1.7171717171717171,3.3417721518987342,0.02260747608987786,0.020383485043869057,3.365471174619315e-05,-0.012897288340124075,0.021581674746164816
1.8181818181818181,3.3417721518987342,0.02257752306536736,0.0204380459893248,-3.2941372444403127e-05,-0.012904670716407647,0.02158752121703617
1.9191919191919191,3.3417721518987342,0.02229092902558012,0.020246370061619643,3.4083646932293e-05,-0.012761189726159928,0.021342307853446152
2.0202020202020203,3.3417721518987342,0.02238931472261748,0.02018754694198684,4.558363671249153e-05,-0.012773058499381297,0.021373800713148525
2.121212121212121,3.3417721518987342,0.022274670300446504,0.019879412088060818,-5.722933274666906e-05,-0.012646224716552195,0.02117910379411382
2.2222222222222223,3.3417721518987342,0.022122857635912718,0.01986987463157065,-2.9342301266326184e-05,-0.01259781968024501,0.02108688983817804
2.323232323232323,3.3417721518987342,0.021960922474417322,0.019917084961655392,3.1396410806759936e-05,-0.012563402230821814,0.02101375234796738
2.4242424242424243,3.3417721518987342,0.021989320514007815,0.019583844030765997,-3.550467144797213e-05,-0.012471949363432143,0.02089079994029347
2.525252525252525,3.3417721518987342,0.021918894866209977,0.01959650903663051,9.602184989793658e-06,-0.012454621170852146,0.020854917258669215
2.6262626262626263,3.3417721518987342,0.021898230623900904,0.01960534693565428,-2.2826439804475104e-05,-0.012451073267866554,0.02084661333179651
2.727272727272727,3.3417721518987342,0.02180612070231697,0.019736197040802757,-1.652903542353176e-05,-0.012462695322935919,0.020848388390184706
2.8282828282828283,3.3417721518987342,0.02162054019604008,0.019397186507994293,0.00010661547748788934,-0.012305318011210313,0.02059987992169963
2.929292929292929,3.3417721518987342,0.021501581896071587,0.01942046689305762,5.9793426208940416e-05,-0.012276614636738762,0.020540509360243445
3.0303030303030303,3.3417721518987342,0.021568974339108257,0.019521418875291505,-2.119312468181567e-05,-0.01232711796431993,0.020621610354362562
3.131313131313131,3.3417721518987342,0.021271693743248377,0.019204761723912202,-7.92357997834399e-05,-0.012142936640148174,0.020317698017038695
3.2323232323232323,3.3417721518987342,0.021388505803471815,0.019256701823567375,1.7207137797613272e-05,-0.012193562288111756,0.02040631165043323
3.3333333333333335,3.3417721518987342,0.02143697241164838,0.019221328779983518,4.5046698968608756e-05,-0.01219749035748957,0.020419653745583705
3.4343434343434343,3.3417721518987342,0.021272074090127255,0.019232825914614258,7.700776679307046e-06,-0.012151470001422452,0.02032930910890509
3.5353535353535355,3.3417721518987342,0.021063881462050196,0.01907215243860499,1.8975902125018114e-06,-0.012040810170196557,0.020142009668806807
3.6363636363636362,3.3417721518987342,0.021217801124455794,0.019187900217088247,8.115691254331781e-05,-0.012121710402463213,0.020279677212154363
3.7373737373737375,3.3417721518987342,0.021314263157647693,0.019023322475691502,-4.9694802848744146e-05,-0.012101275690001759,0.020266324760750656
3.8383838383838382,3.3417721518987342,0.021140993021840575,0.019099988476484267,4.082059872024009e-05,-0.012072294449497452,0.020198104406517804
3.9393939393939394,3.3417721518987342,0.021141280041792325,0.019052771266358348,3.460851337716505e-05,-0.012058215392445202,0.020178340741174812
4.040404040404041,3.3417721518987342,0.021062066684046112,0.018932926967047698,3.897542441850065e-05,-0.011998498095328143,0.020082439181776685
4.141414141414141,3.3417721518987342,0.021335013397252807,0.018925019390390322,-7.087481992404203e-05,-0.01207800983629294,0.020238297435077327
4.242424242424242,3.3417721518987342,0.020868435804930755,0.01898018919458203,2.2430010836055517e-05,-0.011954587499853835,0.019991344235699288
4.343434343434343,3.3417721518987342,0.020946193952267905,0.01910330529802164,-3.736675114373181e-05,-0.012014849775086862,0.020088353972288794
4.444444444444445,3.3417721518987342,0.020830705815307722,0.01886972564008381,3.490211798433887e-05,-0.01191012943661746,0.019922821119141124
4.545454545454545,3.3417721518987342,0.02104191830885625,0.01884824378461274,-2.7148249859382623e-05,-0.011967048628040697,0.020035409279122677
4.646464646464646,3.3417721518987342,0.020895141769283327,0.019097167731995726,9.479467168928316e-07,-0.011997692850383714,0.020056688173434888
4.747474747474747,3.3417721518987342,0.021021329325263963,0.018834542908440336,1.4818043648075264e-05,-0.01195676167011129,0.020017737702477674
4.848484848484849,3.3417721518987342,0.020941762883436188,0.01900456230747575,-1.5150666398922336e-05,-0.01198389755727358,0.02004351446843154
4.94949494949495,3.3417721518987342,0.021069854482211117,0.018764304281049634,6.090518429037796e-05,-0.011950247628978226,0.020017188881462426
5.05050505050505,3.3417721518987342,0.02102999247386861,0.018853425649285167,3.620420946022198e-05,-0.011965025436946133,0.020030695816354797
5.151515151515151,3.3417721518987342,0.021076645709287085,0.01901758125197544,-3.2006086088258855e-05,-0.012028268088378757,0.02012634199012505
5.252525252525253,3.3417721518987342,0.021152082299737324,0.018823610622975932,-6.800072239020218e-05,-0.011992707876813977,0.020089654395225753
5.353535353535354,3.3417721518987342,0.021186824571376627,0.01892780011905796,-2.3728723171398477e-05,-0.012034387407130375,0.020152539822008698
5.454545454545454,3.3417721518987342,0.021114752564604735,0.018951198067109088,1.2196731297740361e-05,-0.012019785189514147,0.020120419288231065
5.555555555555555,3.3417721518987342,0.021016928952612892,0.019073301167307388,-0.0001221114394226079,-0.012027069035976083,0.020116775042332533
5.656565656565657,3.3417721518987342,0.021141776650038344,0.018923888524672184,-4.4606503970799906e-05,-0.012019699552413157,0.02012485084407019
5.757575757575758,3.3417721518987342,0.021071267738713463,0.019069178427435912,1.5433962673261676e-05,-0.012042133849844813,0.020144995419054932
5.858585858585858,3.3417721518987342,0.021013930097118334,0.018923077764932676,3.356522389321342e-05,-0.011981102358615303,0.020050518116058763
5.959595959595959,3.3417721518987342,0.021092551057084265,0.01907487724907589,2.1349332560709598e-06,-0.012050228491848046,0.020159584409235504
6.0606060606060606,3.3417721518987342,0.02092597803373151,0.01906830585703777,-6.899289008071771e-05,-0.011998285167230784,0.020062107951996307
6.161616161616162,3.3417721518987342,0.02117106562654521,0.01891183071313574,3.192163767878813e-05,-0.012024868901904285,0.020136802340807107
6.262626262626262,3.3417721518987342,0.021217706963656827,0.019091937680935492,-1.4583402162588513e-05,-0.012092893393377694,0.020238741861902006
6.363636363636363,3.3417721518987342,0.021184069869483017,0.019062407944304655,-4.193150402559166e-05,-0.012073943344136301,0.020207080587026395
6.4646464646464645,3.3417721518987342,0.021156053132229628,0.018949617520343888,1.737805745163508e-05,-0.012031701195772055,0.0201436932858864
6.565656565656566,3.3417721518987342,0.021272869052888242,0.019346818940551024,1.97450988187735e-05,-0.01218590639803178,0.020378252735558468
6.666666666666667,3.3417721518987342,0.02136677615838054,0.01936004580046768,-1.1288007689006244e-05,-0.012218046587654465,0.0204374439209337
6.767676767676767,3.3417721518987342,0.021309288299547844,0.01915234409286998,4.857276741625424e-05,-0.012138489717725347,0.020317044768839616
6.8686868686868685,3.3417721518987342,0.021456126360998928,0.019281922823401347,8.509219885932383e-06,-0.01222141475532008,0.02045587325990508
6.96969696969697,3.3417721518987342,0.021379967071438733,0.01924775932611325,6.414778474049837e-06,-0.012188317919265593,0.020397619809885997
7.070707070707071,3.3417721518987342,0.02146525367942261,0.019385883385725007,1.0996881631877423e-05,-0.012255341119544285,0.02050480549253809
7.171717171717171,3.3417721518987342,0.021594019392519436,0.01941672519287399,1.3601994544349017e-05,-0.012303223375618028,0.02059189902434251
7.2727272727272725,3.3417721518987342,0.021780708500893014,0.0194973963837,-3.3664406916281996e-05,-0.012383431465377903,0.020733644669018874
7.373737373737374,3.3417721518987342,0.021757740739722847,0.019657400868081782,6.393237503566438e-07,-0.012424542482341388,0.020787305272861514
7.474747474747475,3.3417721518987342,0.02190687835456431,0.019834927352985254,6.030954495860845e-06,-0.01252254171226487,0.020947898003466817
7.575757575757575,3.3417721518987342,0.022031229733581608,0.019865512106155135,-1.556974065199944e-05,-0.012569022551921022,0.021032182984135717
7.6767676767676765,3.3417721518987342,0.02211180666999569,0.01981655241306971,-9.586753606920133e-06,-0.01257850772491962,0.021058210836752134
7.777777777777778,3.3417721518987342,0.02202465887899303,0.01979531915797044,6.822980168127807e-05,-0.01254599341108904,0.020999263638621618
7.878787878787879,3.3417721518987342,0.022071597690857505,0.020050938224577836,-7.350858577873251e-06,-0.012636760774630601,0.02113384651692989
7.979797979797979,3.3417721518987342,0.022274205406410907,0.020202865478813916,-5.634120933950953e-05,-0.012743121265567446,0.021314378892298414
8.080808080808081,3.3417721518987342,0.022412611117546128,0.02008183789212453,-2.4950883869026563e-05,-0.012748334702901197,0.02134293313183427
8.181818181818182,3.3417721518987342,0.022640606069270267,0.02045340848976689,4.8864473570824074e-05,-0.012928204367711147,0.02163026955108969
8.282828282828282,3.3417721518987342,0.022730126689890336,0.020468517267926693,-4.120929624515543e-05,-0.012959593187345108,0.021688060366247312
8.383838383838384,3.3417721518987342,0.022817672403330477,0.020487745842124566,7.457476671467734e-05,-0.012991625473636513,0.02174690586902879
8.484848484848484,3.3417721518987342,0.022840378141154177,0.020575705775620547,-5.6569904960475216e-05,-0.013024825175032416,0.021796679605434324
8.585858585858587,3.3417721518987342,0.023043461556479978,0.020779246000338286,5.037511024026283e-05,-0.013146812267045479,0.02199909183173944
8.686868686868687,3.3417721518987342,0.023168160850406037,0.02081274228050453,-5.892058192957652e-06,-0.01319427093927317,0.022084860463250876
8.787878787878787,3.3417721518987342,0.02332969152041823,0.020938654803956874,1.8370549520955055e-05,-0.01328050389731253,0.022230844033449847
8.88888888888889,3.3417721518987342,0.02329642101177462,0.02142390025748117,3.209680145403386e-05,-0.013416096380776737,0.022418956815645957
8.98989898989899,3.3417721518987342,0.02374672356459783,0.021150586959927567,7.63570420607639e-05,-0.013469193157357619,0.022561350984152368
9.09090909090909,3.3417721518987342,0.023867164237711326,0.021355839321096002,-2.180213972903905e-06,-0.013566901067642198,0.022715855511241122
9.191919191919192,3.3417721518987342,0.023934940601680065,0.021710123180315705,-1.2663857025326112e-06,-0.013693519134598731,0.022903718609553744
9.292929292929292,3.3417721518987342,0.024227004748821435,0.02192431286250578,-8.194380159037459e-06,-0.013845395283398164,0.02316167142503919
9.393939393939394,3.3417721518987342,0.02431106509632107,0.022070395999089245,3.840829705233913e-05,-0.013914438328623095,0.023271868369999425
9.494949494949495,3.3417721518987342,0.024699334911225904,0.022315724241254803,-5.565817423511635e-05,-0.014104517745744212,0.023598187221572604
9.595959595959595,3.3417721518987342,0.025029018316402498,0.022414856424878983,-3.0617730848595335e-05,-0.014233162422384442,0.02382978192827725
9.696969696969697,3.3417721518987342,0.02503635575510691,0.02282814820856502,1.2096746629589184e-05,-0.014359351189101578,0.02400854554824973
9.797979797979798,3.3417721518987342,0.025414282384601222,0.0229478926473029,-1.2477901359815524e-05,-0.014508652509571236,0.02427525013878101
9.8989898989899,3.3417721518987342,0.02563505785159833,0.023168541731491653,-2.2666378415732404e-05,-0.014641079874926993,0.024495145451473365
10.0,3.3417721518987342,0.026206003693000402,0.023601957644308412,-7.79552816415733e-05,-0.014942388401192644,0.02500624474187
0.0,3.4430379746835444,0.025927188645736142,0.023469250175551,5.955843625782347e-05,-0.014818931646386143,0.0247899935421672
0.10101010101010101,3.4430379746835444,0.02572454901919261,0.023292157715284242,-4.1989550718407727e-05,-0.014705012020343054,0.024598822527349403
0.20202020202020202,3.4430379746835444,0.025358240371316086,0.023063477745165362,-1.3724065325356287e-06,-0.014526515434944435,0.024292285887114032
0.30303030303030304,3.4430379746835444,0.025067258950739694,0.02260320676001817,1.9655048299423147e-05,-0.014301139713227358,0.02393059023784946
0.40404040404040403,3.4430379746835444,0.02499257353239344,0.02229981229588754,3.319474134807206e-05,-0.014187715748484292,0.02376097572308277
0.5050505050505051,3.4430379746835444,0.02463346679038275,0.022068899840947735,8.04855596243391e-06,-0.014010709989399144,0.023456570706481432
0.6060606060606061,3.4430379746835444,0.02441396002698455,0.02188836828283893,-1.3784006147313738e-05,-0.013890698492947042,0.02325426696259676
0.7070707070707071,3.4430379746835444,0.024265071199080883,0.021958800883204444,-4.2205757046081036e-05,-0.0138671616246856,0.02319819160247351
0.8080808080808081,3.4430379746835444,0.02419631672948814,0.021725410310042235,-5.8566618162559594e-05,-0.013776518111859112,0.023060584936636295
0.9090909090909091,3.4430379746835444,0.023968425456984462,0.02149419499678089,4.580719591814745e-06,-0.013638786136129606,0.02283208027879646
1.0101010101010102,3.4430379746835444,0.023627593981657525,0.0212333280310901,-2.1007181195016213e-05,-0.013458276603824286,0.02252612454340463
1.1111111111111112,3.4430379746835444,0.023589866282794004,0.02133643505475177,-1.5129395642820013e-05,-0.013477890401263732,0.022547777914651953
1.2121212121212122,3.4430379746835444,0.02350651583602847,0.02086013133480369,2.5372126956812318e-06,-0.013309994151249649,0.02230139856161187
1.3131313131313131,3.4430379746835444,0.023245748737610726,0.020767310424260183,-5.3024560846318185e-05,-0.013203917748561273,0.022111145862744406
1.4141414141414141,3.4430379746835444,0.023085303566523694,0.020781364767409896,4.595028909533332e-05,-0.013160000500180076,0.02202404555161434
1.5151515151515151,3.4430379746835444,0.02302191718369964,0.020512734040545128,7.676440684772581e-07,-0.013060395367273431,0.021875522076202192
1.6161616161616161,3.4430379746835444,0.022655034440125142,0.02060038455887408,2.33948972320926e-05,-0.012976625699699765,0.02170082140747877
1.7171717171717171,3.4430379746835444,0.02261238190718177,0.020362234251885884,2.552720762561897e-05,-0.012892384847720297,0.02157553560801591
1.8181818181818181,3.4430379746835444,0.0226853503639353,0.02046648504553215,-7.38990676167401e-05,-0.012945550622840233,0.021661697313320932
1.9191919191919191,3.4430379746835444,0.022509463413274727,0.020192618914683543,8.029020520473194e-05,-0.012810624698387481,0.021445561887254813
2.0202020202020203,3.4430379746835444,0.022326294655512374,0.020125120563218243,-1.4519306888508505e-05,-0.012735424565619184,0.021311151341199895
2.121212121212121,3.4430379746835444,0.02224026943491473,0.02004133420020196,-2.8021491011330246e-05,-0.012684481090535006,0.021226453877791263
2.2222222222222223,3.4430379746835444,0.022053569522481362,0.01980692137950986,0.00011727582460518605,-0.012558147270597364,0.02102146537244183
2.323232323232323,3.4430379746835444,0.021951981271259753,0.019698669113334163,-5.475614608461803e-05,-0.012495195115378175,0.020916769010349376
2.4242424242424243,3.4430379746835444,0.021908242941116946,0.019799748237004172,4.997282885596333e-05,-0.012512397353436334,0.02093396609143577
2.525252525252525,3.4430379746835444,0.021600505228633923,0.019470385384124867,1.3679239176423744e-05,-0.012321267183827636,0.020618150576859007
2.6262626262626263,3.4430379746835444,0.021713704702755573,0.019563358078550405,-5.555065466864514e-05,-0.012383118834391794,0.020722601876739417
2.727272727272727,3.4430379746835444,0.02176508094643234,0.019769616477507662,3.0408948132724707e-05,-0.012460409227182001,0.020839192774001526
2.8282828282828283,3.4430379746835444,0.021686955816883784,0.019340394168704717,-1.7207581857769977e-06,-0.012308204995676551,0.02061408824735033
2.929292929292929,3.4430379746835444,0.021615821690031494,0.019429278460837737,-3.5610907740757276e-05,-0.01231353004526077,0.02060981791474203
3.0303030303030303,3.4430379746835444,0.02171494739262956,0.019358906571650205,3.875492782522488e-05,-0.012322156189283928,0.02063814603993363
3.131313131313131,3.4430379746835444,0.021492194528208046,0.019142575527004182,-5.563427984893991e-05,-0.012190431016563667,0.020419254442006197
3.2323232323232323,3.4430379746835444,0.021533414000170708,0.01930438099999494,5.533995125405853e-05,-0.012251338500049695,0.020510168301025894
3.3333333333333335,3.4430379746835444,0.021272639031693533,0.01920980094420966,5.6802666967878756e-05,-0.012144731992770958,0.020320141287918148
3.4343434343434343,3.4430379746835444,0.02115504780305308,0.019176750878983476,1.4165125305807433e-05,-0.012099539604610967,0.02023856077452751
3.5353535353535355,3.4430379746835444,0.021205113094141154,0.019226349599586367,-6.984875664204412e-05,-0.012129438808118256,0.02028859431208876
3.6363636363636362,3.4430379746835444,0.02117312361064512,0.01901989326231235,1.2485350572804859e-05,-0.01205790506188724,0.02018284964243488
3.7373737373737375,3.4430379746835444,0.021212500957105945,0.019114338907613833,6.728155981818746e-05,-0.012098051959415932,0.020245463609979635
3.8383838383838382,3.4430379746835444,0.021119847106497253,0.019135692329432782,2.0720225827522214e-05,-0.01207666183077901,0.020201016173381364
3.9393939393939394,3.4430379746835444,0.02112297043597959,0.019039809546533996,-1.679512657822489e-05,-0.012048833994754076,0.020162285080770625
4.040404040404041,3.4430379746835444,0.02112246159967591,0.01896919015545374,1.0458037650577277e-05,-0.012027495526538895,0.02013238427657487
4.141414141414141,3.4430379746835444,0.02106246223222784,0.018818927923441302,-1.1265256602512867e-05,-0.011964417046700744,0.020035138770450822
4.242424242424242,3.4430379746835444,0.021082252276501495,0.019047871969037917,1.1047567846143338e-05,-0.012039037273661823,0.020142271757759105
4.343434343434343,3.4430379746835444,0.02113117015234348,0.019045212156947842,-3.696647904886372e-05,-0.012052914692787397,0.02016935643485484
4.444444444444445,3.4430379746835444,0.02107441464825523,0.019081084484268134,-3.5845926456029427e-07,-0.012046649739757009,0.020151825026235116
4.545454545454545,3.4430379746835444,0.02102977136729086,0.018839524206365373,-3.134043421786066e-05,-0.01196078867209687,0.020024760074038306
4.646464646464646,3.4430379746835444,0.020974952325314815,0.01895448683559796,-9.601113410682623e-06,-0.011978831748273832,0.02004125782147287
4.747474747474747,3.4430379746835444,0.020951557120886432,0.018942083698024574,5.476008610586328e-05,-0.0119680922456733,0.020022815187331993
4.848484848484849,3.4430379746835444,0.020988124928176106,0.018979944260501508,-9.87732352373575e-06,-0.011990420756603283,0.020059574361082706
4.94949494949495,3.4430379746835444,0.020921136171356748,0.01894948552424364,2.8854832045630808e-05,-0.011961186508680118,0.02000836502836035
5.05050505050505,3.4430379746835444,0.021069550752902483,0.01892919721015339,1.4504706937463273e-06,-0.011999624388916762,0.020085089019732556
5.151515151515151,3.4430379746835444,0.020991463209300877,0.018777160371399707,2.218757427885647e-05,-0.011930587074210176,0.019976603440892388
5.252525252525253,3.4430379746835444,0.021018418267443842,0.018812615678221057,7.015464940665533e-05,-0.011949310183699468,0.02000729254838455
5.353535353535354,3.4430379746835444,0.021001093960182,0.018921879852939225,4.565575385580003e-05,-0.011976892143936367,0.02004269346525534
5.454545454545454,3.4430379746835444,0.021061338908907355,0.01888874241121484,1.5878601557137934e-05,-0.011985024396036657,0.020063477699975036
5.555555555555555,3.4430379746835444,0.02086777827628499,0.018990978313762348,-5.702345872812931e-05,-0.011957626977014201,0.01999579100273831
5.656565656565657,3.4430379746835444,0.02109516183946242,0.019022199497605762,4.8848998316369185e-05,-0.012035208401120455,0.020139034447788196
5.757575757575758,3.4430379746835444,0.021081042351439712,0.019007103183888062,1.0309503112055298e-06,-0.012026443660598332,0.020124382575796188
5.858585858585858,3.4430379746835444,0.021078242787856458,0.018853702694936466,6.413412272594982e-05,-0.011979583644837878,0.020059008974424346
5.959595959595959,3.4430379746835444,0.02095579083450142,0.018999622082047137,4.1651226982171446e-05,-0.011986623874964566,0.020049536327510425
6.0606060606060606,3.4430379746835444,0.021021368605658865,0.01894432643595722,5.768771248890099e-06,-0.011989708512484824,0.020063645556255935
6.161616161616162,3.4430379746835444,0.021179447629346454,0.01895663394016569,-0.00015539753571941045,-0.012040824470853643,0.020161953815133173
6.262626262626262,3.4430379746835444,0.021096150425534053,0.01900531421420549,-1.2925272015324234e-05,-0.012030439391921862,0.020132338781125067
6.363636363636363,3.4430379746835444,0.02128574944761137,0.01919933612625495,2.2582239764502216e-05,-0.012145525672159896,0.020323063468978494
6.4646464646464645,3.4430379746835444,0.021187374575228082,0.019086372292615693,6.072074053413984e-05,-0.012082124060353132,0.02021918372888577
6.565656565656566,3.4430379746835444,0.021253383697951714,0.019138587561737072,-5.241252388441995e-05,-0.012117591377906635,0.02027906183239679
6.666666666666667,3.4430379746835444,0.021277296894909536,0.019256928348499503,-3.934977561381336e-05,-0.01216026757302271,0.02034261330392114
6.767676767676767,3.4430379746835444,0.021415154422499888,0.019355731760237905,4.376303476196016e-05,-0.012231265854821337,0.020463454056377024
6.8686868686868685,3.4430379746835444,0.021526080788680024,0.019248932476441542,-5.779489620485424e-05,-0.012232503979536468,0.020482907527246706
6.96969696969697,3.4430379746835444,0.021332531441005383,0.01935227154433832,8.592211956633403e-05,-0.01220544089560311,0.020415105149489465
7.070707070707071,3.4430379746835444,0.021459597127766475,0.01935947706107567,-6.769459403269672e-05,-0.012245722256652644,0.020490749871676768
7.171717171717171,3.4430379746835444,0.021734151739252666,0.019636271355168745,4.8549259796041836e-05,-0.012411126928326422,0.020765015637465394
7.2727272727272725,3.4430379746835444,0.021690503999282726,0.019542258458874914,-2.60449029289067e-05,-0.012369828737447292,0.02070020360213954
7.373737373737374,3.4430379746835444,0.02182360956214044,0.01955324869105564,4.042380019288738e-05,-0.012413057475958823,0.02078176859270767
7.474747474747475,3.4430379746835444,0.02188563484779776,0.019643046262988195,-2.0009937475613988e-05,-0.012458604333235786,0.02085499802358345
7.575757575757575,3.4430379746835444,0.022035223028322413,0.01972832940164208,7.14198949477538e-06,-0.012529065728989347,0.020977131585854486
7.6767676767676765,3.4430379746835444,0.02193613920396157,0.019676212616469454,1.7947806081352864e-05,-0.012483705546129306,0.02089804712200884
7.777777777777778,3.4430379746835444,0.022267463975195807,0.019970848808283016,5.9086098940331103e-05,-0.012671493835043646,0.02121285155557079
7.878787878787879,3.4430379746835444,0.022073203445023625,0.019923053272003395,9.749352595028501e-06,-0.012598877015108105,0.021080536972172735
7.979797979797979,3.4430379746835444,0.022244256000740134,0.020153210418707743,-4.848766897463455e-05,-0.012719239925834363,0.021276106236310797
8.080808080808081,3.4430379746835444,0.022366620665549317,0.02012028684341276,4.668433297993311e-05,-0.012746072252688622,0.021332495808741365
8.181818181818182,3.4430379746835444,0.022462252541455684,0.02038160378056934,-9.747368942789693e-05,-0.012853156896607506,0.021498240252299867
8.282828282828282,3.4430379746835444,0.02263320163274702,0.020557553484674095,2.640301166139798e-06,-0.012957226535226333,0.021670062049813775
8.383838383838384,3.4430379746835444,0.02278484653774113,0.020342235195524107,-1.9003241464604084e-05,-0.01293812451997957,0.021667075038023453
8.484848484848484,3.4430379746835444,0.022751653813009705,0.020661954869354314,-7.309591467825396e-05,-0.013024082604709206,0.02178248183749781
8.585858585858587,3.4430379746835444,0.022853062872959712,0.020715953544262075,-2.1968974816923875e-05,-0.013070704925166536,0.021863020674433437
8.686868686868687,3.4430379746835444,0.023346941767872647,0.02083049072553283,-1.0736689352959715e-05,-0.013253229748021641,0.02219597093265384
8.787878787878787,3.4430379746835444,0.02324206088458999,0.021088813694669768,1.6929153256335773e-05,-0.013299262373777926,0.022243759239950412
8.88888888888889,3.4430379746835444,0.023517675596468036,0.021048384323735986,-4.814078990011712e-05,-0.013369817976061207,0.02238556290004684
8.98989898989899,3.4430379746835444,0.023757105646429164,0.02140928308939986,-8.30441459256553e-06,-0.013549916620748706,0.02267454691539354
9.09090909090909,3.4430379746835444,0.023817895872189684,0.021366804876414666,0.00011354384197665975,-0.013555410224581305,0.022692704936819696
9.191919191919192,3.4430379746835444,0.0239645881397264,0.02152719045892473,3.8215339780770596e-05,-0.013647533579595337,0.022843719965113824
9.292929292929292,3.4430379746835444,0.02409771395621614,0.021900308747364712,3.262378478795017e-05,-0.013799406811074255,0.023077676623367054
9.393939393939394,3.4430379746835444,0.024375904728086987,0.021956214754153467,-2.4840031794822345e-05,-0.013899635844672137,0.02326068248543357
9.494949494949495,3.4430379746835444,0.024629850283770294,0.02225729610976063,-2.999301266522539e-05,-0.014066143918059276,0.023533499165147208
9.595959595959595,3.4430379746835444,0.024894469179806516,0.02242200255177656,4.433649287911259e-05,-0.01419494151947492,0.023755059247984815
9.696969696969697,3.4430379746835444,0.025318988029035826,0.022831103332159736,-3.173315162351053e-05,-0.014445027408358669,0.024171326467538317
9.797979797979798,3.4430379746835444,0.025268631868407013,0.022858725507113816,1.3051081831676302e-05,-0.014438207212656248,0.02415402408466624
9.8989898989899,3.4430379746835444,0.025866023843549715,0.023345941143553962,1.0242225876785181e-05,-0.014763589496131102,0.02470258694537205
10.0,3.4430379746835444,0.026146723975946497,0.023424890488531584,6.247163640618382e-06,-0.014871484339343424,0.02489764326969088
0.0,3.5443037974683542,0.015427225070529994,0.014014767983108613,-2.604073422709365e-05,-0.008832597916091582,0.014771799124344957
0.10101010101010101,3.5443037974683542,0.015227156789748966,0.013825525989205955,3.1438244146883677e-06,-0.008715804833686476,0.014576969866550283
0.20202020202020202,3.5443037974683542,0.015230227748613151,0.01370301430461854,2.867090706510609e-05,-0.008679972615969507,0.014527039466735742
0.30303030303030304,3.5443037974683542,0.01522521327757141,0.01370362920683524,-7.642099735658294e-05,-0.008678652745321995,0.014524923956484326
0.40404040404040403,3.5443037974683542,0.0152179129714977,0.013348518722816047,-1.0259445282990455e-05,-0.008569929508294124,0.014374684234718995
0.5050505050505051,3.5443037974683542,0.01488500387486183,0.01330255128948428,-1.5084047060804418e-05,-0.008456266549303832,0.014160274229686267
0.6060606060606061,3.5443037974683542,0.014636440502767979,0.013424152149030484,-8.818812205663193e-06,-0.00841817779553954,0.014069530219461605
0.7070707070707071,3.5443037974683542,0.014629272179437125,0.013205930447309978,1.255918568490578e-05,-0.00835056078802413,0.013972098116684676
0.8080808080808081,3.5443037974683542,0.01417789976825407,0.013026089197296338,3.968646551747828e-05,-0.008161196689665123,0.013638694206177157
0.9090909090909091,3.5443037974683542,0.014405068364677006,0.012861429027081038,-7.166490194010107e-05,-0.008179949217527413,0.013699196851700015
1.0101010101010102,3.5443037974683542,0.014212704339885099,0.012910052514559102,5.926286985743232e-05,-0.00813682705633326,0.013608607476265713
1.1111111111111112,3.5443037974683542,0.014021568502965607,0.012824989963554951,-1.084997137276939e-05,-0.008053967539956167,0.013463232475540435
1.2121212121212122,3.5443037974683542,0.013945576289989617,0.01271806001765915,-4.8250580373659295e-05,-0.00799909089229463,0.013374395567325188
1.3131313131313131,3.5443037974683542,0.013949776266437581,0.01252859563799653,5.2057448522670095e-05,-0.007943511571330233,0.01329657814609509
1.4141414141414141,3.5443037974683542,0.0137046463913874,0.012358838753984955,3.745584939898164e-05,-0.007819045543611706,0.01308391844786538
1.5151515151515151,3.5443037974683542,0.013557793618103664,0.012374133620914482,-1.891240854014643e-05,-0.007779578171705444,0.013006462772857677
1.6161616161616161,3.5443037974683542,0.013607545160152345,0.012277922067436048,3.514963986391919e-05,-0.0077656401682765185,0.012993997963125097
1.7171717171717171,3.5443037974683542,0.013463399997006987,0.012278285847880476,-0.00011556284135324614,-0.007722505753466238,0.012913250307531784
1.8181818181818181,3.5443037974683542,0.013575835283940367,0.012056781943156894,2.605366030086469e-05,-0.007689785168129178,0.012883727921159898
1.9191919191919191,3.5443037974683542,0.01344548653529293,0.012133945912210087,-5.669649899995552e-05,-0.007673829734250905,0.01284042790048628
2.0202020202020203,3.5443037974683542,0.013399856668939007,0.0121918995948519,-4.733030584140586e-05,-0.007677526879137271,0.012838831249747822
2.121212121212121,3.5443037974683542,0.013472879254755835,0.012127138980470669,4.471921494991173e-05,-0.007680005470567951,0.012853190090398352
2.2222222222222223,3.5443037974683542,0.01316239507926129,0.012168919932314155,-2.2704706016638545e-05,-0.007599394503472633,0.012694907294487976
2.323232323232323,3.5443037974683542,0.013289958093613129,0.011831510953708463,0.00015261881909512585,-0.007536440714196477,0.012626845620765
2.4242424242424243,3.5443037974683542,0.013160812346804536,0.011789151370809024,-4.564395223392938e-05,-0.007484989115284067,0.012531660419253571
2.525252525252525,3.5443037974683542,0.01328453114615094,0.011960069151252717,9.113346471592138e-06,-0.007573380089221097,0.012674318912080337
2.6262626262626263,3.5443037974683542,0.012876765188830276,0.01176674831177263,-1.2459736835366688e-05,-0.007393054050180871,0.012359217541949817
2.727272727272727,3.5443037974683542,0.013037313929800074,0.011617625942084982,-2.7513162306972467e-05,-0.007396481961565517,0.012388721541414764
2.8282828282828283,3.5443037974683542,0.013170444980696439,0.01169759013766654,3.218110747923502e-05,-0.007460410535508893,0.012499395008341277
2.929292929292929,3.5443037974683542,0.012977227982813994,0.011625075739170388,-1.5512249147697228e-05,-0.007380691116595314,0.01235679148340318
3.0303030303030303,3.5443037974683542,0.012831034606500263,0.011616598023087838,-1.5040668552984271e-05,-0.00733428978887643,0.012269005914266428
3.131313131313131,3.5443037974683542,0.013067708567595008,0.011748394088989795,3.896722643400233e-05,-0.007444830796975441,0.012460727752416377
3.2323232323232323,3.5443037974683542,0.012820203997847408,0.011737089439009715,-5.9123768237684395e-05,-0.007367188031057136,0.012314848961987434
3.3333333333333335,3.5443037974683542,0.012890892723413894,0.011541658866256337,5.566282344319348e-05,-0.007329765476901069,0.012272408620404983
3.4343434343434343,3.5443037974683542,0.012700628791501137,0.011665642173328673,8.034213522877422e-06,-0.007309881289448942,0.012216070636808097
3.5353535353535355,3.5443037974683542,0.012830541243650594,0.011590954340898645,-1.9355186732658846e-05,-0.00732644867536477,0.012257892040779502
3.6363636363636362,3.5443037974683542,0.012733752674880057,0.011475652030135623,-1.0957348314721145e-05,-0.0072628214115047045,0.01215365344896278
3.7373737373737375,3.5443037974683542,0.01261102296354512,0.011487817495676686,-4.885259376840041e-06,-0.007229652137766542,0.012088622434310749
3.8383838383838382,3.5443037974683542,0.012819343659956883,0.011208142331826368,-2.7150890105899472e-06,-0.007208245797534975,0.012094503717651552
3.9393939393939394,3.5443037974683542,0.012829714027464622,0.011332024752108212,-3.09770098899731e-05,-0.007248521633871849,0.012150415170381703
4.040404040404041,3.5443037974683542,0.012606741630315122,0.011320471896651757,-1.847025325298134e-05,-0.007178164058090063,0.012015397522047956
4.141414141414141,3.5443037974683542,0.012676186764495227,0.011226285524990214,2.6286599517371252e-05,-0.007170741686845632,0.012017103583916802
4.242424242424242,3.5443037974683542,0.012659997329846297,0.011364805708206683,-2.5467124822692613e-05,-0.007207440911415894,0.012064736921301859
4.343434343434343,3.5443037974683542,0.012675208168648328,0.011202335122365506,8.772639631927686e-05,-0.007163262987304149,0.012007679726876597
4.444444444444445,3.5443037974683542,0.012684930249010355,0.011359397942514029,-1.0594047176981255e-05,-0.007213298457457315,0.0120768598223468
4.545454545454545,3.5443037974683542,0.012622582163385163,0.011343976325731961,-3.623020251552068e-05,-0.0071899675467351366,0.012034493923794702
4.646464646464646,3.5443037974683542,0.01257745754828262,0.011202764788153765,-4.2602043246161965e-05,-0.0071340667009309145,0.011949791777826768
4.747474747474747,3.5443037974683542,0.012602982210493975,0.011248433804598081,2.9885043449509415e-05,-0.007155424804527617,0.01198337564572895
4.848484848484849,3.5443037974683542,0.01259040097584824,0.011228465964725369,1.1397133288638994e-06,-0.007145660082172082,0.011967696508138847
4.94949494949495,3.5443037974683542,0.012382815646533988,0.011328675474760007,-4.8827926134679626e-05,-0.007113447336388199,0.011891142246404404
5.05050505050505,3.5443037974683542,0.012647711113671124,0.011431756333471287,1.4262075736796119e-05,-0.007223840234142723,0.012085723307917027
5.151515151515151,3.5443037974683542,0.012559635772301589,0.011435425206183349,-2.2787026841746488e-06,-0.0071985182935454806,0.012036969737666093
5.252525252525253,3.5443037974683542,0.012475241354609846,0.011459743803620156,-7.420078716290272e-05,-0.007180495547469001,0.012000450923139052
5.353535353535354,3.5443037974683542,0.012488085995646282,0.011284541342173741,-1.0568406728365205e-05,-0.007131788201346007,0.01193193938591108
5.454545454545454,3.5443037974683542,0.01254980990266596,0.011418214754131342,-2.3633381971401637e-05,-0.00719040739703919,0.012024084488333461
5.555555555555555,3.5443037974683542,0.012677671152684459,0.011453639819311889,0.00010950436584000805,-0.007239393291598904,0.012113616530748373
5.656565656565657,3.5443037974683542,0.01249245460073898,0.011381627932960724,2.8487971978325873e-06,-0.007162224760109911,0.011975743420255723
5.757575757575758,3.5443037974683542,0.012844142390846832,0.01130408576499412,9.054649556593922e-05,-0.007244468446752285,0.012148566070871896
5.858585858585858,3.5443037974683542,0.012467639012493224,0.011405807146004157,-1.3362978847759114e-05,-0.007162033847549214,0.011972113796769481
5.959595959595959,3.5443037974683542,0.012737408613062152,0.011354590503020316,6.861526899963412e-05,-0.00722759973482474,0.012105964189681219
6.0606060606060606,3.5443037974683542,0.012775712404501984,0.011528259289622674,7.708471400120359e-05,-0.007291191508237397,0.012200643042150182
6.161616161616162,3.5443037974683542,0.012693506572575255,0.011468048608829525,-2.2508492296493002e-05,-0.007248466554421434,0.012127366470440904
6.262626262626262,3.5443037974683542,0.012844168728505434,0.011500756816340992,3.523738605619865e-05,-0.007303477663453928,0.012228088225085153
6.363636363636363,3.5443037974683542,0.012796571127457012,0.011534275566296997,-8.480915269422919e-05,-0.007299254008126203,0.012215324209724253
6.4646464646464645,3.5443037974683542,0.012754673133855891,0.011378907525058808,1.2461610275211472e-05,-0.007240074197674409,0.012125487329919526
6.565656565656566,3.5443037974683542,0.012848916965950653,0.011622351745946799,-6.230186094668608e-05,-0.007341380613569235,0.01228213089562627
6.666666666666667,3.5443037974683542,0.012831315192909773,0.011483915840613106,-8.190416573956161e-05,-0.007294569310056863,0.012214309382499776
6.767676767676767,3.5443037974683542,0.012730088267666816,0.011537542982086408,-7.080052406371662e-05,-0.007280289374925967,0.012178306243264823
6.8686868686868685,3.5443037974683542,0.012690827299439654,0.011542096886118236,7.817575561792655e-06,-0.007269877255667367,0.012157241593432259
6.96969696969697,3.5443037974683542,0.012976201637581274,0.01157152885353223,5.3605030373017265e-05,-0.007364319147334051,0.012334351129533157
7.070707070707071,3.5443037974683542,0.01301874716967547,0.011590950021701855,4.6003770139119804e-06,-0.007382909157413197,0.01236682319656299
7.171717171717171,3.5443037974683542,0.01293466857493278,0.011557774203754017,-0.00013586880427257552,-0.007347732833606039,0.012306388499262199
7.2727272727272725,3.5443037974683542,0.012911206490090497,0.011855164991905382,5.3187262273573415e-05,-0.007429911444598763,0.012417253862472007
7.373737373737374,3.5443037974683542,0.013027203787405352,0.011678209371370808,-1.9449526796071727e-06,-0.007411623947632848,0.01240782860277533
7.474747474747475,3.5443037974683542,0.013060219893635124,0.01189577240264826,-1.7990790086607286e-05,-0.007486797688885015,0.012518718478665135
7.575757575757575,3.5443037974683542,0.01306438531158787,0.012012029079041996,-3.4919489974889616e-05,-0.007522924317188959,0.012571431422679006
7.6767676767676765,3.5443037974683542,0.013240836100628428,0.01199654318682822,2.178874633223309e-05,-0.007571213786236993,0.012664673356018178
7.777777777777778,3.5443037974683542,0.01302331152397505,0.011915591515612566,-3.303781171434231e-05,-0.007481670911876285,0.012506429482797704
7.878787878787879,3.5443037974683542,0.013345692313411631,0.011953083155816757,1.546126769515213e-05,-0.007589632640768516,0.012706779584629894
7.979797979797979,3.5443037974683542,0.013276766417476979,0.011908933219522258,6.546672197871868e-05,-0.007555709891099771,0.012648950548144937
8.080808080808081,3.5443037974683542,0.013470941914613085,0.012135272868479482,3.5425122465337452e-06,-0.007681864434927769,0.012855255943708227
8.181818181818182,3.5443037974683542,0.013477546828567782,0.01209480053639751,-8.667381039760036e-05,-0.007671704209489588,0.012843004514840805
8.282828282828282,3.5443037974683542,0.013438597156011933,0.012398609297312936,6.546086096351211e-05,-0.00775116193599746,0.012950457357196627
8.383838383838384,3.5443037974683542,0.01354834529235851,0.012260233183461432,-2.7156546404926143e-05,-0.007742573542745983,0.012952502374965714
8.484848484848484,3.5443037974683542,0.013520240261983668,0.012235575493012098,-7.840434555839036e-05,-0.00772674472649873,0.01292658987134685
8.585858585858587,3.5443037974683542,0.013859676291924871,0.01255467716454787,-5.414781064576033e-05,-0.007924306036941822,0.013255775349971143
8.686868686868687,3.5443037974683542,0.013837593177592285,0.01252598366990025,9.758836190821339e-05,-0.00790907305424776,0.013231717807565728
8.787878787878787,3.5443037974683542,0.014031688316837888,0.012804687458722472,1.9629657890508876e-06,-0.008050912732668109,0.013460197847016839
8.88888888888889,3.5443037974683542,0.01413554386751472,0.012779186322887031,-3.8065351799362265e-06,-0.008074419057120525,0.013508534269724174
8.98989898989899,3.5443037974683542,0.01418963963010664,0.012856794103684212,0.0001173434306927353,-0.008113930120137254,0.013573911034379273
9.09090909090909,3.5443037974683542,0.014256317804034736,0.012945566296732837,0.00010952002495016685,-0.00816056523023027,0.013649548003538937
9.191919191919192,3.5443037974683542,0.014375246453688217,0.012856734341793623,7.632920086478109e-05,-0.00816959423864455,0.01367998838550548
9.292929292929292,3.5443037974683542,0.014524194023681884,0.013163476507459068,5.5337018157922515e-05,-0.008306301159342284,0.013894229936783301
9.393939393939394,3.5443037974683542,0.014714312939996303,0.013249760259992388,1.9726743880557616e-05,-0.008389221959996607,0.014039487199724704
9.494949494949495,3.5443037974683542,0.014797929496177255,0.013297473062298136,-0.00012692697948547046,-0.008428620767542616,0.014109385873862025
9.595959595959595,3.5443037974683542,0.014971692713367854,0.013526947275390118,-4.5268970704691325e-05,-0.00854959199662739,0.014304360704930259
9.696969696969697,3.5443037974683542,0.015270817086030595,0.013487410450164435,4.872841276467724e-05,-0.00862746826085851,0.014462069027361257
9.797979797979798,3.5443037974683542,0.015268978059600485,0.013840641126959088,1.5510135724693216e-05,-0.008732885755967871,0.014607303439869402
9.8989898989899,3.5443037974683542,0.015583137866398021,0.013963599137165253,0.00011670849965028407,-0.008864021101068983,0.014841174440815638
10.0,3.5443037974683542,0.01563382676988,0.013939521043810736,-6.2041371527256986e-06,-0.008872004344107221,0.014859301619570766
0.0,3.6455696202531644,0.015524346707849074,0.014040834744266234,-7.73310050710189e-05,-0.008869554435634591,0.014838919591288703
0.10101010101010101,3.6455696202531644,0.015473148839470232,0.013865015381472532,0.0001374157621678324,-0.008801449266282829,0.014736966755505584
0.20202020202020202,3.6455696202531644,0.015179918450223663,0.013541931063788395,4.691412419606169e-05,-0.008616554854203616,0.014431043437330742
0.30303030303030304,3.6455696202531644,0.015193147399789962,0.013669586757122338,2.076604939836764e-05,-0.008658820247073689,0.014491603679837687
0.40404040404040403,3.6455696202531644,0.014863653501995429,0.013459504740268104,3.0056568664335237e-05,-0.00849694747267906,0.014213787626977902
0.5050505050505051,3.6455696202531644,0.014809953935670455,0.01348081290132814,1.2782579058109297e-05,-0.00848723005109958,0.014192157135411672
0.6060606060606061,3.6455696202531644,0.014574672203918223,0.013288374255601497,1.906193504841905e-05,-0.008358913937855915,0.013976027739752265
0.7070707070707071,3.6455696202531644,0.014566726320114435,0.012949007658565532,2.9298461079264395e-05,-0.00825472019360399,0.013829108414745267
0.8080808080808081,3.6455696202531644,0.014398098903165867,0.013016425291338877,2.5798115812290025e-05,-0.008224357258351422,0.013759462100980698
0.9090909090909091,3.6455696202531644,0.014298922448349249,0.012761778977290155,9.259741866595758e-05,-0.008118210427691822,0.0135966253458605
1.0101010101010102,3.6455696202531644,0.014236825590639993,0.012696900269813486,3.670200082630347e-05,-0.008080117758136043,0.013532884607037818
1.1111111111111112,3.6455696202531644,0.014115202759129503,0.012684999640514253,-5.708587864757273e-05,-0.008040060719893128,0.013457585194917517
1.2121212121212122,3.6455696202531644,0.014031306745665887,0.012597930733129033,-3.247127766279792e-05,-0.007988771243638476,0.013372477721877881
1.3131313131313131,3.6455696202531644,0.013937151182228269,0.012508581100547738,-1.4355496919726769e-05,-0.007933719684832802,0.013280640669510084
1.4141414141414141,3.6455696202531644,0.013786025598149025,0.012547994629212555,3.909558107613004e-05,-0.007900206068208473,0.013210763840035352
1.5151515151515151,3.6455696202531644,0.013658727730145384,0.012204399871247813,-4.275049126857383e-05,-0.00775893828041796,0.012992964530309162
1.6161616161616161,3.6455696202531644,0.01349048944255243,0.01225406026925463,1.3302375943483755e-05,-0.007723364913542118,0.012916754958230796
1.7171717171717171,3.6455696202531644,0.013530507037226289,0.012204433342587086,-3.809163351448078e-05,-0.007720482113944011,0.012918784601829972
1.8181818181818181,3.6455696202531644,0.013492130626486059,0.012424916241929925,-5.0461632196521224e-05,-0.007775114060524795,0.012991735012339273
1.9191919191919191,3.6455696202531644,0.013562491005117238,0.012106529769216076,3.3912836027749636e-05,-0.007700706232299993,0.012896432625341252
2.0202020202020203,3.6455696202531644,0.013383981533775884,0.011974827185362151,7.565502163794518e-06,-0.0076076426157414105,0.012738004302368827
2.121212121212121,3.6455696202531644,0.013332132830565559,0.012010531241304174,-0.0001337408122482757,-0.007602799221560919,0.01272502606873736
2.2222222222222223,3.6455696202531644,0.013066073925618189,0.012123435849060562,-0.0001505745871790705,-0.007556852932403625,0.01262387791839749
2.323232323232323,3.6455696202531644,0.013267987426551428,0.01189861847187512,-8.871753556634253e-05,-0.007549981769527965,0.012639996203146337
2.4242424242424243,3.6455696202531644,0.01327381720255027,0.01183771141693072,2.451845038126949e-05,-0.0075334585858442965,0.012617282620897338
2.525252525252525,3.6455696202531644,0.013156633208836923,0.011763705958927936,6.8749859790507435e-06,-0.007476101750329457,0.012518432513620056
2.6262626262626263,3.6455696202531644,0.013090197295444006,0.01168914418507836,1.151354351860906e-05,-0.0074338024441567094,0.012448957831910513
2.727272727272727,3.6455696202531644,0.012887662531200854,0.011654203028372157,4.991081447929923e-05,-0.007362559667871902,0.012317643090830476
2.8282828282828283,3.6455696202531644,0.013061770468773493,0.011554536249532168,6.11157640771493e-05,-0.007384892015491699,0.012377627428793463
2.929292929292929,3.6455696202531644,0.01273854365044578,0.011592642616042962,0.00011771804800104464,-0.007299355879946622,0.01220770436182013
3.0303030303030303,3.6455696202531644,0.012862730531642955,0.011615231455525512,-1.9124681587383796e-06,-0.007343388596150539,0.012286572231204475
3.131313131313131,3.6455696202531644,0.01296318545249215,0.011613912829582447,2.663519318876264e-05,-0.0073731294846223795,0.012344066216220542
3.2323232323232323,3.6455696202531644,0.012947736604054889,0.011388282462860003,-0.00014360490162196448,-0.007300805720074467,0.012245254020374107
3.3333333333333335,3.6455696202531644,0.012951279469472544,0.011737693436769957,-7.510455571008075e-06,-0.00740669187187275,0.012389152848609176
3.4343434343434343,3.6455696202531644,0.012720521685855087,0.011358816141652926,8.280278671741777e-06,-0.007223801348252404,0.012097293694611719
3.5353535353535355,3.6455696202531644,0.012782214317830082,0.011419742966917005,-1.6786979037706674e-05,-0.0072605871854241255,0.012158403499132626
3.6363636363636362,3.6455696202531644,0.012893373069695247,0.011378813125022322,-4.328197540993873e-05,-0.007281655858415271,0.012206997768716575
3.7373737373737375,3.6455696202531644,0.012733123224283788,0.011497465131056032,-4.130692490145999e-05,-0.007269176506601946,0.01216267281439965
3.8383838383838382,3.6455696202531644,0.012682305407953143,0.011250833941545016,-1.2141561518507697e-05,-0.007179941804849447,0.012030630280767842
3.9393939393939394,3.6455696202531644,0.012832654475166677,0.011525258711747874,7.151498226701118e-05,-0.007307373956074365,0.012232100786252394
4.040404040404041,3.6455696202531644,0.012483968735987842,0.01149277372621849,-8.347409585261495e-06,-0.007193022738661899,0.012019072529651618
4.141414141414141,3.6455696202531644,0.012714690509372907,0.011193274580029076,2.65996025543517e-05,-0.0071723895268205945,0.012026464614263413
4.242424242424242,3.6455696202531644,0.012602874401648303,0.011233452103732016,6.666489128967573e-05,-0.0071508979516140955,0.011977580557587115
4.343434343434343,3.6455696202531644,0.012688981316489205,0.011518892344185266,-4.0891268758295646e-05,-0.007262362098202341,0.012146486497448827
4.444444444444445,3.6455696202531644,0.012603350965403106,0.011401011641095098,-3.4386827459068874e-05,-0.007201308781949461,0.012047411269059153
4.545454545454545,3.6455696202531644,0.012576857302825055,0.011146881955317284,6.958514298060723e-05,-0.007117121777442702,0.01192694845693197
4.646464646464646,3.6455696202531644,0.012705437923631272,0.01123458246838097,3.8713394916128985e-06,-0.007182006117603672,0.01203759738826559
4.747474747474747,3.6455696202531644,0.01256099706151091,0.01146560868358322,-2.102944478751052e-05,-0.0072079817235282395,0.012050754308094828
4.848484848484849,3.6455696202531644,0.01263439263516016,0.011379099658819182,-8.571538611314657e-05,-0.007204047688193802,0.012056774641787046
4.94949494949495,3.6455696202531644,0.012522297903646257,0.011195930130490705,-2.280372145246279e-05,-0.007115468410241088,0.011914679345295684
5.05050505050505,3.6455696202531644,0.012593880555362197,0.01144984161633181,-1.5707479606650934e-05,-0.007213116651508203,0.01206264908561393
5.151515151515151,3.6455696202531644,0.01258633377549464,0.011193749669641016,-1.8358907291343742e-05,-0.007134025033540697,0.01195109079464053
5.252525252525253,3.6455696202531644,0.012566258644696595,0.011354257069504067,-2.7925217228477564e-05,-0.0071761547142601976,0.012006324097129139
5.353535353535354,3.6455696202531644,0.012514337682062867,0.011317210550742725,-8.32121906600833e-05,-0.007149464469841677,0.011961658773998083
5.454545454545454,3.6455696202531644,0.012629006721342829,0.011217580005183619,-7.84424176724392e-05,-0.007153976017957933,0.011986554062633001
5.555555555555555,3.6455696202531644,0.012598207559876722,0.01134684070341532,-5.714733133402047e-05,-0.007183514478987612,0.012021878837867634
5.656565656565657,3.6455696202531644,0.012477417562679836,0.011316589569383341,-5.661949148850736e-06,-0.007138202139618953,0.011939406653837048
5.757575757575758,3.6455696202531644,0.01260429888556522,0.01140962860406354,1.3789031149554144e-05,-0.007204178246888627,0.01205148026561694
5.858585858585858,3.6455696202531644,0.012620511879726999,0.011381843587344103,-3.268240060628573e-05,-0.0072007066401213295,0.012049157471116134
5.959595959595959,3.6455696202531644,0.012819704384452239,0.01130858662192375,-6.648822598522843e-05,-0.007238487301912795,0.012135463585864651
6.0606060606060606,3.6455696202531644,0.012631261813366986,0.011391845613446007,-4.2594049522679915e-05,-0.007206932228043897,0.012059642604848765
6.161616161616162,3.6455696202531644,0.012688034630806507,0.011301955151266503,-6.042982457433126e-05,-0.007196996934621903,0.01205536270585782
6.262626262626262,3.6455696202531644,0.012592770719739991,0.011367277152135518,1.6144322498177892e-05,-0.007188014361562652,0.012026975151145373
6.363636363636363,3.6455696202531644,0.012541829527331785,0.011533804143188333,-9.486966638568938e-05,-0.007222690101156035,0.012070547680257887
6.4646464646464645,3.6455696202531644,0.01269225229729564,0.011444856424857016,2.2109485089954653e-05,-0.007241132616645796,0.012116867095135604
6.565656565656566,3.6455696202531644,0.012846197790515324,0.01154826977768588,3.2207985491653885e-06,-0.007318340270460361,0.012248918562448708
6.666666666666667,3.6455696202531644,0.012784037207147695,0.011562076629496884,5.633480064090087e-05,-0.0073038341509933736,0.012219358669995878
6.767676767676767,3.6455696202531644,0.012967152742060973,0.011388672668032998,-6.192071501214333e-05,-0.00730674762302819,0.012254866783636006
6.8686868686868685,3.6455696202531644,0.012927660501391986,0.011665534670615865,4.2068522732540885e-05,-0.0073779585516023545,0.012345296378923695
6.96969696969697,3.6455696202531644,0.012843591026640743,0.011771752634733805,5.195830515093484e-06,-0.007384603098412365,0.01234262917840569
7.070707070707071,3.6455696202531644,0.01289835438877067,0.011510532944124154,6.543684739165397e-05,-0.007322666199868447,0.012264005358044476
7.171717171717171,3.6455696202531644,0.013036300834899447,0.01182678315417169,-3.769030152415326e-05,-0.007458925196721341,0.012475764417597146
7.2727272727272725,3.6455696202531644,0.013111610681442325,0.011771930733571913,1.3360440190683777e-05,-0.007465062424504272,0.012495769308622541
7.373737373737374,3.6455696202531644,0.012876067849400251,0.01182714949389282,-6.036196986222887e-05,-0.007410965202987921,0.01238540834074925
7.474747474747475,3.6455696202531644,0.013206785173856967,0.011759554931028133,9.10827526246718e-06,-0.0074899020314655295,0.012545941175218863
7.575757575757575,3.6455696202531644,0.01309264914356576,0.01198893111918558,-3.30170265444479e-05,-0.007524474078825402,0.0125772943274514
7.6767676767676765,3.6455696202531644,0.013394179991906134,0.011922154974878,3.9755250728641294e-05,-0.00759490049003524,0.01272238533906096
7.777777777777778,3.6455696202531644,0.013133302282315556,0.011902471956360863,7.25236646655863e-05,-0.007510732271602925,0.012563816476165605
7.878787878787879,3.6455696202531644,0.013371398706025326,0.012077479133739005,-7.738932947317097e-05,-0.007634663351929298,0.01277438781489822
7.979797979797979,3.6455696202531644,0.013522701227950483,0.011905265037061118,-3.238779896370868e-05,-0.00762838987950348,0.012791035488806455
8.080808080808081,3.6455696202531644,0.01335541634687799,0.012165719070553686,3.6980888929337015e-05,-0.007656340625229503,0.012802254712125108
8.181818181818182,3.6455696202531644,0.013516648665088692,0.012094386269023453,0.00011335911363286089,-0.007683310480233643,0.012866116399576641
8.282828282828282,3.6455696202531644,0.013730300335335496,0.01229200522905697,7.496608547375503e-05,-0.007806691669317739,0.013071284407935016
8.383838383838384,3.6455696202531644,0.013596314103570427,0.012309457308984828,-7.467281555590878e-05,-0.007771731423766576,0.013001383638496664
8.484848484848484,3.6455696202531644,0.013557130046165664,0.012339842136795324,-2.4704727349412913e-05,-0.007769091654888296,0.012991399671422954
8.585858585858587,3.6455696202531644,0.013766956349877582,0.012486047503490508,-6.067173569669777e-05,-0.007875901156010426,0.013173710244814929
8.686868686868687,3.6455696202531644,0.013800173688772123,0.01266793498683214,3.235007909957153e-05,-0.007940432602681279,0.013270448641902832
8.787878787878787,3.6455696202531644,0.013951172630412671,0.012506749334701698,-3.329834260910545e-05,-0.00793737658953431,0.013288096327532261
8.88888888888889,3.6455696202531644,0.014243776860515069,0.012597763489006155,0.00010605746198788224,-0.008052462104856366,0.013497512239441144
8.98989898989899,3.6455696202531644,0.014091716329557675,0.012738465124898521,-2.1591734567580626e-06,-0.008049054436336859,0.013466185050823969
9.09090909090909,3.6455696202531644,0.014210584620851428,0.012771277151072114,-4.127593956227544e-05,-0.008094558531577062,0.013548580433897103
9.191919191919192,3.6455696202531644,0.014402004238710405,0.01297483044805156,-0.00014440728676765066,-0.008213050406028589,0.013746379469938464
9.292929292929292,3.6455696202531644,0.014451962329796774,0.012985667503286464,-1.3669392687090021e-05,-0.008231288949924972,0.013777480127363722
9.393939393939394,3.6455696202531644,0.014539334900395079,0.013442775260200325,-4.848594893730151e-06,-0.008394633048178621,0.014023249447610905
9.494949494949495,3.6455696202531644,0.014911175653799687,0.01334681283107214,0.00011603844778602934,-0.008477396545461547,0.014195220898166046
9.595959595959595,3.6455696202531644,0.014785279817085587,0.013621612129751666,2.1688839127235704e-05,-0.008522067584051175,0.014239202245981292
9.696969696969697,3.6455696202531644,0.014966493167133627,0.013491573517275162,-5.5525940516920775e-05,-0.008537420005322637,0.014286573424860461
9.797979797979798,3.6455696202531644,0.015318664493938412,0.013594527379586661,-7.568511341589155e-05,-0.008673957562057522,0.014534092244781279
9.8989898989899,3.6455696202531644,0.015465243896852717,0.014052168151859935,4.4872142296649276e-05,-0.008855223614613794,0.014809558782646084
10.0,3.6455696202531644,0.015544247674227626,0.014085807140892677,-4.1831439558956995e-05,-0.00888901644453609,0.014868946609855082
0.0,3.7468354430379747,0.015625557345506136,0.013998963233700852,3.4293667286283085e-05,-0.008887356173762096,0.014879211651066468
0.10101010101010101,3.7468354430379747,0.015445514532365473,0.01390366176679155,-1.627606494966468e-05,-0.008804752889747107,0.014735240566534765
0.20202020202020202,3.7468354430379747,0.015309225508734065,0.01387064073806636,-5.8586643548340856e-05,-0.008753959874040127,0.014643380427227013
0.30303030303030304,3.7468354430379747,0.014960392670783092,0.013687634032669302,-3.386726150368933e-05,-0.008594408011035717,0.014366479575310214
0.40404040404040403,3.7468354430379747,0.014898291704271979,0.013546769286442913,-5.952201121331036e-05,-0.008533518297214467,0.01427098321543579
0.5050505050505051,3.7468354430379747,0.014680590189160635,0.013175415583201712,-4.517910228324239e-05,-0.008356801731708705,0.013989086846436339
0.6060606060606061,3.7468354430379747,0.014567722017742897,0.013227194416110519,6.129078581947288e-05,-0.008338474930156024,0.013946267431128534
0.7070707070707071,3.7468354430379747,0.01462780375764271,0.012991800876548592,2.0548980654829626e-05,-0.00828588139025739,0.013882337191168116
0.8080808080808081,3.7468354430379747,0.014521813277482316,0.013038395867697375,8.762013137936551e-05,-0.008268062743553907,0.013840690347757952
0.9090909090909091,3.7468354430379747,0.014210619320495492,0.012854365881582855,9.180589973802548e-05,-0.008119495560623503,0.013584300074342508
1.0101010101010102,3.7468354430379747,0.014203728775083033,0.01283584439916207,-1.0031020519368905e-05,-0.00811187195227353,0.013571597620577813
1.1111111111111112,3.7468354430379747,0.014011357329913423,0.012707852872103118,3.8601481269268624e-05,-0.008015763060604962,0.01340738086210738
1.2121212121212122,3.7468354430379747,0.014064160989297034,0.01260821530000934,1.5804550843279786e-05,-0.008001712886791912,0.01339568949209733
1.3131313131313131,3.7468354430379747,0.01398574660711548,0.012411230439706555,1.2836639903155861e-05,-0.00791909311404661,0.013268757270809442
1.4141414141414141,3.7468354430379747,0.01388773582107547,0.012377964347346108,-2.661150310899779e-05,-0.007879710050526473,0.0131978571471968
1.5151515151515151,3.7468354430379747,0.013698472677035152,0.012326618843290501,-8.090123028096796e-06,-0.007807527456097695,0.013066676345439695
1.6161616161616161,3.7468354430379747,0.013653709765071702,0.012452408614879546,-9.809662230403974e-05,-0.007831835513985374,0.013095555215378201
1.7171717171717171,3.7468354430379747,0.013707551501989,0.01213568442328312,4.668767004637341e-05,-0.007752970777581636,0.012993376180683814
1.8181818181818181,3.7468354430379747,0.013522472858046242,0.012118510034428669,6.955151214717777e-05,-0.007692294867742474,0.012878580933827639
1.9191919191919191,3.7468354430379747,0.013594494255790126,0.012038128936134774,0.00012948870878250383,-0.007689786957577469,0.012888942922446257
2.0202020202020203,3.7468354430379747,0.013336917291162586,0.012051769678310148,2.5755778871043117e-05,-0.007616606090841819,0.012743117745631154
2.121212121212121,3.7468354430379747,0.01338869327792651,0.011737406665597005,-9.243785686602504e-05,-0.007537829983057054,0.012645193532412743
2.2222222222222223,3.7468354430379747,0.013155772751780854,0.01195871966153923,5.073761873074517e-05,-0.007534347723996024,0.0126002721116722
2.323232323232323,3.7468354430379747,0.01308382132163695,0.011863851701722251,-2.1979495237966115e-05,-0.007484301907007759,0.012518557865021032
2.4242424242424243,3.7468354430379747,0.01332436792572595,0.011955258447435778,-1.1452537625243362e-05,-0.007583887911948518,0.012695318682340181
2.525252525252525,3.7468354430379747,0.013127765474621418,0.011698157510647293,-5.856347801517038e-05,-0.007447776895580613,0.01247496437904689
2.6262626262626263,3.7468354430379747,0.013142844962533914,0.01171744378211238,-9.990121234519159e-05,-0.007458086623393888,0.012492487993483974
2.727272727272727,3.7468354430379747,0.013141840505563865,0.011856625781909118,3.2804753620217236e-05,-0.0074995398862418945,0.01254882027528824
2.8282828282828283,3.7468354430379747,0.013068355199340027,0.011591742958093154,5.027491406173841e-05,-0.007398029447229955,0.012396490663399932
2.929292929292929,3.7468354430379747,0.012767483380078335,0.011610186258704665,2.5126166089164845e-05,-0.0073133008916349,0.012230048679274848
3.0303030303030303,3.7468354430379747,0.012906582444015676,0.01158378050891619,-0.00010882114212375685,-0.00734710888587956,0.01230009549695168
3.131313131313131,3.7468354430379747,0.012911281177633713,0.01153029257014252,2.3977017359106714e-05,-0.007332472124332869,0.01227923872475797
3.2323232323232323,3.7468354430379747,0.01268570028962408,0.011542349271442067,-9.080098236172495e-07,-0.007268414868319844,0.012154424606697687
3.3333333333333335,3.7468354430379747,0.01292162172741835,0.011464374255171795,5.465554353869767e-05,-0.007315798794777043,0.012258500697376126
3.4343434343434343,3.7468354430379747,0.012794668711812656,0.011445738079551793,5.330849559231914e-05,-0.007272122037409334,0.012176722306425592
3.5353535353535355,3.7468354430379747,0.01287276734675321,0.01149692462320629,-3.375691206631408e-05,-0.00731090759098785,0.012243104086177108
3.6363636363636362,3.7468354430379747,0.012706754879807094,0.01139314874912455,1.251866203178228e-05,-0.0072299710886794925,0.01210355235794725
3.7373737373737375,3.7468354430379747,0.01262388048876648,0.011603537523643482,3.315396312195752e-05,-0.007268225403722989,0.012146030967673378
3.8383838383838382,3.7468354430379747,0.012697570426656679,0.011644723133768216,-1.2759956473509621e-05,-0.007302688068127468,0.012205272137955398
3.9393939393939394,3.7468354430379747,0.01244844463980986,0.011458811363149406,4.192366588424465e-06,-0.007172176800887779,0.011984314984273239
4.040404040404041,3.7468354430379747,0.012614674954700882,0.011412924733927542,-3.3627466189386806e-05,-0.007208279906588526,0.0120589357662083
4.141414141414141,3.7468354430379747,0.012666097133626611,0.01133865739016941,9.649512153491625e-05,-0.007201426357138806,0.012058464498714122
4.242424242424242,3.7468354430379747,0.012660821568711967,0.011303754373700155,1.83987098244157e-05,-0.007189372782723636,0.012039828241769563
4.343434343434343,3.7468354430379747,0.012540590271726977,0.01131858845912512,-6.602677720253045e-05,-0.007157753619255629,0.011976984067623668
4.444444444444445,3.7468354430379747,0.012589199157487753,0.011457188533059175,5.889809612890852e-07,-0.007213916307164078,0.012063095677398973
4.545454545454545,3.7468354430379747,0.01249184034189071,0.011359329613810082,-8.29363282606877e-05,-0.007155350986710238,0.011966709981422647
4.646464646464646,3.7468354430379747,0.012508113472059993,0.011331317823424274,1.2556311133151664e-05,-0.007151829388645279,0.011963224068154137
4.747474747474747,3.7468354430379747,0.012636119901188092,0.011376255034285907,-4.1963784120281846e-05,-0.0072037124806422,0.012055880930073875
4.848484848484849,3.7468354430379747,0.01266936358894794,0.011237618501051335,-2.6161065667443934e-05,-0.007172094626999782,0.01201771283832719
4.94949494949495,3.7468354430379747,0.012440511339830604,0.011308848764476022,8.396654691793165e-06,-0.007124808031291988,0.011915063281022953
5.05050505050505,3.7468354430379747,0.0124839078994969,0.011347340117169355,1.026415116011839e-06,-0.007149374404999876,0.011956209199048731
5.151515151515151,3.7468354430379747,0.0126490094488091,0.011307253122198756,-7.343917144524752e-05,-0.007186878771302357,0.012035033924276028
5.252525252525253,3.7468354430379747,0.01256765461200319,0.011368020556494557,2.4747872738490196e-05,-0.007180702550549324,0.012012922842294759
5.353535353535354,3.7468354430379747,0.012696141154509887,0.01130133814821886,-5.681426498254345e-05,-0.007199243790818623,0.01205979035361349
5.454545454545454,3.7468354430379747,0.012484653463375612,0.0114028846888188,-6.374302621219401e-05,-0.007166261445658323,0.011980963109220918
5.555555555555555,3.7468354430379747,0.012530309996459769,0.011267517170919391,0.00011049432623305919,-0.007139348150213748,0.011950596460038248
5.656565656565657,3.7468354430379747,0.012655686793509301,0.011377242409702148,-7.372536642411587e-05,-0.007209878760963434,0.01206803806931651
5.757575757575758,3.7468354430379747,0.012458144940210733,0.011252668324835605,9.161337763014305e-06,-0.0071132439795139005,0.011901293989120064
5.858585858585858,3.7468354430379747,0.012619425792434996,0.011424173665586327,-7.002526958151325e-05,-0.007213079837406396,0.01206689065478895
5.959595959595959,3.7468354430379747,0.01282470099848751,0.01144599671946303,-0.00014777883181446826,-0.007281209315385162,0.012196631780749144
6.0606060606060606,3.7468354430379747,0.012627316827866258,0.011462712043744888,2.9587448805095023e-05,-0.007227008661483343,0.012087275426560932
6.161616161616162,3.7468354430379747,0.012759102490551351,0.011503364933842963,-6.374450167641059e-06,-0.007278740227318294,0.012179885503948286
6.262626262626262,3.7468354430379747,0.01282377677402504,0.011360086138487173,-2.930541481438398e-05,-0.0072551588737536634,0.012158296569512903
6.363636363636363,3.7468354430379747,0.012627624602477683,0.011413305887599649,8.99490892483904e-06,-0.007212279147023199,0.012066389471930675
6.4646464646464645,3.7468354430379747,0.012676893820360366,0.01148515271229672,7.12339935827659e-05,-0.007248613959797125,0.012125655906324547
6.565656565656566,3.7468354430379747,0.012698846967662778,0.011419176178108113,3.888218122438415e-05,-0.0072354069437312665,0.012110015011727484
6.666666666666667,3.7468354430379747,0.013006898035931174,0.01157697457641573,6.384695946139624e-05,-0.00737516178370407,0.01235465249542766
6.767676767676767,3.7468354430379747,0.012831330442737847,0.011699621971745757,-3.468299430298235e-06,-0.007359285724345081,0.012304572959887879
6.8686868686868685,3.7468354430379747,0.012930351732696979,0.011625214660511663,-3.6671194536555897e-06,-0.0073666699179625915,0.01232970144200617
6.96969696969697,3.7468354430379747,0.012882947366529417,0.011354569155945531,-8.537088537870108e-05,-0.007271254956742483,0.012191723476377868
7.070707070707071,3.7468354430379747,0.012987481717565353,0.011646120259887234,2.354338799051169e-05,-0.007390080593235777,0.01237152728604482
7.171717171717171,3.7468354430379747,0.012999997592067195,0.011676146934529754,4.766674609243272e-05,-0.007402843357979085,0.012391500270468503
7.2727272727272725,3.7468354430379747,0.013097780558800905,0.011516814333696272,-4.853133637046069e-05,-0.007384378467749152,0.012383506246453704
7.373737373737374,3.7468354430379747,0.01302481741440656,0.011702948561560945,-1.237832209721689e-05,-0.007418329792790251,0.012416785620973748
7.474747474747475,3.7468354430379747,0.013073590938542486,0.011834762739458427,-6.304025376387744e-05,-0.007472506103400274,0.012500778553274737
7.575757575757575,3.7468354430379747,0.013134240725588515,0.011699914290460054,3.663716581214499e-05,-0.00745024650481457,0.012479215116661788
7.6767676767676765,3.7468354430379747,0.013270295371852344,0.011852877791454372,-6.464234700202215e-05,-0.0075369519489920135,0.012621917358126197
7.777777777777778,3.7468354430379747,0.01319918000655692,0.011878586824631922,-3.638145332755661e-05,-0.007523330049356652,0.012591089821950186
7.878787878787879,3.7468354430379747,0.013232470370858758,0.011834090324266435,1.535606845590014e-05,-0.007519968208537558,0.012591680736229962
7.979797979797979,3.7468354430379747,0.013416710984327755,0.012104045588101792,-4.6895825124516685e-07,-0.0076562269717288635,0.012810916145963327
8.080808080808081,3.7468354430379747,0.01341820090881367,0.012163403183270407,-2.237112767692317e-05,-0.007674481227625223,0.01283693913602909
8.181818181818182,3.7468354430379747,0.013632935963772849,0.01222366550598218,-2.5115962812595912e-05,-0.007756980440926507,0.012985853254353355
8.282828282828282,3.7468354430379747,0.013705785721110973,0.012320620176760428,-4.615682392374626e-05,-0.00780792176936142,0.013068621007448144
8.383838383838384,3.7468354430379747,0.013602441913342552,0.012390608570435346,2.911396893398547e-06,-0.007797915145133369,0.01303883042415954
8.484848484848484,3.7468354430379747,0.013855370302348465,0.012500755805992067,-6.551960643582828e-05,-0.007906837832502159,0.013230663613042017
8.585858585858587,3.7468354430379747,0.014021208272136298,0.012606920706734128,-1.3082378410527154e-05,-0.007988438693661127,0.013370302302601568
8.686868686868687,3.7468354430379747,0.014062746793680766,0.012536097886317066,-3.901801627170646e-06,-0.00797965340399935,0.013364979345834999
8.787878787878787,3.7468354430379747,0.014107868779891408,0.012567620802773375,0.00013181588272344688,-0.008002646874799435,0.013406223751407067
8.88888888888889,3.7468354430379747,0.0140733694254306,0.01270605989080459,4.5985294709018604e-05,-0.008033828794870556,0.013442207932122125
8.98989898989899,3.7468354430379747,0.014249580232830903,0.012933566783858276,-6.001360594216945e-05,-0.008154944105006754,0.013639669859635042
9.09090909090909,3.7468354430379747,0.014291296048969244,0.012883676500132007,8.765083255334633e-05,-0.008152491764730374,0.013642905697179946
9.191919191919192,3.7468354430379747,0.01440792977000677,0.013035603414806946,3.0270104828708614e-05,-0.008233059955444114,0.013773238071459956
9.292929292929292,3.7468354430379747,0.01462493559718575,0.013179102146031626,-4.453955127552427e-05,-0.008341211322965211,0.013958506574766685
9.393939393939394,3.7468354430379747,0.014773163655438964,0.013267739082141088,-1.1296663424515082e-05,-0.008412270821274015,0.014080950493053959
9.494949494949495,3.7468354430379747,0.014934050594208728,0.013224771766372916,-1.4455385968514598e-05,-0.008447646708174493,0.014157036117836053
9.595959595959595,3.7468354430379747,0.015030111385517263,0.013367808339654423,7.481337013014999e-05,-0.008519375917551506,0.014272340062603193
9.696969696969697,3.7468354430379747,0.0150378247603216,0.013607041205628414,2.5258381531782822e-05,-0.008593459789785004,0.01437599932855482
9.797979797979798,3.7468354430379747,0.01514488253514993,0.013882142016432893,-0.0001392781990549618,-0.008708107365474846,0.014556652054746358
9.8989898989899,3.7468354430379747,0.015405370696579535,0.013984929026031713,6.223426413496688e-05,-0.008817089916783375,0.014746941705374017
10.0,3.7468354430379747,0.01563761480593311,0.013996849093478442,-1.775234291432272e-05,-0.008890339169823465,0.014885240749843237
0.0,3.848101265822785,0.01547075791060811,0.013984903465236679,2.4642091197785833e-05,-0.008836698412753436,0.014783999494206803
0.10101010101010101,3.848101265822785,0.015514043911395362,0.013859465879499176,9.019016737035633e-05,-0.008812052937268361,0.01475731660924642
0.20202020202020202,3.848101265822785,0.015417220134954288,0.01374510895904155,4.1272069316397215e-06,-0.008748698728198752,0.014652896556196641
0.30303030303030304,3.848101265822785,0.015207124253912772,0.013634370996291676,-2.8016129291565095e-05,-0.008652448575061334,0.014485008849994232
0.40404040404040403,3.848101265822785,0.015133901264931245,0.013485333252333963,3.5695862272919736e-05,-0.008585770355179562,0.014380796258949835
0.5050505050505051,3.848101265822785,0.01466534175765041,0.01324988678350144,5.7549565876742275e-05,-0.008374568562345554,0.01401169392228023
0.6060606060606061,3.848101265822785,0.014916485812948809,0.013359831517135318,2.445867739021064e-05,-0.008482895199025238,0.014202348558112105
0.7070707070707071,3.848101265822785,0.01451740865911099,0.013159876136632312,1.098603959187673e-05,-0.00830318543872299,0.01388850446979656
0.8080808080808081,3.848101265822785,0.014398908172041053,0.013084338115553812,1.4811633520906112e-05,-0.00824497388627846,0.013788724944847931
0.9090909090909091,3.848101265822785,0.014136095468721216,0.01298860092822823,-4.264605902060786e-06,-0.008137408919084833,0.013598709534643608
1.0101010101010102,3.848101265822785,0.014203683174372721,0.012675386352479836,1.0116514274396591e-05,-0.008063720858055767,0.013504561083973906
1.1111111111111112,3.848101265822785,0.013888739672921832,0.012512269394505525,-2.1051179512841948e-05,-0.007920302720228208,0.013254269207375963
1.2121212121212122,3.848101265822785,0.014233059876029916,0.012453334226498896,1.89770000625078e-05,-0.008005918230758644,0.01343196022437396
1.3131313131313131,3.848101265822785,0.013930836104316918,0.012486475819639742,-9.551976796609578e-05,-0.007925193577186998,0.013268782795497376
1.4141414141414141,3.848101265822785,0.013746254698600182,0.012271238845432589,1.1956211811835853e-05,-0.007805248063209831,0.013071330278773129
1.5151515151515151,3.848101265822785,0.013757106519216678,0.01229106310135662,4.852876443377783e-05,-0.007814450886171989,0.013086092340563701
1.6161616161616161,3.848101265822785,0.013540673758494102,0.0123529123983077,-3.0332556811387363e-05,-0.007768075847040541,0.012987697794201308
1.7171717171717171,3.848101265822785,0.013595962970284948,0.012183657215696923,-9.998078857450257e-05,-0.007733886055794561,0.012948866682685196
1.8181818181818181,3.848101265822785,0.013586981398850947,0.01205853451949191,-3.98516037117458e-05,-0.007693654775502857,0.01289108213175745
1.9191919191919191,3.848101265822785,0.013537647519449608,0.011879076642129028,-3.874056136916742e-05,-0.00762501724847359,0.012789453166029084
2.0202020202020203,3.848101265822785,0.013296791203400216,0.011875449611108849,-8.620826723004962e-05,-0.007551672244352718,0.012647050306036125
2.121212121212121,3.848101265822785,0.013280525815416382,0.012121792451273483,0.00010315952407545375,-0.007620695480006959,0.01274199224021335
2.2222222222222223,3.848101265822785,0.01331818983560264,0.011874277737772885,1.909146314136743e-05,-0.007557740272012657,0.012658193420487907
2.323232323232323,3.848101265822785,0.013148755742374769,0.01184818251028525,2.1508430230425296e-05,-0.007499081475798006,0.012549172737218905
2.4242424242424243,3.848101265822785,0.013138027088773771,0.011882476964233456,-1.4743644446642644e-06,-0.0075061512159021685,0.012557416807381771
2.525252525252525,3.848101265822785,0.012968694791865439,0.011620373644975247,-6.802652584860429e-05,-0.0073767205310522055,0.012350422337269655
2.6262626262626263,3.848101265822785,0.013105197673558108,0.011634862868485639,3.2570343583439744e-06,-0.007422018162613123,0.012435396819565975
2.727272727272727,3.848101265822785,0.012882916535482977,0.011824453101685721,-9.433511601841572e-05,-0.00741221089115061,0.01238872408966228
2.8282828282828283,3.848101265822785,0.01295504950423397,0.011594930675769485,-2.4461170979157734e-05,-0.007364994054001036,0.01233144838114953
2.929292929292929,3.848101265822785,0.012763308331453829,0.011798739652179195,1.9897089733718312e-05,-0.007368614395089908,0.012309448912233664
3.0303030303030303,3.848101265822785,0.01275601543147919,0.011703812425705956,-5.777286268929446e-06,-0.007337948357155543,0.012263818459432248
3.131313131313131,3.848101265822785,0.012970745657209147,0.011736620957804051,7.963779559096143e-05,-0.007412209984503959,0.01240059738996022
3.2323232323232323,3.848101265822785,0.012756534737671243,0.01160133796301669,2.159637378821322e-05,-0.0073073618102063795,0.012220014301421304
3.3333333333333335,3.848101265822785,0.012697124434939751,0.011423079108499058,-3.1371925753495104e-06,-0.007236061063031642,0.01211046976341258
3.4343434343434343,3.848101265822785,0.012637112302028438,0.011595913968222094,-6.53644681599246e-05,-0.007269907881075159,0.012150546431025125
3.5353535353535355,3.848101265822785,0.012910287009771032,0.011652446889459779,3.225829989671814e-05,-0.007368820169769243,0.012329708726123288
3.6363636363636362,3.848101265822785,0.012734024813469554,0.01154828790137603,2.425270472858715e-05,-0.007284693814453676,0.012184577189831975
3.7373737373737375,3.848101265822785,0.012742211473900757,0.011547389209928188,-3.472347308375195e-05,-0.0072868802051486836,0.012188949613710703
3.8383838383838382,3.848101265822785,0.012735158502916344,0.011415463356115221,-2.1679109406130545e-05,-0.0072451865577094696,0.01212933388344987
3.9393939393939394,3.848101265822785,0.012555392202442195,0.011486083094262783,-4.803381849029922e-05,-0.0072124425890114936,0.012056642228676348
4.040404040404041,3.848101265822785,0.012569524055379965,0.011277412084491116,0.00011926219638707168,-0.007154080841961324,0.01197764276634678
4.141414141414141,3.848101265822785,0.012497421565406334,0.011535918026703711,5.1960324130951744e-05,-0.007210001877633014,0.012045821657507456
4.242424242424242,3.848101265822785,0.012786788342072133,0.011513412059475538,2.192466501485251e-05,-0.007290060120464301,0.012200102144222486
4.343434343434343,3.848101265822785,0.012562052643168271,0.011313969870108584,-9.233614729910794e-06,-0.007162806753983056,0.011986853277606053
4.444444444444445,3.848101265822785,0.012431761138874642,0.010959872582551213,6.474316587222986e-05,-0.007017490116427757,0.011765608739610339
4.545454545454545,3.848101265822785,0.012478185140835414,0.0113248329858222,1.522450864608474e-05,-0.007140905437997284,0.011943378049638784
4.646464646464646,3.848101265822785,0.012483328915322773,0.011284497070353111,4.5966507639050147e-05,-0.0071303477957027645,0.011929443621778892
4.747474747474747,3.848101265822785,0.012566143648101174,0.0112671095723517,-9.667536838358982e-08,-0.007149975966135862,0.011969611812546969
4.848484848484849,3.848101265822785,0.01240350512396602,0.011361169240994545,5.770820820548858e-05,-0.007129402309488169,0.011916995246274698
4.94949494949495,3.848101265822785,0.012802277062496974,0.01128784796946254,2.4493087713583783e-05,-0.007227037509587854,0.012116329987098802
5.05050505050505,3.848101265822785,0.012621201130893581,0.011358950174969535,-2.5128165256057523e-05,-0.007194045391758935,0.012039882330981808
5.151515151515151,3.848101265822785,0.012568214355150256,0.011351210684000282,2.5466943841197333e-05,-0.007175827511745161,0.012006143956252801
5.252525252525253,3.848101265822785,0.012579978074746487,0.01127694351224513,2.7197619574714678e-05,-0.007157076476097485,0.011981812063991116
5.353535353535354,3.848101265822785,0.012707818328975384,0.011223718953842157,1.3815185518762627e-05,-0.007179461184845262,0.01203462109807481
5.454545454545454,3.848101265822785,0.012528318502734118,0.011410198622549597,-7.603381400100412e-05,-0.0071815551375851135,0.01200908564428774
5.555555555555555,3.848101265822785,0.012503057537706093,0.011294699417528949,-2.5743955283244704e-05,-0.007139327086570512,0.011944889881818034
5.656565656565657,3.848101265822785,0.012770989995226046,0.011480768997983415,-7.209047379300777e-05,-0.007275527697962838,0.012177891744538889
5.757575757575758,3.848101265822785,0.01273708561128196,0.011262763897314473,3.220014521706905e-05,-0.007199954852578929,0.012067788655925416
5.858585858585858,3.848101265822785,0.01271801927189054,0.011423794402316874,1.4432496448792163e-06,-0.007242544102262224,0.012122832244517486
5.959595959595959,3.848101265822785,0.012720246433712787,0.011362875899655072,6.682383617450467e-06,-0.007224936700010357,0.012098808634274245
6.0606060606060606,3.848101265822785,0.01244023305946826,0.011535498954607586,1.12655216041709e-05,-0.007192719604222753,0.012013459950780203
6.161616161616162,3.848101265822785,0.012686215153927902,0.01137595264034572,6.524952218739516e-05,-0.0072186503382820864,0.012085004887514766
6.262626262626262,3.848101265822785,0.012779940932927975,0.011466970115328315,-1.8693694455069302e-05,-0.007274073314476887,0.012176704869711329
6.363636363636363,3.848101265822785,0.012929568216294762,0.011534236233487266,5.252579239832588e-05,-0.007339141334934608,0.012291782719466656
6.4646464646464645,3.848101265822785,0.012864490786459805,0.011506580153166947,5.396685408923877e-05,-0.007311321281888026,0.012242505990037665
6.565656565656566,3.848101265822785,0.012564970064270964,0.011529018023889946,-6.454382500626055e-05,-0.007228196426448273,0.012080871685711527
6.666666666666667,3.848101265822785,0.012712332387659956,0.01153483272368236,-7.249388052333067e-05,-0.007274149533402695,0.012167041512476011
6.767676767676767,3.848101265822785,0.012916318134539301,0.01157298207145751,-5.2961748124802115e-05,-0.007346790061799043,0.012300133528500177
6.8686868686868685,3.848101265822785,0.012743043569310507,0.01157694271409476,-1.4250139149806668e-05,-0.00729599588502158,0.012201880421027475
6.96969696969697,3.848101265822785,0.013082879918912183,0.011677040797837853,-3.872707866803019e-05,-0.00742797621502501,0.0124398635667985
7.070707070707071,3.848101265822785,0.012976956624173903,0.01185609708701018,-0.00013771133013634371,-0.007449916113355225,0.012456696069324334
7.171717171717171,3.848101265822785,0.013109656469025866,0.011745066037144243,-4.706685318265262e-05,-0.007456416751851032,0.012483690714919705
7.2727272727272725,3.848101265822785,0.013034716679578139,0.011739537930197769,4.845264734806006e-06,-0.007432276382932771,0.012437809666171395
7.373737373737374,3.848101265822785,0.013173515086143941,0.011762196574018051,9.037827916185363e-05,-0.007480713498048598,0.012528599229631354
7.474747474747475,3.848101265822785,0.013185877895338163,0.01180074456846539,5.833668193790591e-05,-0.007495986739141065,0.012551174478607643
7.575757575757575,3.848101265822785,0.013337880232382929,0.011822489322107388,-0.00010273247619577016,-0.007548110866347095,0.012649704270173121
7.6767676767676765,3.848101265822785,0.01325758856769019,0.011807930327048258,-6.940936400252052e-05,-0.007519655668421534,0.012596056688743985
7.777777777777778,3.848101265822785,0.013268592559234512,0.01211595750973869,-0.0001017434035000467,-0.00761536502069196,0.012732687319631855
7.878787878787879,3.848101265822785,0.013275159080342325,0.012044350763163845,4.4609788356403554e-05,-0.007595852953051851,0.012704783808224753
7.979797979797979,3.848101265822785,0.01341187511419603,0.012152279038260787,-0.00013409112543304104,-0.007669246245737045,0.0128306419316528
8.080808080808081,3.848101265822785,0.013456475044596228,0.01210021752745883,1.6235053139612983e-05,-0.007667007771616517,0.012832244557211287
8.181818181818182,3.848101265822785,0.013495420772001757,0.01218723053938096,7.707192594674199e-05,-0.007704795393414815,0.012891896140768737
8.282828282828282,3.848101265822785,0.013627490729951123,0.01212730702781198,-1.5741126067202037e-05,-0.007726439327328931,0.012942799488135957
8.383838383838384,3.848101265822785,0.01353627468077743,0.012119533226863089,1.2260414291188632e-05,-0.007696742372292156,0.01288646336518064
8.484848484848484,3.848101265822785,0.013693897324276843,0.012274073389357,8.031326638135315e-05,-0.0077903912140901525,0.013042819917983043
8.585858585858587,3.848101265822785,0.013756568154055373,0.0126013349672453,2.294881125686022e-05,-0.007907370936390202,0.01321693107225398
8.686868686868687,3.848101265822785,0.01404528182560069,0.01249282571889446,-2.5692837895205012e-05,-0.007961432263348544,0.013337067081970912
8.787878787878787,3.848101265822785,0.013974465900760282,0.012593940067370281,-6.5146953141561e-05,-0.007970521790439168,0.013338372088858996
8.88888888888889,3.848101265822785,0.014141192990944884,0.012693517087741423,-3.409079619564599e-05,-0.00805041302360589,0.013475931394136727
8.98989898989899,3.848101265822785,0.014155446296696158,0.012706942503891316,4.2673559903120323e-05,-0.00805871664017624,0.013489850575338252
9.09090909090909,3.848101265822785,0.014421431016677986,0.0128615088465733,2.1053731286867385e-05,-0.008184881958975385,0.013708247501297819
9.191919191919192,3.848101265822785,0.014489230192658693,0.01315318891951035,5.365570083057332e-06,-0.008292725733650712,0.013869559281891257
9.292929292929292,3.848101265822785,0.014616905934126342,0.013065371784637812,4.4516418074989415e-05,-0.008304683315629245,0.013906419874356705
9.393939393939394,3.848101265822785,0.014631270194848705,0.01330889246857029,-9.877801363513628e-05,-0.008382048799025698,0.014017986868332031
9.494949494949495,3.848101265822785,0.014816555508252408,0.013260779013005364,-1.0246779380888649e-05,-0.008423200356377331,0.014103184882199082
9.595959595959595,3.848101265822785,0.014989519829184285,0.013468117558273178,3.6242891610547596e-05,-0.008537291216237239,0.014289829275153402
9.696969696969697,3.848101265822785,0.015236401824344967,0.0137496109569273,2.0608465075434215e-05,-0.00869580383438168,0.014550134661854355
9.797979797979798,3.848101265822785,0.015386184737880549,0.013590350663766265,4.999947386945177e-05,-0.008692960620494045,0.01457175918786736
9.8989898989899,3.848101265822785,0.015461725575014632,0.014000075561306996,-3.892493318865068e-06,-0.008838540340896489,0.014785188283396391
10.0,3.848101265822785,0.015444164773889952,0.014364225108934427,-5.932059739225615e-05,-0.008942516964847314,0.014933863730173774
0.0,3.9493670886075947,0.015653883870157904,0.013874987070336605,-6.750084460061104e-05,-0.008858661282148352,0.014845052348020586
0.10101010101010101,3.9493670886075947,0.015286458872343,0.014110174942276866,2.1018057832061705e-05,-0.008818990144385959,0.014733620671684098
0.20202020202020202,3.9493670886075947,0.015261549347252244,0.01378128793188745,-3.5459332958356694e-05,-0.008712851183741908,0.014578022904080357
0.30303030303030304,3.9493670886075947,0.015117116171888689,0.0136775602482467,2.4551803677190992e-05,-0.008638402926040617,0.014451276651259438
0.40404040404040403,3.9493670886075947,0.014997318320992336,0.013482778870853585,5.212233687206212e-05,-0.008544029157553775,0.01430061210360488
0.5050505050505051,3.9493670886075947,0.014736307983493393,0.01325022524127333,0.00010766840571920858,-0.008395959967430016,0.014053562515588583
0.6060606060606061,3.9493670886075947,0.014580742365360937,0.013242569263018991,3.7353682196404015e-05,-0.008346993488513978,0.013959992257307307
0.7070707070707071,3.9493670886075947,0.014504807846336754,0.013023857761155493,4.635533320806716e-05,-0.008258599682247673,0.013824189446370117
0.8080808080808081,3.9493670886075947,0.014524548243506567,0.01265074030408873,-4.423492400019213e-05,-0.008152586564278589,0.013684418666576192
0.9090909090909091,3.9493670886075947,0.014298160604747482,0.01297528363367748,-2.4761512153749087e-05,-0.008182033271527488,0.013684828539828763
1.0101010101010102,3.9493670886075947,0.014125775004964834,0.012942239414239366,5.468409926527096e-05,-0.00812040432576126,0.013573094325634976
1.1111111111111112,3.9493670886075947,0.014273931669800333,0.012695338838910497,3.8527721701882554e-05,-0.008090781152613248,0.013553922221752866
1.2121212121212122,3.9493670886075947,0.014097153807493492,0.012679433137074732,1.7354330737826022e-05,-0.008032976083370467,0.013444506481938671
1.3131313131313131,3.9493670886075947,0.013972490635704554,0.01262029781285317,1.9113463672917988e-05,-0.007977836534567318,0.013347902996858537
1.4141414141414141,3.9493670886075947,0.013756023563028916,0.012576356705631701,-3.0153671486810583e-06,-0.007899714080598185,0.013205767692621466
1.5151515151515151,3.9493670886075947,0.013766361539135427,0.012232440670626918,4.956207052247369e-05,-0.007799640662928703,0.013067382415970833
1.6161616161616161,3.9493670886075947,0.013609704159829783,0.012309935270587909,2.146174779827651e-05,-0.0077758918291253075,0.013008664737191606
1.7171717171717171,3.9493670886075947,0.013520519960778453,0.01219570156705335,-3.796383206218832e-05,-0.0077148664583495405,0.0129093645857195
1.8181818181818181,3.9493670886075947,0.013562963654208364,0.012149230040229018,-1.2057854545952472e-05,-0.007713658108331215,0.01291428063691921
1.9191919191919191,3.9493670886075947,0.01340099390844062,0.012023231473829644,3.347780178127724e-05,-0.0076272676146810795,0.012768118238660859
2.0202020202020203,3.9493670886075947,0.013453043182945825,0.012034138146540673,7.3932030268446794e-06,-0.007646154398845949,0.012802704231358163
2.121212121212121,3.9493670886075947,0.013500962882652378,0.012030508022933588,3.4780354180201703e-06,-0.00765944127167579,0.012829096463186319
2.2222222222222223,3.9493670886075947,0.013303591428245585,0.011975526174474721,4.874429592276565e-06,-0.007583735280816092,0.012691782221655774
2.323232323232323,3.9493670886075947,0.013245549074571747,0.011725856863651466,7.482464891411704e-06,-0.007491421781466964,0.01255488131790475
2.4242424242424243,3.9493670886075947,0.01336891357818202,0.011884989785481173,-1.8801152845979405e-05,-0.007576171009098957,0.0126922216964668
2.525252525252525,3.9493670886075947,0.013216925137657124,0.011802286959329762,-1.2476620164347187e-05,-0.0075057636290960655,0.012569471403696415
2.6262626262626263,3.9493670886075947,0.013117144466449036,0.011755805620604135,7.513861914339368e-05,-0.007461885026115951,0.012492909250227691
2.727272727272727,3.9493670886075947,0.013123786344849479,0.01157211776326547,-1.9126321528135184e-05,-0.007408771232434485,0.01242090068868333
2.8282828282828283,3.9493670886075947,0.013067135496684024,0.0115451691218962,-4.713757144229454e-05,-0.007383691385574067,0.012376806403344095
2.929292929292929,3.9493670886075947,0.012916072169318386,0.011563367273708977,-9.484125374411851e-05,-0.007343831832908209,0.01229675084534124
3.0303030303030303,3.9493670886075947,0.012861518779846294,0.011689243323400348,-4.394858857287375e-05,-0.007365228630973993,0.012317525997829462
3.131313131313131,3.9493670886075947,0.012994906751543817,0.011655631200070847,4.088658052488131e-05,-0.007395161385484399,0.012379923857418498
3.2323232323232323,3.9493670886075947,0.012830807536663973,0.011620925904230067,-5.3404204730493354e-05,-0.007335520032268211,0.01227103228203554
3.3333333333333335,3.9493670886075947,0.012758026424276602,0.011764027722873525,5.3212403008382686e-05,-0.007356616244145037,0.012291554199621614
3.4343434343434343,3.9493670886075947,0.012749922603181836,0.011556550980828216,1.0033924683143247e-05,-0.007291942075203015,0.012197113118818628
3.5353535353535355,3.9493670886075947,0.012830451021486113,0.011391088389187398,-5.5621357790981096e-05,-0.007266461823202053,0.012175132346404842
3.6363636363636362,3.9493670886075947,0.01273672189044116,0.011432371075620356,-2.6775484556362845e-05,-0.007250727889818454,0.012137314891125777
3.7373737373737375,3.9493670886075947,0.012648792720520103,0.01153604370139608,3.627600966138323e-05,-0.007255450926574855,0.012130918506857295
3.8383838383838382,3.9493670886075947,0.01271822990953654,0.011451427123542975,-1.9180828998252636e-05,-0.007250897109923854,0.012134569459223782
3.9393939393939394,3.9493670886075947,0.01262876208218764,0.011480399504005345,1.0454282321940684e-05,-0.007232748475857895,0.012095548703203778
4.040404040404041,3.9493670886075947,0.012595340111059176,0.01142973017038855,-1.109440117206534e-05,-0.007207521084434317,0.012054889243152771
4.141414141414141,3.9493670886075947,0.012759161885826162,0.011413144839085888,3.10596261146617e-05,-0.007251692017473615,0.012142356386612804
4.242424242424242,3.9493670886075947,0.01257368338711778,0.011402256305343798,4.754023655372493e-06,-0.007192781907738473,0.012030821663223858
4.343434343434343,3.9493670886075947,0.01273993688303927,0.011232988786503792,-4.071082629528901e-05,-0.007191877700862918,0.012057505248919902
4.444444444444445,3.9493670886075947,0.012598555770271944,0.011246151771244536,-3.448898643022997e-06,-0.007153412262454944,0.011979745512833642
4.545454545454545,3.9493670886075947,0.012681787617976496,0.011272318435502929,1.9887173739403806e-05,-0.0071862318160438275,0.012039141922771321
4.646464646464646,3.9493670886075947,0.012548031955300562,0.011427679017766819,1.823773398607879e-05,-0.007192713291920214,0.012027097323931453
4.747474747474747,3.9493670886075947,0.012439809222987732,0.011438802904392607,-5.9714160698251456e-05,-0.007163583638214102,0.011971183603254654
4.848484848484849,3.9493670886075947,0.01270065256923173,0.01145665563203877,0.00012874030113854383,-0.007247192460381149,0.01212865422720153
4.94949494949495,3.9493670886075947,0.012742552671414945,0.011406795778342553,-3.154315376735723e-05,-0.007244804534927249,0.012130083569647936
5.05050505050505,3.9493670886075947,0.012291872770572356,0.011222295198707535,-1.167543496105314e-05,-0.0070542503907839674,0.01179353339359748
5.151515151515151,3.9493670886075947,0.012482519360864669,0.011320350896941275,2.837494353503766e-05,-0.007140861077341782,0.011944017338971468
5.252525252525253,3.9493670886075947,0.012461305402130128,0.011244747690372479,5.759161188245012e-06,-0.007111815927750782,0.011899762489624682
5.353535353535354,3.9493670886075947,0.01273343329703107,0.011349214782356154,7.256904736490515e-05,-0.007224794423816167,0.012101501109411437
5.454545454545454,3.9493670886075947,0.012654720902380965,0.011378106315396085,-4.6449973244812576e-05,-0.007209848165333115,0.012067434583319752
5.555555555555555,3.9493670886075947,0.012570551367169471,0.01147770788239794,3.572452851632638e-05,-0.007214477774870223,0.01206147802390196
5.656565656565657,3.9493670886075947,0.012668356991062873,0.011353480598044169,-3.358671670397611e-06,-0.007206551276732112,0.012064778451263561
5.757575757575758,3.9493670886075947,0.01260550871890517,0.011552599927636928,1.963804502337343e-05,-0.007247432593962628,0.012113470724570124
5.858585858585858,3.9493670886075947,0.012592147946277492,0.01138367820777656,-3.243264344719728e-05,-0.007192747846216215,0.012033640966186952
5.959595959595959,3.9493670886075947,0.01269994942269604,0.01127077160437482,8.305032224666938e-05,-0.007191216308121258,0.01204995728767435
6.0606060606060606,3.9493670886075947,0.012465620308028797,0.011186732048729253,1.594893930867275e-06,-0.007095705707027414,0.01187792561931376
6.161616161616162,3.9493670886075947,0.01269800416992315,0.011309553469326095,1.3775891336293514e-06,-0.007202267291774774,0.012063853370905812
6.262626262626262,3.9493670886075947,0.012799451704608257,0.011472993033485188,0.000116077033185864,-0.007281733421428033,0.012192125921204142
6.363636363636363,3.9493670886075947,0.012961694915385619,0.011684415094480505,2.2648115368894767e-05,-0.007393833002959837,0.012372663669221096
6.4646464646464645,3.9493670886075947,0.012744438881409307,0.011521409269480082,-3.867996795964997e-05,-0.007279754445266817,0.012179252280579929
6.565656565656566,3.9493670886075947,0.012746766420297227,0.01146986855716236,-7.227144509335752e-05,-0.007264990493237876,0.0121593533137197
6.666666666666667,3.9493670886075947,0.01279053479547869,0.011737160592530136,1.3450768098802225e-06,-0.007358308616402649,0.012297730018097258
6.767676767676767,3.9493670886075947,0.012879503897772454,0.011662939164236177,-7.527716003468608e-05,-0.007362732918602589,0.012317057283645948
6.8686868686868685,3.9493670886075947,0.012697444291576612,0.011637027602020516,-0.00013869853994430767,-0.0073003415680791385,0.0122042084998017
6.96969696969697,3.9493670886075947,0.01304521806846066,0.011620633431519539,2.6016934285751648e-05,-0.007399755449994059,0.012394562083358745
7.070707070707071,3.9493670886075947,0.012744646584321144,0.011531602476021365,1.6013672937443942e-05,-0.0072828747181027526,0.0121835316484843
7.171717171717171,3.9493670886075947,0.012936039101052316,0.01181509599578327,1.7272310861708445e-05,-0.0074253405290506756,0.012413619626344153
7.2727272727272725,3.9493670886075947,0.013027393893433006,0.011630601836317339,-2.4198972335203606e-05,-0.007397398718925103,0.012388269296435191
7.373737373737374,3.9493670886075947,0.013182382106443735,0.011597629502161123,-6.132266788523989e-05,-0.007434003482581457,0.012466238640906204
7.474747474747475,3.9493670886075947,0.013139168870851191,0.011797964569168986,-9.551917003866483e-05,-0.007481140032006053,0.012523643620009949
7.575757575757575,3.9493670886075947,0.013290737370861321,0.011848076130460948,0.00010991043171688495,-0.007541644050396681,0.012632781980366851
7.6767676767676765,3.9493670886075947,0.013131960146445543,0.01182855936549449,-3.8595824534856325e-05,-0.00748815585358201,0.012531380318477977
7.777777777777778,3.9493670886075947,0.013242857044158026,0.011997463311212136,-1.036135057624303e-05,-0.007572096106611048,0.012666176184852763
7.878787878787879,3.9493670886075947,0.013310352965158492,0.012228779105274217,-2.025064850470125e-06,-0.0076617396211298115,0.012803873653750368
7.979797979797979,3.9493670886075947,0.013418140331770174,0.011993925516604572,1.7313849155722082e-07,-0.007623619754512424,0.012765757464414999
8.080808080808081,3.9493670886075947,0.013239166621384305,0.012312469422715508,-5.652263425588764e-05,-0.007665490813229944,0.012801374392251806
8.181818181818182,3.9493670886075947,0.013397949256141553,0.012144762327727864,3.455491208314901e-05,-0.007662813475160825,0.012817525853228916
8.282828282828282,3.9493670886075947,0.013581792501354783,0.012368051842168916,1.747669379503695e-05,-0.00778495330305711,0.013017465055016508
8.383838383838384,3.9493670886075947,0.013536023755723338,0.012204088632323693,-4.6183325107159674e-05,-0.007722033716414109,0.012921891638440023
8.484848484848484,3.9493670886075947,0.013899630239110979,0.012362067943057213,-0.00010792793193839368,-0.007878509454650457,0.013199515768731296
8.585858585858587,3.9493670886075947,0.013896795602638087,0.01236126880940841,6.797344660306702e-05,-0.00787741932361395,0.013196731782326623
8.686868686868687,3.9493670886075947,0.014009306002043797,0.01238602037819073,-4.7739825200922986e-05,-0.007918597914070359,0.01327258238305428
8.787878787878787,3.9493670886075947,0.013780655422060866,0.012547797676643917,-8.351109286948757e-06,-0.007898535929611435,0.013207460904014793
8.88888888888889,3.9493670886075947,0.013926371209378062,0.012799122009653306,-3.462522837072754e-05,-0.00801764796570941,0.013398492890551244
8.98989898989899,3.9493670886075947,0.01419959289889252,0.012748688858866458,-3.902804263241522e-05,-0.008084484527327693,0.013532770739514116
9.09090909090909,3.9493670886075947,0.01425946551222387,0.012858808039377029,-0.00011650386008243177,-0.00813548206548027,0.013614782061064649
9.191919191919192,3.9493670886075947,0.014436668801253426,0.013153388454163847,3.507630122574489e-05,-0.00827701717662518,0.013839855931943208
9.292929292929292,3.9493670886075947,0.01443711359255867,0.013127920817385905,5.5813730752486194e-05,-0.008269510322983372,0.01382941124252591
9.393939393939394,3.9493670886075947,0.014658608294005686,0.013210415690691982,5.214241560109587e-05,-0.0083607071954093,0.013991130308936695
9.494949494949495,3.9493670886075947,0.014801633909092737,0.013281415146822063,-4.6192063993480126e-05,-0.008424914716774439,0.014103336874776374
9.595959595959595,3.9493670886075947,0.014948233541152978,0.013619608029444433,7.879736954481939e-05,-0.008570352471179224,0.01433083927723014
9.696969696969697,3.9493670886075947,0.015121190844342824,0.013576750249004942,8.173121895519316e-05,-0.008609382328004329,0.014411869007528692
9.797979797979798,3.9493670886075947,0.015218122025639968,0.013691850600358525,0.00010669336479767791,-0.008672991787799548,0.014516470234839946
9.8989898989899,3.9493670886075947,0.015580259394122508,0.013865760789504153,-2.0203105049523678e-06,-0.008833806055087998,0.014797691289776576
10.0,3.9493670886075947,0.015514946452388309,0.013953202786787949,-3.6743216886671475e-05,-0.008840444771752876,0.014796157864301622
0.0,4.050632911392405,0.015659853816831,0.014111645271846263,-9.464610442558302e-05,-0.008931449726603178,0.01494691023008098
0.10101010101010101,4.050632911392405,0.015371413739151407,0.01390219127500566,-6.37713835941562e-05,-0.008782081504247119,0.014692418078253146
0.20202020202020202,4.050632911392405,0.015170090815124364,0.013808846742384329,9.911278039544098e-06,-0.008693681267252609,0.014537356680633913
0.30303030303030304,4.050632911392405,0.015079143493616567,0.013497135249535854,1.1735792233839588e-05,-0.008572883622945726,0.01435368950657979
0.40404040404040403,4.050632911392405,0.014915633996073624,0.013378998254653638,4.519407473908859e-05,-0.008488389675218179,0.014209983044166711
0.5050505050505051,4.050632911392405,0.01491588232761544,0.013365009820195757,2.2043392886522644e-05,-0.008484267644343358,0.014204139433744122
0.6060606060606061,4.050632911392405,0.014532020611122154,0.013161262846440341,-0.00012615648252546342,-0.008307985037268747,0.013899153433808561
0.7070707070707071,4.050632911392405,0.014641375672119103,0.01301644957089244,1.446898826175887e-05,-0.008297347572903463,0.013900350390329785
0.8080808080808081,4.050632911392405,0.01434716528490861,0.013055092924476118,-7.591285237512893e-06,-0.008220677462815419,0.013746752338815452
0.9090909090909091,4.050632911392405,0.014342505128206154,0.012792014108040334,2.7266327234848366e-05,-0.008140355770873946,0.013633626836101663
1.0101010101010102,4.050632911392405,0.014298047380672425,0.012926201732243783,-9.223222767679572e-05,-0.008167274733874862,0.013664806096477581
1.1111111111111112,4.050632911392405,0.014042364437247837,0.012566597925704814,-1.3326154179576054e-05,-0.007982688708885795,0.013365746045951093
1.2121212121212122,4.050632911392405,0.014078475298847868,0.01233193557405924,7.128964370766951e-05,-0.007923123261872132,0.013292121652187093
1.3131313131313131,4.050632911392405,0.013841478952211187,0.0124347049412514,4.7867544031067436e-05,-0.007882855168038775,0.013194718403380736
1.4141414141414141,4.050632911392405,0.013791035040682806,0.01246581979103222,-4.5936961799494244e-05,-0.007877056449514508,0.013178736040313088
1.5151515151515151,4.050632911392405,0.013720042013051045,0.012411287244328781,-6.722665577475859e-06,-0.007839398777213949,0.013114738161914864
1.6161616161616161,4.050632911392405,0.013738439593137579,0.012453447520502946,5.006910692173883e-05,-0.007857566134092157,0.013143426564632084
1.7171717171717171,4.050632911392405,0.013750173591578577,0.012252221051060023,9.835825481661184e-06,-0.0078007183927915795,0.013065768954734481
1.8181818181818181,4.050632911392405,0.013527838843733167,0.012221532726934867,2.4628163558602655e-05,-0.00772481147120041,0.012924363832061178
1.9191919191919191,4.050632911392405,0.01358180292986977,0.011971094357316008,9.420944577513444e-05,-0.007665869186155734,0.012853406271516512
2.0202020202020203,4.050632911392405,0.013514746941245834,0.012119115054294902,-2.7843025209996885e-05,-0.0076901585986622195,0.012873883919651876
2.121212121212121,4.050632911392405,0.013293878357272207,0.011878868733096203,3.904211160314867e-06,-0.007551824127110522,0.012645890001296475
2.2222222222222223,4.050632911392405,0.013130577400402646,0.011982452336063201,-6.97731886756793e-05,-0.007533908920939754,0.012596400831279216
2.323232323232323,4.050632911392405,0.013320938942611769,0.01179282906001653,6.457043119613144e-05,-0.007534130400788489,0.012626922970548992
2.4242424242424243,4.050632911392405,0.013149269157971084,0.011729071553797857,-7.443405516907712e-05,-0.007463502213530682,0.012500492044499536
2.525252525252525,4.050632911392405,0.013177735971318027,0.01171628645768022,-7.9145001131314e-06,-0.007468206728699474,0.012511201065544715
2.6262626262626263,4.050632911392405,0.012998473867392536,0.011770490572522545,8.098131593336194e-05,-0.007430689331974524,0.012430849971196466
2.727272727272727,4.050632911392405,0.013057595877145889,0.011641727073925228,1.0842682479322832e-05,-0.007409796885321335,0.012410399050899502
2.8282828282828283,4.050632911392405,0.01289744125993278,0.011766641655271104,2.885207071598996e-05,-0.007399224874561164,0.012370964984486622
2.929292929292929,4.050632911392405,0.012902937513348608,0.011643286256987982,2.1780851907916492e-05,-0.007363867131100977,0.012321555889096432
3.0303030303030303,4.050632911392405,0.012946434156912878,0.01159749596584311,-3.0140110278178997e-05,-0.007363179036826796,0.012327553586536132
3.131313131313131,4.050632911392405,0.013141554770246556,0.011406494904636058,7.132336505067888e-05,-0.007364414902464784,0.012366275564221903
3.2323232323232323,4.050632911392405,0.012799176183934018,0.011525808417524753,5.9422742737065375e-05,-0.007297495380437631,0.012212817498585753
3.3333333333333335,4.050632911392405,0.012818704777589954,0.011462968069354679,5.0749712381929784e-05,-0.00728450185408339,0.012197792922409165
3.4343434343434343,4.050632911392405,0.012773423524884805,0.011485854739002979,2.8261507020294075e-05,-0.0072777834791663346,0.012180883245615016
3.5353535353535355,4.050632911392405,0.012688029459744723,0.011576492980464637,3.708372318730525e-06,-0.007279356732062807,0.012170391882659715
3.6363636363636362,4.050632911392405,0.012628875921726852,0.011536387410775487,1.6371486344147703e-05,-0.007249578999750701,0.012119651002356109
3.7373737373737375,4.050632911392405,0.01283496928357464,0.011468724842046436,1.4073237838917969e-05,-0.007291108237686323,0.012209338602541578
3.8383838383838382,4.050632911392405,0.012516974866735591,0.011278712267598056,-4.470605615901213e-05,-0.007138706140300094,0.011946323624507331
3.9393939393939394,4.050632911392405,0.012743656097010721,0.01143089268850315,-3.9803721175452904e-05,-0.007252364635654162,0.012140818179986598
4.040404040404041,4.050632911392405,0.012623647541704766,0.011343804740233337,-2.1697849509144893e-05,-0.007190235684581431,0.01203493260509271
4.141414141414141,4.050632911392405,0.012527590816720594,0.011685685407015823,-0.0001385138193901629,-0.007263982867120925,0.012130945888321882
4.242424242424242,4.050632911392405,0.012527366516973889,0.011375262188775267,-9.237797806330627e-06,-0.007170788611724746,0.01199290119442503
4.343434343434343,4.050632911392405,0.01261202644423055,0.011386427012230478,5.1986812839590924e-05,-0.007199536036938308,0.012046415252571961
4.444444444444445,4.050632911392405,0.012588143402015669,0.011465084433695653,2.438397808134868e-05,-0.007215968350713396,0.012065950942593115
4.545454545454545,4.050632911392405,0.012659913763460508,0.011433476741279392,-4.083950369497822e-05,-0.00722801715142197,0.012093633900763293
4.646464646464646,4.050632911392405,0.012666238255386694,0.01142029130597331,7.222985810832225e-05,-0.007225958868408,0.012092153070704107
4.747474747474747,4.050632911392405,0.012680501574322262,0.01127297111441924,-1.0097211107194772e-06,-0.00718604180662245,0.012038607602951744
4.848484848484849,4.050632911392405,0.012611008692437545,0.01140469458560321,2.1718622444104198e-05,-0.007204710983412226,0.012053269737862322
4.94949494949495,4.050632911392405,0.012554034333635819,0.011479235663207155,-3.1278245157509576e-05,-0.007209980999052891,0.01205275262367958
5.05050505050505,4.050632911392405,0.012664855867955077,0.011279546770271837,2.4050348191326312e-05,-0.007183320791468073,0.012032233818174386
5.151515151515151,4.050632911392405,0.012593241727194072,0.011317172354614753,-1.5332115401991916e-05,-0.007173124224542647,0.012006204454152226
5.252525252525253,4.050632911392405,0.012482060911538943,0.011164565582842467,0.00010670626726632615,-0.007093987948314422,0.011879677616815607
5.353535353535354,4.050632911392405,0.012546766937128404,0.01144908281498769,4.788184861147392e-06,-0.007198754925634827,0.012035528776737447
5.454545454545454,4.050632911392405,0.012559396047498311,0.011123610130865906,7.140421471404872e-05,-0.007104901853509265,0.011907249976192915
5.555555555555555,4.050632911392405,0.012565604672269725,0.011481612605479644,8.40516029462656e-05,-0.00721416518332481,0.01206107946318833
5.656565656565657,4.050632911392405,0.012463199795076822,0.011364645917588725,9.441596830199339e-05,-0.007148353713799663,0.011952966845857466
5.757575757575758,4.050632911392405,0.01262612377011156,0.011534940856672508,-1.0368980316545359e-05,-0.00724831938803522,0.012117449964208786
5.858585858585858,4.050632911392405,0.01267339933923028,0.011405485775804025,4.753091194784531e-05,-0.007223665534510291,0.012089692231887753
5.959595959595959,4.050632911392405,0.012572586990637857,0.011234995242088994,-3.179932312871184e-05,-0.007142274669818056,0.011960148004820283
6.0606060606060606,4.050632911392405,0.012632723009859593,0.011373602631924565,0.00011028462837316855,-0.007201897692535247,0.012054104856737
6.161616161616162,4.050632911392405,0.012685765744673741,0.011406649467892892,3.149862389039436e-05,-0.0072277245637699895,0.012097156608920268
6.262626262626262,4.050632911392405,0.01270697987528398,0.011466801769802918,3.526135062714302e-05,-0.007252134493526069,0.012134668975485697
6.363636363636363,4.050632911392405,0.012638578639785016,0.01156365657879706,-4.3700888752949644e-05,-0.007260670565574622,0.012137107141935674
6.4646464646464645,4.050632911392405,0.012739110754998176,0.011541648888510761,-2.938449499480711e-05,-0.007284227893052681,0.012184697318906612
6.565656565656566,4.050632911392405,0.012629418630362361,0.011321503899467228,-0.00010406637251306135,-0.007185276758948877,0.012030259458740202
6.666666666666667,4.050632911392405,0.013077112035004152,0.011569507616050806,2.5747229571024482e-05,-0.007393985895316487,0.012392360837567215
6.767676767676767,4.050632911392405,0.01278463377286068,0.01167161821156801,6.942936407582319e-05,-0.007336875595328606,0.012266647028467713
6.8686868686868685,4.050632911392405,0.012845984502988211,0.01170407910151779,3.37556909090577e-06,-0.0073650190813518,0.012314804135233053
6.96969696969697,4.050632911392405,0.013070985609517964,0.011566672396179893,-1.8859898283145676e-05,-0.007391297401709357,0.012387567710070824
7.070707070707071,4.050632911392405,0.012934959342881405,0.011455291931827379,5.8843563041481195e-05,-0.0073170753824126356,0.01226268888707098
7.171717171717171,4.050632911392405,0.012941596822225203,0.011818834981734147,-2.0573109354530132e-05,-0.007428129541187805,0.01241839205174982
7.2727272727272725,4.050632911392405,0.013064331887091303,0.011827989869256622,-5.448774454326066e-05,-0.007467696526904377,0.012492487083727641
7.373737373737374,4.050632911392405,0.01310015734312221,0.011799371701288535,9.501672053576037e-05,-0.007469858713323224,0.012501710029208331
7.474747474747475,4.050632911392405,0.01313951832859131,0.01176845929803094,-0.0001149792759894578,-0.007472393287986675,0.012512048202143432
7.575757575757575,4.050632911392405,0.013293237091485922,0.011914117138107585,-3.825132926930696e-05,-0.007562206268878051,0.012660313787224183
7.6767676767676765,4.050632911392405,0.013240877154753701,0.011971885873215113,-3.10179364333323e-05,-0.007563828908390644,0.01265430738395963
7.777777777777778,4.050632911392405,0.013104748342055718,0.01185078470920619,-4.325855089690775e-05,-0.007486659915378571,0.01252515828120409
7.878787878787879,4.050632911392405,0.013203551095522797,0.011790107080981965,1.3929556834149777e-05,-0.0074980974529514285,0.012556659083742481
7.979797979797979,4.050632911392405,0.013487686847054071,0.012167058927756384,-1.2570992446222414e-06,-0.0076964237324431365,0.012878258558879599
8.080808080808081,4.050632911392405,0.013314565417016911,0.01208004462113724,-5.596490461703015e-06,-0.007618383011446245,0.012742239987780441
8.181818181818182,4.050632911392405,0.013669779131889657,0.01240632633580117,-5.825399363906762e-05,-0.007822831640307247,0.013084274316897229
8.282828282828282,4.050632911392405,0.013649657091355575,0.01228518772731689,2.520775969980087e-05,-0.007780453445601739,0.01302122431723119
8.383838383838384,4.050632911392405,0.013692553179250883,0.01238753743397995,-9.982622489534772e-06,-0.00782402718396925,0.013088941138548674
8.484848484848484,4.050632911392405,0.013659887849108756,0.012347116944229086,2.393709659633298e-05,-0.007802101438001352,0.013053172760692271
8.585858585858587,4.050632911392405,0.013760863747405556,0.01242669367079602,5.283702367774879e-05,-0.007856267225460473,0.013144977119839528
8.686868686868687,4.050632911392405,0.0138701230615551,0.012493028008158174,3.4842543734565656e-05,-0.007908945320913982,0.013235553206393016
8.787878787878787,4.050632911392405,0.014052194391275424,0.012711149998511093,-7.665032581924019e-05,-0.008029003316935955,0.01343263103775457
8.88888888888889,4.050632911392405,0.0138734180407084,0.012580013997455355,5.6279379244810605e-05,-0.007936029611449126,0.013274418603816484
8.98989898989899,4.050632911392405,0.014146740400440293,0.012755333637107718,-6.139715389317408e-05,-0.008070622211264403,0.013505321739882132
9.09090909090909,4.050632911392405,0.014395903003456998,0.012875793144485274,4.672866697311773e-06,-0.008181508844382682,0.013699250661659532
9.191919191919192,4.050632911392405,0.01446007233992417,0.01310595044200018,2.4157194571755442e-05,-0.008269806834577304,0.01383287346502417
9.292929292929292,4.050632911392405,0.014697366988822791,0.01328499882335118,1.2386645854575697e-05,-0.00839470974365219,0.014044562907926165
9.393939393939394,4.050632911392405,0.01469576336960564,0.013136487453074275,-9.462966000986126e-05,-0.008349675246803974,0.013982450315295547
9.494949494949495,4.050632911392405,0.014727607690067706,0.013462531323377167,-4.319377408100695e-05,-0.008457041704033462,0.014137782540620153
9.595959595959595,4.050632911392405,0.015122758050151171,0.01349306447148348,-3.6184263380092785e-05,-0.008584746756490395,0.01437748859921076
9.696969696969697,4.050632911392405,0.015165525841426868,0.013560026186318805,-1.654279292167941e-05,-0.008617665608323702,0.01442994725124066
9.797979797979798,4.050632911392405,0.015359892360734685,0.013970317482330597,-1.2203387392677847e-05,-0.008799062952919583,0.014714412590537594
9.8989898989899,4.050632911392405,0.015291550557216853,0.013939976671614744,1.2385355821227121e-05,-0.008769458168649479,0.014662573791793119
10.0,4.050632911392405,0.01568415779271583,0.014222352763276307,-3.880463891729476e-06,-0.008971953166797641,0.015006749949305757
0.0,4.151898734177215,0.015600743179300759,0.01402225777827101,4.5122951629430834e-05,-0.008886900287271531,0.014874655182434105
0.10101010101010101,4.151898734177215,0.0153729533904055,0.01393295942085342,-7.241142972302395e-05,-0.008791773843377674,0.014706462818944627
0.20202020202020202,4.151898734177215,0.015132187395895304,0.013704380238371013,6.238121190078518e-05,-0.008650970290279895,0.01447161212296359
0.30303030303030304,4.151898734177215,0.01508455938857994,0.013590591464516159,6.36802688819794e-05,-0.008602545255928828,0.0143962561022124
0.40404040404040403,4.151898734177215,0.015060056457595476,0.013449607734676707,0.00011345489740114595,-0.008552899257681655,0.014324245632741976
0.5050505050505051,4.151898734177215,0.014809357014697263,0.013409936581394121,5.464036002604492e-06,-0.008465788078827415,0.014161603210601868
0.6060606060606061,4.151898734177215,0.01472770349510199,0.013199835011335708,2.166860103276383e-06,-0.00837826155193131,0.01402631998853416
0.7070707070707071,4.151898734177215,0.014433570278190953,0.013104562398802866,-3.8235576180005036e-05,-0.008261439803098146,0.013817245390069356
0.8080808080808081,4.151898734177215,0.01441924609056846,0.012947249892128379,-6.633998365683505e-05,-0.008209948794809052,0.013742982142868478
0.9090909090909091,4.151898734177215,0.014310433454760255,0.012923433405833434,-2.778915100032078e-05,-0.008170160058178106,0.013669894645082968
1.0101010101010102,4.151898734177215,0.014182364587614932,0.012892206293899472,3.44895211641368e-05,-0.008122371264454321,0.013583447537458207
1.1111111111111112,4.151898734177215,0.014302427765305282,0.012902277927610884,-1.3462444250702114e-05,-0.00816141170787485,0.013656312143025973
1.2121212121212122,4.151898734177215,0.014000832260325908,0.012632350755397544,1.718538219857789e-05,-0.007989954904717034,0.013369257706444933
1.3131313131313131,4.151898734177215,0.0139971646559899,0.012742591902486984,0.00015167823010659237,-0.008021926967543065,0.013416524462523467
1.4141414141414141,4.151898734177215,0.01382444144765065,0.012432907276416508,2.5328518563224725e-05,-0.007877204617220147,0.013183940633139997
1.5151515151515151,4.151898734177215,0.013739262154338142,0.012427641594566616,7.919181243330765e-05,-0.007850071124671426,0.01313338449715809
1.6161616161616161,4.151898734177215,0.013734242469443173,0.012351816541871613,-5.308264579559054e-05,-0.007825817703394435,0.013098183006479176
1.7171717171717171,4.151898734177215,0.013561791239300828,0.012136719987211504,5.627453492693775e-05,-0.007709553367953699,0.012908756382385849
1.8181818181818181,4.151898734177215,0.013459320652616905,0.012359467324040004,-0.00011460263327042975,-0.007745636392997073,0.012946007587083929
1.9191919191919191,4.151898734177215,0.013597474039125602,0.012078040557943159,6.48871541266706e-05,-0.007702654379120627,0.012905508593704798
2.0202020202020203,4.151898734177215,0.013421396766711712,0.012090072721175482,-2.11028364664124e-05,-0.007653440846366158,0.012807787577588796
2.121212121212121,4.151898734177215,0.013485092315905244,0.011907796552600707,2.6846251349335178e-05,-0.007617866660551784,0.01276979874075593
2.2222222222222223,4.151898734177215,0.013156755493366437,0.011997349295961615,-4.459560121471048e-05,-0.007546231436798415,0.012617304794963254
2.323232323232323,4.151898734177215,0.013274843586883045,0.011848448775857171,1.4125412451877523e-05,-0.0075369877088220655,0.012622262276844518
2.4242424242424243,4.151898734177215,0.013224775043701925,0.011884043571837297,-2.594325388426434e-05,-0.007532645584661766,0.012608068166218596
2.525252525252525,4.151898734177215,0.013054463454728249,0.011942248823148333,1.6565323012549987e-05,-0.0074990136833629735,0.012535449550995023
2.6262626262626263,4.151898734177215,0.012992357725728376,0.011826779515582246,-2.4126145773021914e-05,-0.007445741172393186,0.012450625244800284
2.727272727272727,4.151898734177215,0.012921463802610292,0.011698128577843641,4.7129636915595774e-05,-0.00738587771413618,0.012355571927558429
2.8282828282828283,4.151898734177215,0.013057275007209455,0.011671638937290658,-2.8369506053817434e-05,-0.007418674183350034,0.012422648718930245
2.929292929292929,4.151898734177215,0.01285542803173923,0.01164374421596836,-8.893757043906153e-06,-0.007349751674312277,0.012294459351858677
3.0303030303030303,4.151898734177215,0.01283850431452925,0.011516014930456236,-2.6323291612989387e-05,-0.0073063557734956465,0.012231085981582972
3.131313131313131,4.151898734177215,0.012908915254055395,0.01162058806525332,-1.8988579087186882e-05,-0.007358850995792613,0.012315439707150393
3.2323232323232323,4.151898734177215,0.01283021099199146,0.01152623140588332,-6.836545070178462e-05,-0.007306932719362434,0.01223104104913139
3.3333333333333335,4.151898734177215,0.01283680068512272,0.011535056685776845,4.953842647835455e-05,-0.007311557211269869,0.012238264712525074
3.4343434343434343,4.151898734177215,0.012733712198414371,0.011582532346578677,-4.469647547538244e-05,-0.007294873363497914,0.012199173816541436
3.5353535353535355,4.151898734177215,0.012814374941560057,0.011651079192952494,1.7401129825313055e-05,-0.007339636240353765,0.01227417869549683
3.6363636363636362,4.151898734177215,0.012784842967572234,0.01142526722819133,5.919698567687553e-06,-0.007263033058729069,0.012162187249610244
3.7373737373737375,4.151898734177215,0.01280066036123676,0.011349077837968567,1.199165288703902e-05,-0.007244921459761597,0.012140148847446202
3.8383838383838382,4.151898734177215,0.012817271156726845,0.011510300450097452,-3.981124726906762e-05,-0.0072982714820472895,0.012216528524851436
3.9393939393939394,4.151898734177215,0.012639705819192599,0.0112942942685477,2.858063193254749e-05,-0.007180200026322089,0.012023690772304885
4.040404040404041,4.151898734177215,0.012775064778455442,0.011386796638702764,-2.8037945652383134e-05,-0.007248558425147461,0.012140704735952032
4.141414141414141,4.151898734177215,0.012643934123933664,0.011454178793208024,-1.5059570776525378e-05,-0.007229433875142506,0.012093059175580274
4.242424242424242,4.151898734177215,0.01255881222395108,0.011573932268377194,5.7162373061757734e-05,-0.007239823347698481,0.012096885268070073
4.343434343434343,4.151898734177215,0.012651893652849812,0.011471484872149324,2.4403193217161454e-05,-0.00723701355749974,0.012105005496891814
4.444444444444445,4.151898734177215,0.012614773260068459,0.011465024460479558,-8.223355181939847e-07,-0.007223939316164405,0.012081001958486373
4.545454545454545,4.151898734177215,0.012587903491679478,0.011249232740648828,6.083310871091978e-05,-0.007151140869698491,0.011975282772266371
4.646464646464646,4.151898734177215,0.012428192944248472,0.011294894862170017,6.719973624003713e-05,-0.007116926341925547,0.011902648637532095
4.747474747474747,4.151898734177215,0.012513157771730128,0.011360155578663458,-3.404139049914918e-06,-0.007161994005118076,0.011978349965204749
4.848484848484849,4.151898734177215,0.012762436399157884,0.01135679880387117,-2.710258281400997e-05,-0.007235770560908716,0.012120991837787332
4.94949494949495,4.151898734177215,0.012647513083493794,0.011306775826905615,-8.05722199291633e-05,-0.007186286673119822,0.012034103508030695
5.05050505050505,4.151898734177215,0.012511214513321427,0.011231363462529115,2.2488650509107357e-05,-0.0071227733927551615,0.011922983413860878
5.151515151515151,4.151898734177215,0.012725158674564991,0.011282857326614649,3.391789974607162e-05,-0.007202404800353892,0.012068961605445537
5.252525252525253,4.151898734177215,0.012695982174999973,0.011460977802642519,-8.299887194368101e-06,-0.007247087993292748,0.01212574997080775
5.353535353535354,4.151898734177215,0.012477444453485559,0.011577733525924621,-2.220044853882504e-06,-0.007216553393823055,0.012052801396602865
5.454545454545454,4.151898734177215,0.012601189761794187,0.011458003327104766,-5.0321980844932604e-06,-0.007217757926669685,0.012070270312202081
5.555555555555555,4.151898734177215,0.01265799574676826,0.011509970751924623,0.0001447704912822335,-0.007250389949607865,0.012127406882656861
5.656565656565657,4.151898734177215,0.01255398529077811,0.011361635094688658,-7.048630703221168e-06,-0.00717468611564003,0.012002318438435496
5.757575757575758,4.151898734177215,0.012553945497613031,0.01128919531255175,6.644798387678573e-05,-0.007152942243049434,0.011972334012212472
5.858585858585858,4.151898734177215,0.01251068496484667,0.011372224827794044,-3.332407022949192e-05,-0.007164872937792214,0.011982226217801383
5.959595959595959,4.151898734177215,0.012569876423589248,0.011228029541418766,-3.6122052931381145e-05,-0.007139371789502403,0.011955727133025323
6.0606060606060606,4.151898734177215,0.01252721849044966,0.01152717004279662,-4.216357385662758e-05,-0.007216316559973884,0.012058557455235413
6.161616161616162,4.151898734177215,0.012901941673971871,0.011460359255484978,-8.61795854479358e-06,-0.007308690278837054,0.012244969144671203
6.262626262626262,4.151898734177215,0.012667765128221367,0.01159126027345303,4.3008851052800144e-05,-0.007277707620502319,0.012165515799600624
6.363636363636363,4.151898734177215,0.012648788793838137,0.01146587222209082,-1.3644463778649008e-05,-0.007234398304778686,0.012100795271561791
6.4646464646464645,4.151898734177215,0.01259114870629188,0.011381862131786963,-6.997546638703228e-06,-0.007191903251423653,0.012032175180410927
6.565656565656566,4.151898734177215,0.012568751867489155,0.011571056228769612,-9.70833046771414e-05,-0.00724194242887763,0.012101958794998072
6.666666666666667,4.151898734177215,0.0129273127523601,0.01142656289425057,-9.086977659693013e-05,-0.007306162693983201,0.012247112896679048
6.767676767676767,4.151898734177215,0.01277187009185885,0.011432991728003378,-6.025104364044204e-05,-0.007261458545958668,0.0121582963835126
6.8686868686868685,4.151898734177215,0.012804129612933672,0.011634822431080162,4.4162907714353025e-05,-0.00733168561320415,0.012261602864381395
6.96969696969697,4.151898734177215,0.012856545084672127,0.01171305375602276,6.931348457105515e-05,-0.0073708796522084655,0.012325233839145662
7.070707070707071,4.151898734177215,0.012822633297360577,0.011613719829948486,-4.9510448133222424e-05,-0.007330905938192718,0.012263249823061897
7.171717171717171,4.151898734177215,0.012849681914533579,0.011568058829684313,3.361239900429228e-05,-0.0073253222232653676,0.012259356567200988
7.2727272727272725,4.151898734177215,0.013127413011194989,0.011736265372532967,-7.393083991116944e-05,-0.007459103515118386,0.012490736239871984
7.373737373737374,4.151898734177215,0.013021293620671958,0.01182759421229986,-8.334203583326356e-06,-0.007454666349891545,0.01246738560079509
7.474747474747475,4.151898734177215,0.013223056719915506,0.011721192806644833,-0.00010935269962209696,-0.007483274857968101,0.01254119079513819
7.575757575757575,4.151898734177215,0.013084868599807604,0.011843815472989728,-9.351041628540874e-05,-0.007478605221839199,0.012511643163145469
7.6767676767676765,4.151898734177215,0.013309864532958156,0.01203240143227848,-9.466995876303222e-06,-0.00760267978957099,0.012719348014557553
7.777777777777778,4.151898734177215,0.013234520112118904,0.01195122354601793,-5.149587626137834e-05,-0.0075557230974410495,0.012642132491656051
7.878787878787879,4.151898734177215,0.013284699120778096,0.012158707124639708,1.9614147819741784e-05,-0.007633021873625342,0.012759066500659494
7.979797979797979,4.151898734177215,0.013322354786327867,0.012202352512617063,-1.996877202318713e-05,-0.00765741218968348,0.01279920586402178
8.080808080808081,4.151898734177215,0.013303381523416693,0.01205788049064144,3.565229701897418e-05,-0.007608378604217439,0.01272657340419087
8.181818181818182,4.151898734177215,0.013667939548661783,0.012222687469841875,5.128565832258813e-05,-0.007767188105551097,0.013005983149595671
8.282828282828282,4.151898734177215,0.013646591434612412,0.012213443420130731,1.0802855412002956e-05,-0.007758010456422942,0.012989462486983338
8.383838383838384,4.151898734177215,0.01380457241567851,0.012226085069698335,2.4177769765128903e-05,-0.007809197245613053,0.013086987915481869
8.484848484848484,4.151898734177215,0.013683253643993441,0.012559118499348439,-5.784452268504906e-06,-0.007872711643002564,0.013157255951551794
8.585858585858587,4.151898734177215,0.013793338879057704,0.012437299386261537,-1.1804708269860812e-05,-0.007869191479595772,0.013167807195369951
8.686868686868687,4.151898734177215,0.013954976928078733,0.012711827107034843,6.503858374258942e-05,-0.008000041210534072,0.013377270481009356
8.787878787878787,4.151898734177215,0.014004688630220842,0.012628694375783619,-2.8575861962029754e-05,-0.007990014901801339,0.013369994108711328
8.88888888888889,4.151898734177215,0.014147365773292985,0.012692633568488852,-5.185272626737694e-06,-0.00805199980253455,0.013479007981622375
8.98989898989899,4.151898734177215,0.01405153124489436,0.012645886574140232,4.437614716123107e-05,-0.008009225345710377,0.013404320758011264
9.09090909090909,4.151898734177215,0.014254349861586541,0.012812798951477865,1.0199609863693487e-05,-0.008120144643919322,0.013591044848836824
9.191919191919192,4.151898734177215,0.014549947728531696,0.013137210019336926,4.181958780220932e-05,-0.008306147324360587,0.013897726200672103
9.292929292929292,4.151898734177215,0.014449593123810422,0.013085480155041107,-4.0311304012776475e-05,-0.008260521983655459,0.0138183046451183
9.393939393939394,4.151898734177215,0.014713105936946766,0.013304257010796778,5.617877657911753e-05,-0.008405208884323064,0.014062050571440405
9.494949494949495,4.151898734177215,0.014730481341591195,0.013513147406688348,1.1351135441227788e-05,-0.008473088624483862,0.014161124750325719
9.595959595959595,4.151898734177215,0.01512887273979055,0.013487695969273112,-9.645877748338919e-06,-0.008584970612719098,0.01437871260555261
9.696969696969697,4.151898734177215,0.015079458611029455,0.013749977080225587,5.753897748963488e-05,-0.008648830707376511,0.014460970355629859
9.797979797979798,4.151898734177215,0.015160513354979052,0.01369626113986249,1.9868035540285294e-05,-0.008657032348452462,0.014484045315109599
9.8989898989899,4.151898734177215,0.015440619330094768,0.01374732658211528,2.1007190053407854e-05,-0.008756383773663015,0.01466750833636704
10.0,4.151898734177215,0.015653284855056925,0.013903223790520742,4.26536855352648e-05,-0.008866952593673299,0.014855951471948884
0.0,4.253164556962025,0.015771566523481814,0.014198751935438732,-4.366517053722115e-05,-0.008991095537676163,0.015047126847671066
0.10101010101010101,4.253164556962025,0.01534988812505935,0.013944279181347384,1.9473340111956287e-05,-0.00878825019192202,0.014697618839589116
0.20202020202020202,4.253164556962025,0.015391900804603186,0.013848798742607813,2.258535787299126e-05,-0.0087722098641633,0.014681349760088065
0.30303030303030304,4.253164556962025,0.015086478307325376,0.013767016986443854,0.00012266359187095688,-0.00865604858813077,0.014473490262206266
0.40404040404040403,4.253164556962025,0.014925525532745846,0.013510665250349316,-1.0258497538294178e-05,-0.008530857234928548,0.014270806721677973
0.5050505050505051,4.253164556962025,0.014957021142251812,0.013450564099819255,-2.13025339311251e-05,-0.00852227557262132,0.014263630177158974
0.6060606060606061,4.253164556962025,0.014725540527268923,0.01317082663163518,-3.880419155290194e-05,-0.008368910147671231,0.014013179294325023
0.7070707070707071,4.253164556962025,0.014450403106985095,0.013071110468624985,-0.00011500297972457588,-0.008256454072683023,0.013813940081158412
0.8080808080808081,4.253164556962025,0.014391940178502118,0.012947968557275908,2.041886970456858e-05,-0.008201972620733407,0.013727078849597535
0.9090909090909091,4.253164556962025,0.014142913281848662,0.013004726289279275,7.952000738462703e-06,-0.008144291871338381,0.013609569261973568
1.0101010101010102,4.253164556962025,0.014320006795887201,0.012626402905259373,-6.43486794447312e-05,-0.008083922910343972,0.013553261297817315
1.1111111111111112,4.253164556962025,0.014150871890642876,0.012743770761939846,3.4855647523288844e-05,-0.008068392795774816,0.013502557009352758
1.2121212121212122,4.253164556962025,0.014083159226607418,0.012507158882263014,-2.7281075489057827e-05,-0.00797709543266113,0.01336511578206491
1.3131313131313131,4.253164556962025,0.01398506426519915,0.012748772380010244,-2.177638943963111e-05,-0.008020150993562817,0.013409781552867825
1.4141414141414141,4.253164556962025,0.01380134381856405,0.012349805446538648,5.6786760410135366e-05,-0.007845344779530809,0.013136230392087016
1.5151515151515151,4.253164556962025,0.013777363440469512,0.012270749171284987,-1.4477196349649248e-05,-0.007814433783526349,0.013089273713364933
1.6161616161616161,4.253164556962025,0.01372331306899856,0.012317811190445524,-5.871914533345395e-05,-0.007812337277833224,0.013077727579208859
1.7171717171717171,4.253164556962025,0.013696380838739915,0.012167868337737283,3.5176666640186262e-06,-0.007759274752943159,0.012999697932527225
1.8181818181818181,4.253164556962025,0.013623485881030848,0.012232611365695027,-4.7706586164887e-05,-0.007756829174017763,0.012984304675306447
1.9191919191919191,4.253164556962025,0.013372638922377349,0.012074451956802667,5.0009785468088285e-05,-0.007634127263754004,0.01277341295572293
2.0202020202020203,4.253164556962025,0.013339356497300876,0.012068906262991081,-5.275523928559047e-05,-0.007622478828087587,0.012752013030036449
2.121212121212121,4.253164556962025,0.013306112011965222,0.01210276979227382,2.5247172462547224e-05,-0.007622664541271713,0.012747186170597351
2.2222222222222223,4.253164556962025,0.01328393971954203,0.012079345004080427,7.470032955193629e-05,-0.007608985417086737,0.012725135745129759
2.323232323232323,4.253164556962025,0.013438339716788974,0.011777121337021775,-3.1056957783886594e-05,-0.007564638316143225,0.012689661048345591
2.4242424242424243,4.253164556962025,0.013230891347270651,0.011913510783825814,-5.126494413231278e-05,-0.007543320639328939,0.012624172946287192
2.525252525252525,4.253164556962025,0.013143024057980512,0.011658484677106425,3.537115238342686e-05,-0.00744045262052608,0.012467371620331036
2.6262626262626263,4.253164556962025,0.013108372353303982,0.011744482255029401,2.9998542385831957e-05,-0.007455856382500015,0.012482545510972666
2.727272727272727,4.253164556962025,0.012902516803648297,0.011732151732184433,-6.917658779523085e-05,-0.007390400560749819,0.012359546733956738
2.8282828282828283,4.253164556962025,0.013002787511549785,0.011787341506052894,-3.0262537512180516e-05,-0.0074370387052808025,0.01243978912140738
2.929292929292929,4.253164556962025,0.013010830754002507,0.011677947856698732,4.782505002003863e-06,-0.007406633583210372,0.012398243768879557
3.0303030303030303,4.253164556962025,0.012929120955694231,0.011697502469492152,-3.02869470588458e-05,-0.0073879870275559145,0.012359533174866967
3.131313131313131,4.253164556962025,0.012828892349925547,0.011519606198045394,-1.6665387416557338e-05,-0.007304549564391282,0.012226972285123485
3.2323232323232323,4.253164556962025,0.012769655092515722,0.011679896065760864,2.383819672063868e-05,-0.007334865347482976,0.01226122032227869
3.3333333333333335,4.253164556962025,0.013044672001828485,0.011684184634283374,9.47547994277328e-05,-0.007418656990833557,0.012421522348582098
3.4343434343434343,4.253164556962025,0.01272956714276196,0.01156644392569793,3.1516326990220993e-05,-0.007288803320537967,0.012189817882554164
3.5353535353535355,4.253164556962025,0.012804152316655805,0.011294327228491025,1.693674707542626e-05,-0.0072295438635440485,0.012120013139630187
3.6363636363636362,4.253164556962025,0.012726698102329358,0.011524622001651634,0.00010785234056014406,-0.007275396031194297,0.012171699482504343
3.7373737373737375,4.253164556962025,0.012701488135710003,0.011431969381167004,6.361274195197832e-05,-0.007240037255063102,0.012117212595050277
3.8383838383838382,4.253164556962025,0.012872464392962944,0.01135092905723818,-9.940380030965535e-06,-0.007267018035060337,0.012183176774867525
3.9393939393939394,4.253164556962025,0.01276463217976085,0.011428745328007526,-6.360380232576219e-05,-0.007258013252330513,0.012152384967563965
4.040404040404041,4.253164556962025,0.012528062003574396,0.011227765848706411,3.0618007673708755e-06,-0.007126748355684242,0.011931175337260172
4.141414141414141,4.253164556962025,0.012589716191989222,0.011231784598990272,3.4634854428814404e-05,-0.007146450237293847,0.011968816038419653
4.242424242424242,4.253164556962025,0.012580443631795384,0.011389706635724495,5.7742439912773835e-05,-0.0071910450802559625,0.012029772212113207
4.343434343434343,4.253164556962025,0.01275200494695577,0.011318197809404218,-2.0387213789895313e-06,-0.007221060826907996,0.012098988793820535
4.444444444444445,4.253164556962025,0.01267168328792592,0.011221321968371844,5.51683455419964e-05,-0.007167901576889329,0.012012731440074803
4.545454545454545,4.253164556962025,0.012491223400165587,0.011251102787899005,-8.63201303408814e-05,-0.007122697856419377,0.011920582664012148
4.646464646464646,4.253164556962025,0.012350611380581586,0.011425812801740669,5.783195329869783e-05,-0.007132927254696676,0.011915580541352834
4.747474747474747,4.253164556962025,0.012614728385663401,0.011249413779132295,4.618829511849677e-06,-0.007159242649438708,0.011990514888746792
4.848484848484849,4.253164556962025,0.012570198236215925,0.011211392007565105,4.91928207732068e-05,-0.007134477073134308,0.011949185503911443
4.94949494949495,4.253164556962025,0.012577332384398775,0.011367136629480905,4.121981019881893e-05,-0.007183340704163903,0.012018233091071893
5.05050505050505,4.253164556962025,0.012767703967906078,0.011319894944213543,-7.547428791932791e-06,-0.007226279673635886,0.012108897119706849
5.151515151515151,4.253164556962025,0.01246692706241672,0.01138509693997205,-1.6200185521482425e-06,-0.00715560720071663,0.01196275626418863
5.252525252525253,4.253164556962025,0.012586680963213416,0.011371168932022599,1.4385726969262456e-05,-0.007187354968570803,0.012025113965013538
5.353535353535354,4.253164556962025,0.012490799519092209,0.011484825041689718,-2.137186982616913e-05,-0.007192687368234578,0.01201948426627536
5.454545454545454,4.253164556962025,0.012608353554797423,0.011326833518509712,-7.264995191639309e-06,-0.00718055612199214,0.012018950603175503
5.555555555555555,4.253164556962025,0.01260623234082298,0.011382687493978732,0.00011258760184499475,-0.007196675950440513,0.012042752721391515
5.656565656565657,4.253164556962025,0.012651901219389066,0.011206783894895761,9.169963833174657e-06,-0.007157605534285448,0.011994821348045255
5.757575757575758,4.253164556962025,0.01253896125870762,0.011303966756426068,-1.9007676107438965e-05,-0.007152878404540106,0.0119693899813008
5.858585858585858,4.253164556962025,0.012620543808508201,0.011151831949167175,-3.901993713988695e-05,-0.007131712727302612,0.011954240496653808
5.959595959595959,4.253164556962025,0.012651152833599905,0.011419407847684304,8.556466357622507e-05,-0.007221168204385262,0.012083370125736908
6.0606060606060606,4.253164556962025,0.012583416477511607,0.011355349189729691,-1.3937213178284946e-05,-0.007181629700172389,0.012016564405144934
6.161616161616162,4.253164556962025,0.012675650647182303,0.01152250883791857,7.359466734127201e-07,-0.007259447845530262,0.012140223814479323
6.262626262626262,4.253164556962025,0.012735445588933678,0.011427277248040223,-3.55095126070609e-05,-0.00724881685109217,0.01213451914196227
6.363636363636363,4.253164556962025,0.0127736406280035,0.011354556524009393,-0.00012772936403771939,-0.0072384591456038675,0.012128551792921105
6.4646464646464645,4.253164556962025,0.012895359729410593,0.01142360314932692,4.563313656915674e-05,-0.007295688863621253,0.012226356227309812
6.565656565656566,4.253164556962025,0.012795327454757052,0.011578298148040561,3.276193273936764e-05,-0.0073120876808392835,0.01223243624708927
6.666666666666667,4.253164556962025,0.012986891760413495,0.011668398346041928,1.137351641882114e-05,-0.0073965870319366266,0.012380429689304114
6.767676767676767,4.253164556962025,0.012885378161643264,0.011492263545509107,5.719536535893375e-05,-0.00731329251214571,0.012248785408369857
6.8686868686868685,4.253164556962025,0.012769889327214717,0.011600785823130465,-1.2037835105135878e-05,-0.0073112025451035545,0.012227345942672172
6.96969696969697,4.253164556962025,0.01266117728373859,0.011710443095729058,9.40776657255351e-05,-0.007311486113840294,0.01221468147042621
7.070707070707071,4.253164556962025,0.013029804697668457,0.011678361533566068,-2.8549962466927128e-05,-0.007412449869370357,0.0124094969236468
7.171717171717171,4.253164556962025,0.013011202580578557,0.011657547857023354,-3.2088609251358146e-05,-0.0074006251312805724,0.012390084217133258
7.2727272727272725,4.253164556962025,0.012841060358707601,0.011684179948805972,5.467139989999814e-06,-0.007357572092254072,0.012303484137279642
7.373737373737374,4.253164556962025,0.012927987736542513,0.011740255221703024,-3.597505877487177e-05,-0.007400472887473661,0.01237709443574801
7.474747474747475,4.253164556962025,0.013099752771034352,0.011874225380735036,-2.9031119154343294e-05,-0.0074921934455308165,0.012532113255041312
7.575757575757575,4.253164556962025,0.01313383050798584,0.011977807712864861,4.774423409723536e-05,-0.00753349146625521,0.012595940758693674
7.6767676767676765,4.253164556962025,0.013135981228690925,0.011876929271756646,7.2344808321287455e-06,-0.007503873150134271,0.012553903329709206
7.777777777777778,4.253164556962025,0.013181310120628098,0.011874912378967168,-3.140125752018607e-05,-0.007516866749878579,0.012579210464047025
7.878787878787879,4.253164556962025,0.013223835575286688,0.012044051210285907,9.353407114412583e-05,-0.007580366035671779,0.012676225379837964
7.979797979797979,4.253164556962025,0.013348527431258259,0.011992881410216597,4.088899647433133e-05,-0.007602422652442457,0.012725175768867305
8.080808080808081,4.253164556962025,0.013439555526452727,0.01217555395067436,-7.361085796222469e-06,-0.007684532843138126,0.0128542559460177
8.181818181818182,4.253164556962025,0.013499837561513106,0.012192887401447262,3.8549513908170243e-05,-0.00770781748888811,0.012896300874332977
8.282828282828282,4.253164556962025,0.013655023228900411,0.012152549169294015,-5.309538044595518e-05,-0.007742271719458327,0.012969549986608186
8.383838383838384,4.253164556962025,0.013852330358997666,0.012455951767759278,5.941255886098549e-05,-0.007892484638027083,0.013210012170670497
8.484848484848484,4.253164556962025,0.013875012649135581,0.012387096272413545,1.5745632979815507e-05,-0.007878632676464738,0.013194156145232993
8.585858585858587,4.253164556962025,0.01379869503997866,0.012649871257488744,-4.586330921480139e-05,-0.00793456988924022,0.013261893612515873
8.686868686868687,4.253164556962025,0.013687612168608539,0.012493634814764254,-5.015781692103675e-05,-0.007854374095011838,0.013131685240745239
8.787878787878787,4.253164556962025,0.014013224737414886,0.012519519274619178,6.380716169410733e-05,-0.007959823203610219,0.013329748957533747
8.88888888888889,4.253164556962025,0.01410791501685354,0.01285568980814919,2.0165714977327947e-05,-0.008089081447500817,0.013525393422665948
8.98989898989899,4.253164556962025,0.014228083871908855,0.012516069651519827,7.092805261305631e-06,-0.008023246057028604,0.013454026622649102
9.09090909090909,4.253164556962025,0.014306038128633472,0.012867712520416434,-3.3127134739338505e-05,-0.008152125194714971,0.013643975180342159
9.191919191919192,4.253164556962025,0.014298361823007817,0.012943913504760578,-1.5610154381242563e-05,-0.008172682598330518,0.013671577084387381
9.292929292929292,4.253164556962025,0.014573352758725868,0.013023515159767188,-5.870858927482388e-05,-0.008279060375547917,0.013863932243790405
9.393939393939394,4.253164556962025,0.01459653616109114,0.013336415494581576,4.1617942472873065e-05,-0.008379885496701813,0.014009231644867882
9.494949494949495,4.253164556962025,0.015002576693015008,0.013354674654336549,3.510534622927349e-05,-0.008507175404205466,0.014250396801388726
9.595959595959595,4.253164556962025,0.014881701477801245,0.013469980855972447,8.67584259978111e-05,-0.008505504700132107,0.01422925754204418
9.696969696969697,4.253164556962025,0.015017766769819332,0.013507604328608022,-2.9145857087387306e-05,-0.008557611329528206,0.014322611160952415
9.797979797979798,4.253164556962025,0.015423367611243084,0.013592290475458766,6.956733895025878e-05,-0.008704697426010554,0.014594733810622807
9.8989898989899,4.253164556962025,0.015474507894345546,0.014006752609976459,-8.856493698866439e-06,-0.0088443781512966,0.014795341994170364
10.0,4.253164556962025,0.015618987546430553,0.014047100188812044,1.0752375591892424e-05,-0.008899826320572778,0.014895390549371341
0.0,4.3544303797468356,0.015625779341654964,0.014034412870040843,6.058049452565745e-05,-0.008898057663508742,0.01489436456962395
0.10101010101010101,4.3544303797468356,0.015639583274319725,0.014098293691477857,-3.889940564635561e-05,-0.008921363089739275,0.014928883122428823
0.20202020202020202,4.3544303797468356,0.015216742370120473,0.013681406015475555,-7.155499340841736e-05,-0.008669444515678807,0.014510652937467953
0.30303030303030304,4.3544303797468356,0.014972777553980394,0.013629535097701286,-6.0152509202196775e-05,-0.008580693795504503,0.01434876832524278
0.40404040404040403,4.3544303797468356,0.015042558244291085,0.013331318447648233,-4.456111674517205e-05,-0.008512163007581794,0.014264341307713152
0.5050505050505051,4.3544303797468356,0.014685707279810226,0.013330054049997845,6.16178187353302e-05,-0.008404728398942421,0.014057398683560731
0.6060606060606061,4.3544303797468356,0.014685969392835443,0.01324595627337569,-5.893040134046501e-05,-0.008379577699863338,0.014021903029562521
0.7070707070707071,4.3544303797468356,0.014424457879859144,0.013205933378085353,-1.4722078789160105e-05,-0.008289117377383349,0.01385546397478817
0.8080808080808081,4.3544303797468356,0.014442064529735885,0.013003414175389626,2.0497682083405714e-05,-0.008233643611537653,0.01377922791504779
0.9090909090909091,4.3544303797468356,0.014549908068456999,0.013033340213681209,-7.160534340718199e-06,-0.008274974484641462,0.01385402590628012
1.0101010101010102,4.3544303797468356,0.014283929254961617,0.012947970147308054,7.951841135912303e-05,-0.008169569820680901,0.013665710587088436
1.1111111111111112,4.3544303797468356,0.01408759356024082,0.012710651527430963,0.00014862732110280762,-0.008039473526301535,0.013454543180939096
1.2121212121212122,4.3544303797468356,0.013990128275031098,0.012563115598572339,0.0001495094921349002,-0.00796597316208103,0.01333652965360781
1.3131313131313131,4.3544303797468356,0.014195433637231716,0.012394117698358492,1.5137191805684934e-05,-0.007976865400677062,0.01338601142216953
1.4141414141414141,4.3544303797468356,0.013749941381941347,0.012492540197954038,3.7187659662641394e-05,-0.007872744473968615,0.013166506823641577
1.5151515151515151,4.3544303797468356,0.013663359738255155,0.012292696499885002,-2.048768080781712e-05,-0.007786816871442047,0.013032248899531225
1.6161616161616161,4.3544303797468356,0.013762804954560542,0.012247135109109299,6.614764103861674e-05,-0.0078029820191009526,0.01307154594416731
1.7171717171717171,4.3544303797468356,0.013582852810346628,0.012210215229783251,-1.7253072617560937e-05,-0.007737920412038964,0.012951238673652717
1.8181818181818181,4.3544303797468356,0.013473906541222672,0.012249048996397493,4.2773919856908144e-05,-0.0077168866612860485,0.012905359593056375
1.9191919191919191,4.3544303797468356,0.013494967638537572,0.012260903829375206,-2.043391476065816e-05,-0.007726761440373833,0.012922254699406813
2.0202020202020203,4.3544303797468356,0.01339149786747631,0.011959119458131572,1.9725347218869032e-05,-0.007605185197682364,0.012735909778888553
2.121212121212121,4.3544303797468356,0.013317376755450085,0.011999547619472311,-2.611784206463609e-05,-0.0075950773124767185,0.012709886569129218
2.2222222222222223,4.3544303797468356,0.013297504405123709,0.01205679771073481,4.187635990878653e-05,-0.0076062906347575555,0.01272281158629022
2.323232323232323,4.3544303797468356,0.013116608312804619,0.011994128478824551,-8.448775992173584e-05,-0.0075332210374887505,0.012593794536700145
2.4242424242424243,4.3544303797468356,0.013184506432038175,0.011839679118524316,-3.1153659876850554e-05,-0.0075072556651687465,0.012566296098938461
2.525252525252525,4.3544303797468356,0.013076407116975029,0.011757252185420553,-2.4878280161892554e-05,-0.007450097790718674,0.012469348125440217
2.6262626262626263,4.3544303797468356,0.012955135301087614,0.011826360458903333,-0.00011641883150147241,-0.007434448727997284,0.012430884624267812
2.727272727272727,4.3544303797468356,0.01317937353485417,0.011815269789968476,2.187373714873926e-06,-0.007498392997446793,0.01255303339267824
2.8282828282828283,4.3544303797468356,0.012951788266146347,0.011749046566553751,-8.872092169835702e-05,-0.007410250449810029,0.012395215418090876
2.929292929292929,4.3544303797468356,0.012937265958199013,0.011700812594813247,-1.0607621800810094e-05,-0.007391423565903678,0.012365503586627295
3.0303030303030303,4.3544303797468356,0.012801336171271771,0.011422878018148931,0.00010349166174424041,-0.00726726425682621,0.012172114853459842
3.131313131313131,4.3544303797468356,0.012917653480153184,0.011708679524613255,-2.013810365763701e-05,-0.0073878999014299306,0.012357649431180243
3.2323232323232323,4.3544303797468356,0.012835450284166477,0.011533801239617282,1.093538897498149e-05,-0.007310775457135128,0.01223667362406701
3.3333333333333335,4.3544303797468356,0.012853298366833557,0.011445838210590597,1.1078399485091687e-05,-0.0072897409732272465,0.012210572708249278
3.4343434343434343,4.3544303797468356,0.012758615522979603,0.011593514459214346,6.889417129374462e-05,-0.007305638994658185,0.012218383414123258
3.5353535353535355,4.3544303797468356,0.012568049484664787,0.01157935069369017,6.517420228798428e-05,-0.007244220053506487,0.012104549592933722
3.6363636363636362,4.3544303797468356,0.012659173500144524,0.011344879958238978,2.809104289096902e-05,-0.00720121603751505,0.012055975222437473
3.7373737373737375,4.3544303797468356,0.012785044397947384,0.011313370381221394,-4.483103121149935e-05,-0.007229524433750633,0.012116674316408909
3.8383838383838382,4.3544303797468356,0.012581359183269209,0.011269150103818109,-6.489257222627132e-06,-0.007155152786126195,0.011979283957978577
3.9393939393939394,4.3544303797468356,0.012706557545275554,0.011455740896058808,2.0782573528196667e-05,-0.007248689532400309,0.012129668954904865
4.040404040404041,4.3544303797468356,0.01274148706858892,0.011413577599190866,-9.082337792439506e-05,-0.007246519400333936,0.012133179369121535
4.141414141414141,4.3544303797468356,0.012780401633207351,0.01150320972168247,-0.00010590665984110223,-0.007285083406466946,0.012193461696941438
4.242424242424242,4.3544303797468356,0.012621339168414328,0.011239469653289272,-2.0699425224317627e-05,-0.0071582426465110795,0.011990329742034199
4.343434343434343,4.3544303797468356,0.01265761703682924,0.011357336507047568,-1.6760360576255915e-05,-0.007204486063163043,0.012060198516185262
4.444444444444445,4.3544303797468356,0.012666402089949395,0.011360085471999378,1.2843440647066938e-05,-0.007207946268584631,0.012066414891456868
4.545454545454545,4.3544303797468356,0.012711244319504465,0.011234349012879298,4.8468834637337634e-05,-0.007183677999715128,0.012041213497975083
4.646464646464646,4.3544303797468356,0.012609038148714674,0.011303598315448702,-1.91797359878378e-05,-0.007173790939249012,0.01200969521354871
4.747474747474747,4.3544303797468356,0.012774878832921268,0.011277812740548477,-1.069050604396189e-05,-0.007215807472040923,0.012096042369575814
4.848484848484849,4.3544303797468356,0.012587778526871587,0.011343375157651419,-1.1508353008211339e-05,-0.007179346105356901,0.012014026440108516
4.94949494949495,4.3544303797468356,0.012629935192434218,0.011203418035335911,-4.7518475548661906e-05,-0.007150005968331039,0.011980825052394865
5.05050505050505,4.3544303797468356,0.012647085891426876,0.011351234548652687,-4.548982751295067e-05,-0.007199496132023869,0.0120517831455073
5.151515151515151,4.3544303797468356,0.012653519563771507,0.01134130348820914,-8.786099375876187e-06,-0.007198446915594194,0.012051122278954577
5.252525252525253,4.3544303797468356,0.012679235730869905,0.01137422760510473,1.5649876059867955e-05,-0.00721603900079239,0.012079747266638732
5.353535353535354,4.3544303797468356,0.01267310934194495,0.01140373312544807,-1.4552483119263405e-05,-0.007223052740217906,0.012088536226874854
5.454545454545454,4.3544303797468356,0.012715440019412709,0.011249618907877646,8.39443567587742e-05,-0.007189517678187106,0.012050461649268302
5.555555555555555,4.3544303797468356,0.012801446523917164,0.01141391537707082,5.420867740476869e-05,-0.007264608570296395,0.012167525868214726
5.656565656565657,4.3544303797468356,0.012622652344358042,0.011355934919178771,4.049291566336454e-05,-0.007193576179061044,0.012039580997437526
5.757575757575758,4.3544303797468356,0.012595357759036828,0.011300464083827904,4.4844433181670275e-05,-0.00716874655285942,0.012000673759361055
5.858585858585858,4.3544303797468356,0.012556206124610749,0.011563848677223092,2.603962573007146e-05,-0.0072360164405501515,0.012090693738356403
5.959595959595959,4.3544303797468356,0.012595278687973097,0.011422186396569091,4.260665458859092e-06,-0.007205239525362656,0.012051631461122798
6.0606060606060606,4.3544303797468356,0.012646526966875108,0.011629658194211218,-3.845966594940331e-05,-0.007282855548325896,0.012170178532263445
6.161616161616162,4.3544303797468356,0.012675395576384486,0.011453237760493423,-5.392217347438689e-06,-0.007238590001063373,0.012110659610426075
6.262626262626262,4.3544303797468356,0.012695207148901001,0.011303294278382,-2.974076550178286e-05,-0.0071995504281849,0.012059756934016595
6.363636363636363,4.3544303797468356,0.012759660559109104,0.011462986275856374,6.412625464903327e-06,-0.007266794050489644,0.012163276755701918
6.4646464646464645,4.3544303797468356,0.012612711392018208,0.011625813133424414,1.020603443192128e-05,-0.007271557357632787,0.012149374733361753
6.565656565656566,4.3544303797468356,0.012803537242832268,0.011584360569337307,-1.8130891309994396e-05,-0.007316369343650871,0.012239614778773111
6.666666666666667,4.3544303797468356,0.012907916596733552,0.011302325044013115,-3.324883209560875e-05,-0.007263072492223999,0.01218485575236607
6.767676767676767,4.3544303797468356,0.012671462536010656,0.01168195091049215,-5.847671512484875e-05,-0.007306024033950841,0.01220724355231305
6.8686868686868685,4.3544303797468356,0.012967437418316448,0.011556577535468321,-0.00010720392378061411,-0.0073572044861354305,0.01232413078533165
6.96969696969697,4.3544303797468356,0.01299222945384966,0.011505852357072294,-2.1184369535944924e-05,-0.007349424543276585,0.01231654728775733
7.070707070707071,4.3544303797468356,0.012879587216367134,0.011630627367464567,-5.6605077478229776e-05,-0.00735306437514951,0.01230313751320719
7.171717171717171,4.3544303797468356,0.012990810816203643,0.011630555487219058,0.00010130931601044065,-0.0073864098910268105,0.012368162002269555
7.2727272727272725,4.3544303797468356,0.013046812731512532,0.01178695802296308,-3.249781049135022e-05,-0.007450131226342683,0.01246485604447612
7.373737373737374,4.3544303797468356,0.01300816973607037,0.011526047374016617,-4.126991464857518e-05,-0.007360265133026095,0.012334284614069088
7.474747474747475,4.3544303797468356,0.013193763327078133,0.011734886126046465,-2.091654354899092e-05,-0.007478594835937379,0.012528245903171838
7.575757575757575,4.3544303797468356,0.013251639778343238,0.011909937766491121,-0.00011666691345773463,-0.0075484732634503076,0.012635948830963247
7.6767676767676765,4.3544303797468356,0.013214626042236704,0.011844661925643207,4.7121668758483336e-05,-0.007517786390363973,0.012585954114799873
7.777777777777778,4.3544303797468356,0.013371016163541881,0.01194960840274475,-4.1023649700392014e-05,-0.007596187369885988,0.01272021446136245
7.878787878787879,4.3544303797468356,0.013521197722328446,0.012088665782599973,6.449923650524984e-05,-0.007682959051478525,0.012865374788887888
7.979797979797979,4.3544303797468356,0.013488349331991055,0.01207815127273161,-2.4914104619285825e-05,-0.0076699501814168,0.012841528116053881
8.080808080808081,4.3544303797468356,0.013345510933404007,0.012201517161890179,5.71688035287842e-05,-0.007664108428588255,0.012812260036920698
8.181818181818182,4.3544303797468356,0.013886047115594062,0.012205524735154892,-3.7346800749916974e-05,-0.007827471555224686,0.0131268743943349
8.282828282828282,4.3544303797468356,0.013633025899726006,0.012206005245530298,-4.582524177946548e-05,-0.007751709343576892,0.012978731580950413
8.383838383838384,4.3544303797468356,0.013708287687100239,0.012298354324746862,-2.6835168282901817e-05,-0.007801992603554131,0.013060606862874743
8.484848484848484,4.3544303797468356,0.01367427872754829,0.012424603808151616,8.0141189662245e-06,-0.00782966476070997,0.013094249716364074
8.585858585858587,4.3544303797468356,0.013664191113269776,0.012238827915431228,2.2690208670367486e-05,-0.007770905708610301,0.01301026088982594
8.686868686868687,4.3544303797468356,0.013986494371882341,0.012430884514304779,4.215426008257779e-05,-0.007925213665856136,0.013277415007100026
8.787878787878787,4.3544303797468356,0.013955846675689948,0.01250487540124712,1.4244583798711397e-06,-0.00793821662308112,0.013289900207485189
8.88888888888889,4.3544303797468356,0.014147778500935128,0.01259680103870868,5.0043391713026255e-05,-0.008023373861893142,0.01343985844521797
8.98989898989899,4.3544303797468356,0.0143379004700468,0.01292394323132628,5.275156023155897e-05,-0.008178553110411923,0.013686118331562898
9.09090909090909,4.3544303797468356,0.014239275985980529,0.012881867159519935,1.512809172230038e-05,-0.00813634294365014,0.01361145499198282
9.191919191919192,4.3544303797468356,0.014549359173888422,0.012980002357539992,-5.693323319041333e-05,-0.008258808459428524,0.013831967371777295
9.292929292929292,4.3544303797468356,0.014525137869601735,0.013050775534810162,-5.485563995330032e-05,-0.008272774021323568,0.013847277193235466
9.393939393939394,4.3544303797468356,0.01450413688051097,0.01317335036665145,4.9865811053378435e-06,-0.008303246174148727,0.013886653457053135
9.494949494949495,4.3544303797468356,0.014732782502100908,0.013340490767281162,4.927389229774708e-05,-0.00842198198081462,0.01408858789836201
9.595959595959595,4.3544303797468356,0.014933312590495367,0.013364381754434326,-5.3573054494093655e-05,-0.008489308303478908,0.014214240904899823
9.696969696969697,4.3544303797468356,0.014936601273320478,0.01366489909520582,-7.737954730779065e-05,-0.008580450110557889,0.014343721220035384
9.797979797979798,4.3544303797468356,0.015412540015654015,0.013743161832366535,1.3705126870326978e-05,-0.008746710554406165,0.014649382877558426
9.8989898989899,4.3544303797468356,0.01542220722209167,0.013974600990885861,-4.331156716208967e-05,-0.00881904246389326,0.014751962032342183
10.0,4.3544303797468356,0.015628279070353572,0.013997792313872784,-4.389316143881292e-05,-0.008887821415267906,0.014880378743230184
0.0,4.455696202531645,0.015710818612352496,0.014129665466680215,-2.5327970505109426e-05,-0.008952145223709813,0.014983009743992456
0.10101010101010101,4.455696202531645,0.01552359653310625,0.013993720130903853,2.6012027311673286e-05,-0.008855194999203031,0.01481807737164537
0.20202020202020202,4.455696202531645,0.015197807145060084,0.013636211928435936,2.5047459507280556e-05,-0.008650205722048806,0.01448036535532871
0.30303030303030304,4.455696202531645,0.015113291335297529,0.013611316843220476,4.48293399822067e-05,-0.008617382453555401,0.014421295132291456
0.40404040404040403,4.455696202531645,0.015103340047036392,0.013466505717943684,8.364418163798535e-05,-0.008570953729494022,0.014355815224908874
0.5050505050505051,4.455696202531645,0.014829276095248914,0.013414735826924248,-9.060445613932073e-05,-0.008473203576651949,0.014175908189439429
0.6060606060606061,4.455696202531645,0.014610220633282572,0.013431517825074277,9.113316691085349e-05,-0.008412521537507054,0.014058865350255495
0.7070707070707071,4.455696202531645,0.014600836208425757,0.013176107630573395,3.996551006331472e-05,-0.008333083151699746,0.013943343667324706
0.8080808080808081,4.455696202531645,0.014554149328898687,0.013249042570397381,7.944200435714572e-06,-0.00834095756978882,0.013947474216378628
0.9090909090909091,4.455696202531645,0.014309903773170193,0.012792735847336093,6.874655877215376e-06,-0.008130791886151886,0.013614872723195925
1.0101010101010102,4.455696202531645,0.014282897882690824,0.012796752182861146,-3.454368232055321e-06,-0.008123895019665591,0.013600859145546965
1.1111111111111112,4.455696202531645,0.014157758674814846,0.013017230654431045,-4.411227289112775e-05,-0.008152496798773766,0.013623562385183117
1.2121212121212122,4.455696202531645,0.014040733337512153,0.012741647093523044,3.801506605116812e-05,-0.008034714129310559,0.013438527807237899
1.3131313131313131,4.455696202531645,0.013844391214863151,0.012625203423434274,4.1518020553295595e-06,-0.007940878391489227,0.01327684924763416
1.4141414141414141,4.455696202531645,0.013817143059625822,0.012457542036942087,6.205193631019988e-05,-0.007882405528970373,0.01319043997617265
1.5151515151515151,4.455696202531645,0.013667930123865144,0.012302558030058901,0.00010000894889744252,-0.007791146446177214,0.013040120774891797
1.6161616161616161,4.455696202531645,0.013631706321588865,0.01222410114640074,-1.0010848955375294e-05,-0.007756742240396882,0.012985261254731826
1.7171717171717171,4.455696202531645,0.013628575985379324,0.012052080202145377,-5.8374082443960134e-05,-0.0077041968562574096,0.01291310390153669
1.8181818181818181,4.455696202531645,0.01366599747258607,0.012246196993077382,1.0458556198356823e-05,-0.0077736583396990355,0.013014325134327672
1.9191919191919191,4.455696202531645,0.013400229847887659,0.012090881462104056,-5.3359059371973914e-08,-0.007647333392997515,0.012795897149463732
2.0202020202020203,4.455696202531645,0.01325717720802253,0.011964508750189472,1.724072303239424e-05,-0.007566505787463601,0.012660469824523362
2.121212121212121,4.455696202531645,0.013290625155364753,0.011933446512538269,-6.612435801082859e-05,-0.007567221500370906,0.01266720235768152
2.2222222222222223,4.455696202531645,0.013203266930580632,0.011826174609262538,-0.00010220619165088576,-0.007508832461952951,0.012572663270445804
2.323232323232323,4.455696202531645,0.013156681630328043,0.012102882517384367,1.4803215211637799e-05,-0.007577869244313723,0.01266273754235126
2.4242424242424243,4.455696202531645,0.013095229582090926,0.011772890960181658,-4.2117441360684305e-05,-0.007460436162681774,0.012486897574501638
2.525252525252525,4.455696202531645,0.013138395114909019,0.011674894131720088,1.781071433661797e-05,-0.007443986773988732,0.01247125329787274
2.6262626262626263,4.455696202531645,0.01298351556191192,0.011834928854493448,-5.374550049066528e-05,-0.007445533324921611,0.012449373482925295
2.727272727272727,4.455696202531645,0.012916964831144474,0.011870836675940756,1.4502827319888049e-05,-0.007436340452125568,0.012426994607405987
2.8282828282828283,4.455696202531645,0.0131625389651931,0.011578358748532509,-1.3856467850991742e-05,-0.007422269314117683,0.01244631677021384
2.929292929292929,4.455696202531645,0.012947581718273503,0.011697850131669253,-2.8987686334689055e-05,-0.007393629554982827,0.012370255470455636
3.0303030303030303,4.455696202531645,0.012920647818029646,0.011731819127732555,2.6905376601580217e-05,-0.007395740083728661,0.012369243653797098
3.131313131313131,4.455696202531645,0.01290755887543235,0.01157680437350533,-3.5877160463692696e-05,-0.007345308974681303,0.012296465065079094
3.2323232323232323,4.455696202531645,0.012828923232600216,0.011608241674384664,7.25863811072349e-05,-0.007331149472095464,0.012264873057675145
3.3333333333333335,4.455696202531645,0.012742870451373624,0.011633243408993176,-0.00010560988913086642,-0.00731283415811004,0.012227250149126944
3.4343434343434343,4.455696202531645,0.012757482977314662,0.011443433130200947,8.443060197111844e-06,-0.007260274832254682,0.01215386128837553
3.5353535353535355,4.455696202531645,0.012591622627729096,0.011324844271163459,6.740781050156952e-05,-0.007174940069667766,0.012009018453799753
3.6363636363636362,4.455696202531645,0.01260978816740136,0.011275406286639693,-5.7261373196858446e-05,-0.007165558336212316,0.01199878728764696
3.7373737373737375,4.455696202531645,0.012775270128203044,0.011495578793931841,4.945522033941843e-06,-0.007281254676640466,0.012185926622875062
3.8383838383838382,4.455696202531645,0.01267441070274943,0.011536207353510053,-2.59079483662577e-05,-0.007263185416877845,0.012145458018537213
3.9393939393939394,4.455696202531645,0.012761193618935828,0.011528361929846132,-3.101897053834145e-05,-0.007286866664634588,0.012191735692638627
4.040404040404041,4.455696202531645,0.012800410717532846,0.011461028743627597,-6.656633093189177e-05,-0.007278431838348132,0.012186595606039704
4.141414141414141,4.455696202531645,0.012738917747794948,0.011183391752321633,-8.21708161717925e-05,-0.007176692850034975,0.01203761707838715
4.242424242424242,4.455696202531645,0.012588859592992588,0.011471596565266909,-4.1204166786636653e-05,-0.007218136847477848,0.01206928699181545
4.343434343434343,4.455696202531645,0.012519620582145242,0.01148546223351187,-3.667914441841539e-05,-0.007201524844697133,0.012036076974790458
4.444444444444445,4.455696202531645,0.012711875428777192,0.01154402007036501,-2.4486628719163844e-05,-0.007276768649742659,0.012170120377585174
4.545454545454545,4.455696202531645,0.012455158350217198,0.01138607995541989,-2.7773061517003897e-05,-0.0071523714916911256,0.011956616221826692
4.646464646464646,4.455696202531645,0.012690735163957348,0.011344666230343806,1.952437988336572e-05,-0.007210620418290345,0.012074154207688943
4.747474747474747,4.455696202531645,0.012441261856659336,0.011453276406825998,-1.854078765657301e-05,-0.0071683614790456,0.011977911229656187
4.848484848484849,4.455696202531645,0.012625087729946046,0.011269827946855557,-8.511797760171847e-05,-0.007168474703040481,0.012005874846109493
4.94949494949495,4.455696202531645,0.01261918488795112,0.011301923624949818,4.5609543164357706e-05,-0.007176332553870281,0.012015093913034191
5.05050505050505,4.455696202531645,0.012598542486997778,0.011222652698786775,1.5540467503040058e-05,-0.007146358555735365,0.011970082041079726
5.151515151515151,4.455696202531645,0.012667611781735706,0.011174743061034702,-7.06534241621988e-05,-0.007152706452831122,0.011991702948043598
5.252525252525253,4.455696202531645,0.012506955101763658,0.011327171297089714,3.3057914046122956e-05,-0.007150237919656011,0.011960919326937257
5.353535353535354,4.455696202531645,0.01253844107717616,0.011181382636337275,-4.41525554593934e-05,-0.007115947114054031,0.011918244975808661
5.454545454545454,4.455696202531645,0.012643732497122766,0.011350500942006639,-5.395549430157185e-05,-0.0071982700317388204,0.012049642279350702
5.555555555555555,4.455696202531645,0.012533530593120375,0.011395208355695019,-3.628199808830251e-05,-0.0071786216846446175,0.01200507889217965
5.656565656565657,4.455696202531645,0.0124952158673859,0.011481487949523994,2.3375857770187103e-05,-0.007193011145072968,0.012020522201290771
5.757575757575758,4.455696202531645,0.01264893452353446,0.01138137821446303,5.199645143559879e-05,-0.007209093821399246,0.01206553429036099
5.858585858585858,4.455696202531645,0.012512761813852104,0.011419570120455986,-7.289140064006126e-06,-0.007179699580292426,0.01200356565388164
5.959595959595959,4.455696202531645,0.01267775932017534,0.011351497370541707,-7.930714753125662e-06,-0.0072087770072151135,0.012069412207522223
6.0606060606060606,4.455696202531645,0.012561312145106678,0.011493290923942034,9.28189455276391e-05,-0.007216380920714614,0.012063885372008556
6.161616161616162,4.455696202531645,0.012697782830358688,0.011187149114961884,5.035294880271503e-07,-0.00716547958359617,0.01201390881167927
6.262626262626262,4.455696202531645,0.012666665156903907,0.01153366865284841,-5.437451816968254e-05,-0.007260100142925695,0.012140249985036976
6.363636363636363,4.455696202531645,0.012942040814922657,0.011338176515372443,-5.421822771332016e-05,-0.00728406519908853,0.01221967032160723
6.4646464646464645,4.455696202531645,0.012672200780523158,0.011401199205636623,-6.272910782864681e-05,-0.007222019995847934,0.012087412266438146
6.565656565656566,4.455696202531645,0.012764742365413462,0.011408354293032089,4.222735063706763e-05,-0.007251928997533665,0.012143716128691298
6.666666666666667,4.455696202531645,0.012821937259008305,0.011491519927685117,4.9287590779573805e-05,-0.007294037156008026,0.012211504641063766
6.767676767676767,4.455696202531645,0.012665484675880329,0.011580631310193084,3.4661836754294344e-06,-0.007273834795822024,0.012159409988342411
6.8686868686868685,4.455696202531645,0.012751911415846631,0.011526237517058767,2.62367241748519e-05,-0.007283444679871619,0.012185479119788338
6.96969696969697,4.455696202531645,0.012846019565708536,0.011675744182939578,-1.0272533165635693e-05,-0.007356529124594434,0.012302711053445796
7.070707070707071,4.455696202531645,0.013076715925549473,0.011623997381284949,1.1024820704229433e-05,-0.007410213992050326,0.012414284815617007
7.171717171717171,4.455696202531645,0.012899928635730421,0.011936758098893217,-2.3113460114517674e-05,-0.007451006020387091,0.012446390151238482
7.2727272727272725,4.455696202531645,0.01313910245306877,0.011495990910741495,-2.2284525410523766e-05,-0.007390528009143079,0.012399528527993605
7.373737373737374,4.455696202531645,0.013003539621991803,0.01178874337014246,-1.5737265771406658e-05,-0.007437684897640278,0.012440734079034472
7.474747474747475,4.455696202531645,0.013110721652702153,0.011737412806909346,-8.502220567453292e-06,-0.007454440337883449,0.012480871214921111
7.575757575757575,4.455696202531645,0.013138638816945656,0.011806643964223162,-3.661665399116644e-05,-0.007483584834350645,0.012526031427069281
7.6767676767676765,4.455696202531645,0.013050393344682644,0.01180641416648072,-1.3776640450095521e-05,-0.007457042253349009,0.012475031160124331
7.777777777777778,4.455696202531645,0.01332360952649782,0.01179314265020702,1.0510399598495702e-05,-0.007535025653011451,0.012628138739599294
7.878787878787879,4.455696202531645,0.013338172453657591,0.01201202002019484,-2.6544210912340983e-05,-0.0076050577421557285,0.01272710448642284
7.979797979797979,4.455696202531645,0.013541105246515134,0.012094394583055544,1.672727191534695e-05,-0.007690649948871203,0.012878869557949662
8.080808080808081,4.455696202531645,0.013278646750277632,0.012107410091693213,5.441526042625933e-06,-0.007615817052591253,0.012733495427782964
8.181818181818182,4.455696202531645,0.013618445763532765,0.012033612318608715,-3.639811460921702e-05,-0.007695617424642444,0.012899409607293804
8.282828282828282,4.455696202531645,0.013502714388068743,0.012411941696575689,-3.7619525258538324e-05,-0.0077743968253933295,0.012991879559200507
8.383838383838384,4.455696202531645,0.013740383485640724,0.012356167058323167,6.342114040751096e-06,-0.007828965163189167,0.013103230501631606
8.484848484848484,4.455696202531645,0.013563911970481872,0.012306874846802948,6.277916844482425e-05,-0.007761236045185445,0.012981576678356586
8.585858585858587,4.455696202531645,0.01379252620943604,0.012427069477607237,-3.4186964331047104e-05,-0.007865878706112984,0.013163155389513093
8.686868686868687,4.455696202531645,0.013871920771090488,0.012592249718140599,6.220347519069787e-05,-0.007939251146769325,0.013278849959261088
8.787878787878787,4.455696202531645,0.0141090273381399,0.012666015325796927,1.4312349380966647e-05,-0.008032512799181048,0.013445744854591296
8.88888888888889,4.455696202531645,0.014170275674416068,0.012644385327327676,1.956818620425989e-05,-0.008044398300523123,0.013472338917754643
8.98989898989899,4.455696202531645,0.01421891505223166,0.01266709832359956,3.971415281155489e-05,-0.008065804012749365,0.013510191035754869
9.09090909090909,4.455696202531645,0.014218645934701742,0.012930473089026869,7.662794148568109e-05,-0.008144735707118583,0.013620969988427595
9.191919191919192,4.455696202531645,0.014499955359491388,0.012921950888307056,-7.048418231696426e-05,-0.008226571874339533,0.013779430801340847
9.292929292929292,4.455696202531645,0.014534404740379654,0.013028868987572176,4.841896639676037e-05,-0.008268982118385549,0.013843428992365183
9.393939393939394,4.455696202531645,0.014642497549314291,0.013376832594108233,6.221718473182893e-05,-0.008405799043026758,0.014052891488582768
9.494949494949495,4.455696202531645,0.014703727466025588,0.01335183002223424,1.7242597673298248e-05,-0.008416667246477948,0.0140765829816644
9.595959595959595,4.455696202531645,0.015031894248497952,0.013364184841258828,-6.448799896568642e-06,-0.008518823726927034,0.014271313628367793
9.696969696969697,4.455696202531645,0.015077644553852573,0.01364728342538619,7.017327962484282e-05,-0.00861747839377163,0.014416296141485306
9.797979797979798,4.455696202531645,0.015474173919421677,0.013617738028907651,6.435402920145693e-05,-0.008727573584498799,0.014634959008731508
9.8989898989899,4.455696202531645,0.015567778752872765,0.013751345518296708,-5.28898958225086e-06,-0.008795737281350842,0.014743724705753851
10.0,4.455696202531645,0.015691644679822588,0.01395374835568287,-4.35780286153182e-05,-0.008893617910651637,0.014899102050668243
0.0,4.556962025316456,0.025943408679807343,0.023390391846649983,-8.371295110077877e-07,-0.014800140157937198,0.02476579075885154
0.10101010101010101,4.556962025316456,0.025690872227222068,0.023061855321527387,4.882859805700115e-05,-0.014625818264624836,0.024482607315693208
0.20202020202020202,4.556962025316456,0.025475349682837548,0.02300079491023935,3.792567093050397e-05,-0.01454284337792307,0.024332715214577114
0.30303030303030304,4.556962025316456,0.02518026896506764,0.02267884786827252,-4.749445811327403e-06,-0.014357735050002046,0.02402741484879618
0.40404040404040403,4.556962025316456,0.025018916359990335,0.022649876462135062,2.5802716559034677e-05,-0.014300637846637619,0.023922577456211663
0.5050505050505051,4.556962025316456,0.024710677721070304,0.022101087384330077,4.632096414138148e-05,-0.014043529531620113,0.02351487287357
0.6060606060606061,4.556962025316456,0.02425171035560299,0.022159365886469613,-5.303783469454167e-05,-0.013923322872621782,0.023276358554458882
0.7070707070707071,4.556962025316456,0.024274298857994724,0.021728981940429222,-6.898358054328379e-05,-0.013800984239527183,0.023107330350257856
0.8080808080808081,4.556962025316456,0.023991053137490257,0.021751006885059074,2.0855313188308177e-07,-0.0137226180067648,0.02295315597726994
0.9090909090909091,4.556962025316456,0.023926252160067683,0.021382552176537842,-3.865940306482451e-05,-0.013592641300981659,0.022761353836188967
1.0101010101010102,4.556962025316456,0.02355298832355999,0.02127763932416431,-3.280317521169534e-06,-0.01344918829431729,0.022501760729006587
1.1111111111111112,4.556962025316456,0.023406821178769188,0.021270335336156413,-1.603928977542176e-05,-0.013403146954477679,0.022415090433857338
1.2121212121212122,4.556962025316456,0.023490156068356718,0.021057393960719515,8.334596944351282e-05,-0.01336426500872287,0.022373659549890276
1.3131313131313131,4.556962025316456,0.02297660730451,0.020823318381599155,1.4906202907167682e-05,-0.013139977705832747,0.021979229490611686
1.4141414141414141,4.556962025316456,0.02313425905849381,0.02069639202617786,9.077667735557986e-05,-0.013149195325401502,0.022017347969100466
1.5151515151515151,4.556962025316456,0.0229453442200886,0.02051023397278895,-3.2412482738406094e-05,-0.013036673457863265,0.021829963173670572
1.6161616161616161,4.556962025316456,0.022772435677124465,0.020632984184683876,3.941381736425198e-06,-0.013021625958542503,0.021781657523357034
1.7171717171717171,4.556962025316456,0.02267545328771948,0.020264153032125472,-7.4698064235634854e-06,-0.012881881895953485,0.021571124027546917
1.8181818181818181,4.556962025316456,0.022589915939753066,0.020313738759989153,-8.925750481511015e-05,-0.012871096409922666,0.021542760600035318
1.9191919191919191,4.556962025316456,0.022320229652217805,0.020081048677225714,-4.068995971711564e-05,-0.012720383498833055,0.021289258244247836
2.0202020202020203,4.556962025316456,0.02230812785492882,0.020009923896497243,5.882135221577585e-05,-0.01269541552542782,0.02125267187765896
2.121212121212121,4.556962025316456,0.022092944168357703,0.01987588881859902,7.419264931723507e-05,-0.012590649896087016,0.02107246426114718
2.2222222222222223,4.556962025316456,0.02203554869087362,0.019874244674150908,-2.6628988854545485e-05,-0.012572938009507357,0.021038375616321523
2.323232323232323,4.556962025316456,0.022184518421449882,0.019812762512304932,7.589291549886755e-05,-0.012599184280126444,0.0210992677652679
2.4242424242424243,4.556962025316456,0.022045504215120103,0.019717454200946047,-7.854456905282854e-05,-0.012528887524819845,0.020979026295680946
2.525252525252525,4.556962025316456,0.021861046249491558,0.01972412495948326,-9.436653597544894e-07,-0.012475551362692443,0.020874780076475488
2.6262626262626263,4.556962025316456,0.02173972055752383,0.019600835985718074,-3.5537004011322065e-05,-0.01240216696297257,0.020753200063383936
2.727272727272727,4.556962025316456,0.021501169608961458,0.019551844591030654,-3.59761795720073e-05,-0.012315904259997634,0.020595904389024203
2.8282828282828283,4.556962025316456,0.02146716612416456,0.01948262881482213,-0.00010002716319766287,-0.012284938481696006,0.020547633292803485
2.929292929292929,4.556962025316456,0.02152884579903045,0.019374290922187037,1.1087761461214192e-05,-0.012270941016365246,0.020536518625658355
3.0303030303030303,4.556962025316456,0.021504110858057174,0.01943960348870276,1.9059655489314796e-05,-0.01228311430402798,0.02054980946255366
3.131313131313131,4.556962025316456,0.021472537502321056,0.01930309113410994,-4.638295113805846e-05,-0.012232688590929299,0.020474357131956795
3.2323232323232323,4.556962025316456,0.021463262480959516,0.019291025155720253,3.8454711281804426e-05,-0.012226286291003929,0.02046390450856431
3.3333333333333335,4.556962025316456,0.02124492582052052,0.019239972952381307,2.7762787399838365e-05,-0.01214546963187055,0.020316838988452764
3.4343434343434343,4.556962025316456,0.021119381192188785,0.01910611022678872,-7.940155520972725e-05,-0.012067647425693252,0.020188645293346442
3.5353535353535355,4.556962025316456,0.02116999524812777,0.019049958069064375,-6.627532043311026e-05,-0.012065985995157643,0.020193941088703628
3.6363636363636362,4.556962025316456,0.021347379168388993,0.019097426106376526,-0.00010103479950272312,-0.012133441582429655,0.02031681345847575
3.7373737373737375,4.556962025316456,0.02119183543378108,0.01923992244112656,1.394139175920959e-05,-0.012129527362472291,0.02028644418199433
3.8383838383838382,4.556962025316456,0.021023388196617178,0.019057130791252746,2.0509712441303973e-05,-0.012024155696360976,0.02011250577793022
3.9393939393939394,4.556962025316456,0.021183521463435932,0.018931064042258958,-1.2188954084316511e-05,-0.012034375651708467,0.02015193816015951
4.040404040404041,4.556962025316456,0.02116602734025189,0.01902879555856751,-7.626387809788481e-05,-0.01205844686964582,0.02018289412524014
4.141414141414141,4.556962025316456,0.021097043296102923,0.019103418179879067,-7.062730573311828e-05,-0.012060138442794596,0.02017461638290682
4.242424242424242,4.556962025316456,0.02103160167262426,0.018950769634344944,-3.5514326636219245e-05,-0.01199471139209076,0.020072336289354186
4.343434343434343,4.556962025316456,0.020950901449549912,0.019079841502411956,-3.327150032191956e-05,-0.012009222885588559,0.020080937858926066
4.444444444444445,4.556962025316456,0.020988261951186606,0.019067504484179182,-1.731492577494942e-05,-0.012016729930609737,0.02009686511713721
4.545454545454545,4.556962025316456,0.021095246497383084,0.018797924046729034,1.3899140352205774e-05,-0.011967951163233636,0.02004557585616888
4.646464646464646,4.556962025316456,0.021012176746772013,0.018863517010306453,3.576587892457329e-05,-0.01196270812712354,0.02002458812918991
4.747474747474747,4.556962025316456,0.021010201632248163,0.0187365658653639,-4.278806030070426e-05,-0.011924030249283618,0.019970827193232687
4.848484848484849,4.556962025316456,0.02109071580001689,0.01875790645501811,1.0111908641069052e-05,-0.0119545866765105,0.020026481973584177
4.94949494949495,4.556962025316456,0.020867921261477147,0.018874803549142175,-3.006732699163512e-05,-0.011922817443185796,0.01994625640657988
5.05050505050505,4.556962025316456,0.021023823240219976,0.018997779958039966,-8.916322386851812e-06,-0.012006480959477981,0.02008758466511361
5.151515151515151,4.556962025316456,0.021042343441392008,0.018843061654267593,5.8259093324688376e-05,-0.011965621528697882,0.02003370154418462
5.252525252525253,4.556962025316456,0.021056498821245908,0.018782441554109533,3.461918399331072e-05,-0.011951682112606632,0.02001667780532385
5.353535353535354,4.556962025316456,0.021163051820891177,0.01893676715965688,-1.8734770569530585e-06,-0.012029945694164415,0.02014239654665166
5.454545454545454,4.556962025316456,0.02103810171669752,0.018879824919818527,-5.7886355307658215e-05,-0.011975377990954814,0.020046543050584096
5.555555555555555,4.556962025316456,0.020896045451355594,0.018985138063066277,-1.964033213784163e-05,-0.01196435505432656,0.020009173699597198
5.656565656565657,4.556962025316456,0.021248153808657532,0.01871735427287492,0.00012027614580870774,-0.011989652424459735,0.02010367050628439
5.757575757575758,4.556962025316456,0.020971098394315348,0.01906936853493435,3.36614525677598e-05,-0.01201214007877491,0.020087946127013524
5.858585858585858,4.556962025316456,0.021052405911542133,0.01896633220325886,-2.6834800759617517e-05,-0.012005621434440297,0.020090813523402803
5.959595959595959,4.556962025316456,0.020823265053722333,0.019114847804072774,6.350742707070152e-06,-0.011981433857338533,0.02002379466485982
6.0606060606060606,4.556962025316456,0.02092717487745479,0.019067659095409712,-6.484299133908812e-05,-0.01199845019185935,0.020062468671067937
6.161616161616162,4.556962025316456,0.02115846982543862,0.019036096738025577,-7.44992743402123e-05,-0.012058369969039258,0.02018157071125663
6.262626262626262,4.556962025316456,0.021063788721961827,0.019044159479645592,-1.579747451329209e-05,-0.012032384460482224,0.020130121773690866
6.363636363636363,4.556962025316456,0.02141193151856891,0.019089583695505338,-1.785709870774577e-05,-0.012150454564222273,0.020350408223064245
6.4646464646464645,4.556962025316456,0.021409384652445993,0.019017672612699814,3.139579614750411e-05,-0.012128117179543743,0.020319446639332772
6.565656565656566,4.556962025316456,0.02126499288584866,0.01927915551480998,1.215822519115199e-05,-0.012163244520197592,0.020344903499381298
6.666666666666667,4.556962025316456,0.0214000164860163,0.01905702603612012,-5.5709645121354166e-06,-0.012137112756640924,0.02033003612152851
6.767676767676767,4.556962025316456,0.021427370776103433,0.01902723910800641,-3.09470781452748e-05,-0.012136382965232952,0.020333893193433674
6.8686868686868685,4.556962025316456,0.021545738103664176,0.019214851976250242,2.9458669964838593e-05,-0.012228177023974326,0.02048008305548688
6.96969696969697,4.556962025316456,0.021470476547929277,0.019326382396609765,4.642200225324564e-05,-0.012239057683361712,0.020482925687980352
7.070707070707071,4.556962025316456,0.02169817655437839,0.01953435449943454,3.6818737362065875e-05,-0.012369759316143878,0.02070135419600058
7.171717171717171,4.556962025316456,0.021489804059206388,0.019279020159096615,-6.745341357417219e-05,-0.0122306472654909,0.020474461678258338
7.2727272727272725,4.556962025316456,0.021585263087200494,0.019545761938689152,7.967339353367035e-06,-0.012339307507766894,0.020641224989245758
7.373737373737374,4.556962025316456,0.02185849683237398,0.019559774261081676,-7.898746631291345e-05,-0.012425481328036695,0.02080505001789412
7.474747474747475,4.556962025316456,0.021818538967947426,0.019631929466570976,1.0739954930900378e-05,-0.012435140530355519,0.020811574309354392
7.575757575757575,4.556962025316456,0.021774559620169304,0.019587240986349168,-2.601173985927356e-05,-0.012408540181955542,0.020767521260120866
7.6767676767676765,4.556962025316456,0.021880933635034894,0.019889467305249865,-9.105426180150337e-06,-0.012531120282085428,0.020956295021100316
7.777777777777778,4.556962025316456,0.02190413423955945,0.019918799661766098,-1.273870701745909e-05,-0.012546880170397665,0.02098204236703299
7.878787878787879,4.556962025316456,0.022217892981789583,0.020078855905409008,-5.226183537331788e-05,-0.012689024666159576,0.02122954415939239
7.979797979797979,4.556962025316456,0.022428898112469675,0.02005238527322528,1.8490005563461737e-05,-0.012744385015708487,0.0213401439807975
8.080808080808081,4.556962025316456,0.022525849028405723,0.020035253132150977,4.663311127100416e-05,-0.01276833064816701,0.021389733031535647
8.181818181818182,4.556962025316456,0.022505172284637696,0.02029388446824093,4.857884767566494e-05,-0.012839717025863586,0.021485209791914168
8.282828282828282,4.556962025316456,0.02253988670463312,0.020457793896136924,-9.94736239344381e-06,-0.012899304180231013,0.021574331135840775
8.383838383838384,4.556962025316456,0.022754470920234117,0.020534226058252957,7.218907697959424e-05,-0.01298660909354612,0.02172994640462074
8.484848484848484,4.556962025316456,0.02293670909577587,0.0205313621394629,4.660958337629157e-05,-0.01304042137057163,0.02183378327438739
8.585858585858587,4.556962025316456,0.023032333540824835,0.02087532131283469,1.4703222148012238e-05,-0.013172296456097856,0.022033173025123313
8.686868686868687,4.556962025316456,0.02306325005151673,0.020821476414130926,8.470665438566076e-05,-0.013165417939694297,0.02202857216603085
8.787878787878787,4.556962025316456,0.023539516783580648,0.021056856929680675,4.224512328035526e-05,-0.013378912113978396,0.022401722947290554
8.88888888888889,4.556962025316456,0.023531417558321565,0.021215535764483828,1.2303294314805632e-05,-0.013424085996841617,0.022463200871508847
8.98989898989899,4.556962025316456,0.02356379248362807,0.02127388443163208,7.543576830573519e-06,-0.013451303074578045,0.0225063823763597
9.09090909090909,4.556962025316456,0.02375943303975137,0.02148202760241325,8.63403054661721e-05,-0.013572438192649385,0.022707041547693735
9.191919191919192,4.556962025316456,0.024076847538409017,0.021676820703203325,7.911829072615972e-05,-0.013726100472483701,0.022971469589687644
9.292929292929292,4.556962025316456,0.024393010341616526,0.021770233632710162,3.136711296476707e-05,-0.013848973192298006,0.023193176658108217
9.393939393939394,4.556962025316456,0.024456204875202416,0.022111629608710187,-9.012589863219258e-07,-0.013970350345173781,0.02337228229018849
9.494949494949495,4.556962025316456,0.024899924907688546,0.022205651954336634,1.5900788786081533e-05,-0.014131673058607554,0.02366809944718133
9.595959595959595,4.556962025316456,0.02502236240618114,0.022434125248171764,6.717361784414756e-05,-0.01423694629630587,0.023834162890613873
9.696969696969697,4.556962025316456,0.025028284339380234,0.022737008079350363,-5.674182900301342e-06,-0.014329587725619177,0.02396493994829943
9.797979797979798,4.556962025316456,0.025451337844816253,0.022991749666736092,-2.1266654254962513e-05,-0.014532926253465703,0.024315051289870708
9.8989898989899,4.556962025316456,0.025863616213133527,0.02307212081310807,-6.52814996827129e-05,-0.014680721107872479,0.024587267223590406
10.0,4.556962025316456,0.025944666380188903,0.02351551905150571,-1.1700013602187325e-05,-0.014838055629508384,0.02481941707542092
0.0,4.658227848101266,0.026056450888188285,0.023534532760998834,2.1828670910179268e-05,-0.014877295094756136,0.02489152260461967
0.10101010101010101,4.658227848101266,0.025533969932436878,0.02324561377721766,2.247591732905268e-05,-0.01463387511289636,0.024470204180640283
0.20202020202020202,4.658227848101266,0.02573234651783106,0.022889749969564232,-1.848385517651748e-05,-0.014586628946218587,0.024435391505320002
0.30303030303030304,4.658227848101266,0.025219014329737735,0.02270659937728297,-2.9113019784941185e-06,-0.014377684112106211,0.02406138627335651
0.40404040404040403,4.658227848101266,0.02505596261626442,0.02260770307249201,-4.419219656458625e-05,-0.014299099706626928,0.023926086112616714
0.5050505050505051,4.658227848101266,0.024883945957324648,0.02228646150220071,-5.5805476568974e-06,-0.014151122237857607,0.023692237600592005
0.6060606060606061,4.658227848101266,0.02450490980759212,0.022055666970833315,3.622111200959348e-05,-0.01396817303352763,0.02337680166846694
0.7070707070707071,4.658227848101266,0.02420174939565323,0.021837644705194403,1.6643659272018454e-05,-0.01381181823025429,0.023110582566609174
0.8080808080808081,4.658227848101266,0.024063356845968328,0.021771885869204317,1.5633149924223844e-05,-0.013750572814551791,0.023003396081966686
0.9090909090909091,4.658227848101266,0.023820771105955065,0.02151466976918809,-5.882154332134886e-05,-0.013600632262542947,0.022755757673374778
1.0101010101010102,4.658227848101266,0.02378922137451874,0.02139930870358926,-3.3606650687187565e-05,-0.0135565590234324,0.022688939217313155
1.1111111111111112,4.658227848101266,0.023607847809774596,0.02121279835354922,-4.692905489236345e-05,-0.013446193848997146,0.022506252110388612
1.2121212121212122,4.658227848101266,0.023510816557563645,0.021027734449651364,2.383782692114496e-05,-0.013361565302164502,0.022372898979513712
1.3131313131313131,4.658227848101266,0.023044195633773124,0.021043625079775374,-4.602132821380376e-05,-0.013226346214064549,0.02211203404509845
1.4141414141414141,4.658227848101266,0.023052799936666563,0.02093363185652999,-3.0227868596875015e-05,-0.013195929537958966,0.022069717752169038
1.5151515151515151,4.658227848101266,0.022801300001640035,0.02076928915437498,0.00010542199431068018,-0.013071176746804504,0.021857017232544993
1.6161616161616161,4.658227848101266,0.022757628089862147,0.020575842016405447,-7.56557932475503e-05,-0.013000041031880277,0.021749361418501457
1.7171717171717171,4.658227848101266,0.02257199320620014,0.02013275971043142,7.313451988028606e-05,-0.012811425874989468,0.021456990036507737
1.8181818181818181,4.658227848101266,0.022491324324318558,0.0201352474678184,4.7323628106770365e-05,-0.012787971537641087,0.0214108897031437
1.9191919191919191,4.658227848101266,0.022517247761189147,0.020100658442223373,-2.6459129193389797e-05,-0.012785371861023756,0.02141152751439454
2.0202020202020203,4.658227848101266,0.0222583391765101,0.019961604493662313,-5.4837971081010475e-05,-0.012665983101051723,0.021203683056014035
2.121212121212121,4.658227848101266,0.0220176594244489,0.01997753094375312,4.8601740806402e-05,-0.012598557110460607,0.021071964385560256
2.2222222222222223,4.658227848101266,0.02217816486170706,0.019850409139170442,-3.801261818856559e-05,-0.01260857220026325,0.021110860428748164
2.323232323232323,4.658227848101266,0.021978788697037992,0.01982572026623819,-6.869497750586362e-05,-0.012541352688982856,0.020985594515422794
2.4242424242424243,4.658227848101266,0.02194554953215447,0.01962467643862264,7.193904790757716e-05,-0.012471067791233133,0.020882439666677348
2.525252525252525,4.658227848101266,0.021805275855802345,0.019576644640657264,2.9332783688601362e-05,-0.012414576148937883,0.020780844907035467
2.6262626262626263,4.658227848101266,0.021763274128713803,0.019546471724957597,-7.525764771490294e-07,-0.01239292375610142,0.020743901200011027
2.727272727272727,4.658227848101266,0.02177545955675144,0.019563692083299094,-2.0539432254429306e-05,-0.012401745492015158,0.02075816867409241
2.8282828282828283,4.658227848101266,0.021576553821916217,0.01945326184518603,-6.591978220908615e-05,-0.012308944700130673,0.020597469657363057
2.929292929292929,4.658227848101266,0.021496564168755356,0.019601612444299685,-3.888126596604271e-05,-0.01232945298391651,0.020614623377993316
3.0303030303030303,4.658227848101266,0.02146476262265132,0.019274431280740825,6.229481589719933e-05,-0.012221758171017644,0.020458012744333832
3.131313131313131,4.658227848101266,0.021454549335347038,0.01911431908562236,-0.00011645670847756777,-0.01217066052629082,0.02038642847461578
3.2323232323232323,4.658227848101266,0.021504167613543707,0.01920881590521189,-0.0001003430018852897,-0.012213895055626678,0.02045405687149629
3.3333333333333335,4.658227848101266,0.021252748752768193,0.019339276100031274,-6.391864207762878e-06,-0.01217760745583984,0.020363552641298514
3.4343434343434343,4.658227848101266,0.021273995467518524,0.019037343683525366,3.3992716852564846e-05,-0.012093401745313166,0.020248615778718008
3.5353535353535355,4.658227848101266,0.02115803932106329,0.019146199339112806,-1.6980963188997833e-06,-0.01209127159805283,0.02022729708165262
3.6363636363636362,4.658227848101266,0.020974211126642467,0.019016489642014453,1.319430163879981e-05,-0.011997210230597076,0.02006711400075711
3.7373737373737375,4.658227848101266,0.021318660783305753,0.019173284800759516,-3.994150791558654e-06,-0.01214758367521958,0.020331046228251805
3.8383838383838382,4.658227848101266,0.02119631429348663,0.019011765506194846,2.3454900346537653e-05,-0.012062423939904443,0.02019290124634107
3.9393939393939394,4.658227848101266,0.021100190688057654,0.018945413518060786,4.618402423897381e-05,-0.012013681261835532,0.020109731510883286
4.040404040404041,4.658227848101266,0.021121201378440833,0.019091080481766456,9.529539316431259e-05,-0.012063684558062187,0.020183537595733797
4.141414141414141,4.658227848101266,0.021060191331784592,0.019062296148533678,3.1018436178297806e-05,-0.012036746244095481,0.020135790913313186
4.242424242424242,4.658227848101266,0.020980007551546068,0.018845050622857934,8.968162796102542e-05,-0.0119475174523212,0.019998786809388266
4.343434343434343,4.658227848101266,0.021044917838527084,0.018910907232807084,-9.793313004313094e-06,-0.01198674752140025,0.02006321953123917
4.444444444444445,4.658227848101266,0.021212879280629992,0.0187780564037114,-1.678720391700353e-05,-0.011997280705302418,0.02010636345760722
4.545454545454545,4.658227848101266,0.020984461756240077,0.018838738027757748,-4.998010380529118e-06,-0.011946959935199349,0.019998124485526222
4.646464646464646,4.658227848101266,0.020932526411873525,0.018890352258592497,-2.9251700905975283e-05,-0.011946863601139807,0.01998989344246059
4.747474747474747,4.658227848101266,0.020972815717496512,0.019009728173878783,7.0504916354295185e-06,-0.011994763167412588,0.020063434094458137
4.848484848484849,4.658227848101266,0.020918221390818795,0.01894993972994334,6.133907419927993e-05,-0.01196044833622864,0.02000711010506608
4.94949494949495,4.658227848101266,0.0210129157225395,0.018906160883577328,3.8210931947048614e-05,-0.011975722981835048,0.020042863105375806
5.05050505050505,4.658227848101266,0.020918669907604007,0.018873550260029806,-6.529827008137476e-05,-0.011937666050290143,0.019975106353640727
5.151515151515151,4.658227848101266,0.021092773664469603,0.018891276573187323,6.640963774582569e-05,-0.011995215071297078,0.02008305856073766
5.252525252525253,4.658227848101266,0.020942338124295242,0.01900612704415654,3.2034241738831865e-05,-0.011984539550535534,0.020044568613886947
5.353535353535354,4.658227848101266,0.021144495137301544,0.018865630701542596,2.3977752380831693e-05,-0.012003037751653243,0.020102218398606878
5.454545454545454,4.658227848101266,0.020978955250408503,0.018798798659046826,-4.174463783925878e-05,-0.011933326172836599,0.019978425023930328
5.555555555555555,4.658227848101266,0.021218249389932647,0.018822921886956275,5.537924234047319e-06,-0.012012351383066677,0.020127770286273376
5.656565656565657,4.658227848101266,0.020989073137685818,0.018766393030198263,-5.1161143599414085e-05,-0.011926639850365225,0.01997091272549787
5.757575757575758,4.658227848101266,0.020892410602556637,0.019051041143092317,-9.703768503435232e-05,-0.011983035523694684,0.02003599422017493
5.858585858585858,4.658227848101266,0.021063737799157094,0.019135816355252078,-1.0941500273676806e-05,-0.012059866246322751,0.020169012333850295
5.959595959595959,4.658227848101266,0.021207157044441365,0.019029170228069756,-6.186383387242743e-06,-0.012070898181753336,0.020206393612873876
6.0606060606060606,4.658227848101266,0.021284405600736005,0.0191495241583532,4.54256460894212e-05,-0.01213017892772676,0.020301481435808587
6.161616161616162,4.658227848101266,0.021100583058927966,0.01894779734649395,-3.998630856196114e-05,-0.012014514121626574,0.020110913821398266
6.262626262626262,4.658227848101266,0.021240221743412772,0.019093788269193696,-1.5946979721461906e-05,-0.01210020300378194,0.020252511852537763
6.363636363636363,4.658227848101266,0.02116342507041071,0.01914718687387225,2.476593577256147e-05,-0.012093183583284888,0.02023084553928114
6.4646464646464645,4.658227848101266,0.02132060041062646,0.01910598135573981,1.6630966811024534e-05,-0.01212797452990988,0.020304097154615022
6.565656565656566,4.658227848101266,0.021320282942540816,0.018907274344561145,-1.0962597133467906e-05,-0.012068267186130589,0.020222052559713568
6.666666666666667,4.658227848101266,0.02123713171460433,0.019383584938463205,4.003416236154542e-05,-0.012186214995920258,0.02037381138356726
6.767676767676767,4.658227848101266,0.02141671979800115,0.019151352200603215,-1.1424825415861806e-05,-0.012170421599581309,0.020378700296250486
6.8686868686868685,4.658227848101266,0.021631375211627932,0.01932877549672883,1.4725329388080067e-06,-0.012288045212507029,0.020576928028818456
6.96969696969697,4.658227848101266,0.021490310365227805,0.019571240198735813,-7.62167061843096e-05,-0.012318465169189084,0.020598356326806268
7.070707070707071,4.658227848101266,0.021571216734203657,0.01935813605368717,2.053375145017532e-05,-0.012278805836367247,0.020554258424657627
7.171717171717171,4.658227848101266,0.021503422808287223,0.01939196159721556,5.8613402617798655e-05,-0.012268615321650835,0.02052954272130177
7.2727272727272725,4.658227848101266,0.021551948312901505,0.019559359781769307,5.7308126443407415e-05,-0.012333392428401244,0.02062819848577683
7.373737373737374,4.658227848101266,0.021755706983797262,0.01958611635400893,3.1074401339405012e-06,-0.012402547001341857,0.020756130680302524
7.474747474747475,4.658227848101266,0.02212315991386579,0.019558087017102096,6.586589762191341e-05,-0.012504374079290365,0.020958990925227586
7.575757575757575,4.658227848101266,0.021966715687574336,0.019871783110085812,4.687102769436564e-05,-0.012551549639298044,0.02099793187359962
7.6767676767676765,4.658227848101266,0.022106727867418734,0.019737166802121016,-6.87797335508102e-05,-0.012553168400861925,0.021022682677664082
7.777777777777778,4.658227848101266,0.02214946946749217,0.019671143844099463,1.3056372371198416e-05,-0.01254618399347749,0.021020180999878926
7.878787878787879,4.658227848101266,0.02216326530288392,0.019985614744332428,9.735634417926199e-05,-0.012644664014164904,0.021159326041920234
7.979797979797979,4.658227848101266,0.022371653433937738,0.019952011346683503,3.286979743198135e-05,-0.012697099434186373,0.02126540364674883
8.080808080808081,4.658227848101266,0.02237381442492464,0.02009402035114892,-2.823898917289652e-05,-0.012740350432822069,0.02132556530851214
8.181818181818182,4.658227848101266,0.02243773515741352,0.020218829974428077,-4.555214730675491e-05,-0.01279696953955248,0.0214148200404403
8.282828282828282,4.658227848101266,0.022674848518564966,0.02034166800161572,-1.0675072658094868e-05,-0.012904954956054206,0.021602970021452533
8.383838383838384,4.658227848101266,0.022794466727846265,0.02039427948282179,-1.3100885772150125e-06,-0.012956623863200416,0.021694184222269187
8.484848484848484,4.658227848101266,0.022838966414814827,0.0205422467570226,-3.1440344629095086e-06,-0.013014363951551228,0.02178161230510325
8.585858585858587,4.658227848101266,0.02307182581223826,0.020684631745637838,-4.966859517234369e-07,-0.01312693726736283,0.02197568922417117
8.686868686868687,4.658227848101266,0.023312600511079695,0.021041290955877975,-6.65798141931976e-05,-0.013306167440087302,0.02226430677120449
8.787878787878787,4.658227848101266,0.023424984408083296,0.02099221172802858,7.586389015969685e-05,-0.013325158840833563,0.022308695195429155
8.88888888888889,4.658227848101266,0.02348785147315447,0.02104064098598914,3.9530751405674846e-05,-0.013358547737743084,0.022364994468773998
8.98989898989899,4.658227848101266,0.0235224752003197,0.021210968440796934,2.6487367754353492e-05,-0.013420033092334988,0.022456171698770937
9.09090909090909,4.658227848101266,0.02384852925118051,0.02130916634969958,-1.65363012941065e-05,-0.013547308680264028,0.022685710509090982
9.191919191919192,4.658227848101266,0.0237769925521932,0.02163632549015515,3.164874258960861e-05,-0.013623995412704506,0.02278227842941667
9.292929292929292,4.658227848101266,0.023888051694584682,0.0218613609047037,-1.5890643763651462e-05,-0.013724823779786515,0.022941960519994812
9.393939393939394,4.658227848101266,0.024522410512699617,0.021947806474546746,-8.301498626633671e-06,-0.013941065096173908,0.023341848961040624
9.494949494949495,4.658227848101266,0.024775661670365837,0.0224286972724321,-5.167729924281834e-05,-0.01416130768283938,0.0236897038572409
9.595959595959595,4.658227848101266,0.024825546212793925,0.02239346722362838,-1.1439827654957914e-05,-0.014165704030926691,0.02370327944068886
9.696969696969697,4.658227848101266,0.025141120802061715,0.02243152896147775,2.4481719893653276e-05,-0.014271794929061839,0.023901829750080726
9.797979797979798,4.658227848101266,0.025423137377599127,0.022953502869721344,-6.315973937305083e-05,-0.01451299207419614,0.02428293884221132
9.8989898989899,4.658227848101266,0.025762173814855835,0.02326505184926807,-6.8350467086178125e-06,-0.01470816769923717,0.024608820935125855
10.0,4.658227848101266,0.026076156211625765,0.023640839530199614,-8.014074449759752e-05,-0.014915098722547614,0.024948191507984722
0.0,4.7594936708860756,0.026156087937296586,0.023523317460101476,5.377568381799685e-05,-0.014903821619219418,0.024944300269229017
0.10101010101010101,4.7594936708860756,0.02592303580323187,0.022983230574319207,1.4552668747916143e-05,-0.014671879913265323,0.02458532487433216
0.20202020202020202,4.7594936708860756,0.025433279321734545,0.023018914671115456,8.08665191731911e-06,-0.014535658197855,0.0243161641580581
0.30303030303030304,4.7594936708860756,0.02515977713594192,0.02266689176700021,4.244352226041781e-05,-0.014348000670882637,0.024010702343802256
0.40404040404040403,4.7594936708860756,0.02490246985447699,0.022445326194888402,-4.812434722012618e-05,-0.014204338814809616,0.023769488041696516
0.5050505050505051,4.7594936708860756,0.02482271939115488,0.022378115193000817,3.8633640899615606e-05,-0.014160250375246708,0.023695278882069716
0.6060606060606061,4.7594936708860756,0.024461271408212484,0.0219665493221346,8.375818123901557e-05,-0.013928346219104125,0.02331468227225408
0.7070707070707071,4.7594936708860756,0.02417625572165446,0.021824475166937553,-7.998669619622692e-05,-0.013800219266577603,0.023090780801415738
0.8080808080808081,4.7594936708860756,0.024128957851988406,0.021705916871056805,4.142685342508982e-05,-0.013750462416913562,0.02301341846550229
0.9090909090909091,4.7594936708860756,0.023969276290934698,0.02162898384137918,-2.8714825131147965e-05,-0.013679478039694163,0.022889091986340857
1.0101010101010102,4.7594936708860756,0.02377840226556465,0.02139093039790753,-6.512800036394706e-06,-0.013550799799041653,0.02267911587793244
1.1111111111111112,4.7594936708860756,0.023487113007218823,0.021144231944785968,2.441620459557807e-06,-0.013389403485601437,0.02240772355004569
1.2121212121212122,4.7594936708860756,0.023423155249410625,0.021082277343878356,-4.4611341230846175e-06,-0.013351629777986694,0.022344870201246574
1.3131313131313131,4.7594936708860756,0.023058833471100857,0.020990466582165464,-4.544502433970806e-05,-0.013214790015979897,0.022097511415017233
1.4141414141414141,4.7594936708860756,0.023113619161958934,0.020761639350387624,-1.0496517673489383e-05,-0.013162577553703966,0.022031994115092917
1.5151515151515151,4.7594936708860756,0.022983546517785874,0.020431110499115543,8.376770397097574e-05,-0.013024397105070426,0.021820067811089333
1.6161616161616161,4.7594936708860756,0.02257698656458938,0.020450576081032616,-1.1881865681149544e-05,-0.012908268793686598,0.021592462261177222
1.7171717171717171,4.7594936708860756,0.022630582302616716,0.02020720701505273,-1.2668028176411934e-06,-0.012851336795300834,0.021521468678017974
1.8181818181818181,4.7594936708860756,0.02260476740912171,0.020442246286203454,-3.0744045793277084e-05,-0.01291410410859755,0.021604896570354925
1.9191919191919191,4.7594936708860756,0.022445466846024897,0.02018657242003045,2.8840143908838756e-05,-0.012789611779816605,0.021405656758860844
2.0202020202020203,4.7594936708860756,0.02218081351656734,0.02007124207926818,3.275097501885045e-06,-0.012675616678750655,0.021204876831379758
2.121212121212121,4.7594936708860756,0.022228922414978872,0.019959254196495135,2.6595343579798708e-05,-0.012656452983442201,0.0211855193175345
2.2222222222222223,4.7594936708860756,0.022021147542763835,0.019901116548694957,-4.884970164595644e-06,-0.012576679227437637,0.021041388423513403
2.323232323232323,4.7594936708860756,0.022015070262073638,0.01989217493259339,3.856339919126987e-05,-0.012572173558400108,0.021034228647461833
2.4242424242424243,4.7594936708860756,0.021923613311238602,0.019825261440931562,-5.5511281626971104e-05,-0.01252466242565105,0.020953608059329002
2.525252525252525,4.7594936708860756,0.021908114411769115,0.019562746940023336,-3.5322495476599036e-06,-0.012441258405537736,0.02083467504374381
2.6262626262626263,4.7594936708860756,0.021658570288138834,0.019489642538192808,-8.1219024001514e-06,-0.012344463847899494,0.02065967662584609
2.727272727272727,4.7594936708860756,0.021700417893112965,0.019424129459399374,-4.692665823286514e-05,-0.0123373642057537,0.02065671372329369
2.8282828282828283,4.7594936708860756,0.021550315676850045,0.019460932893400694,-2.6858983977008223e-05,-0.01230337457107522,0.020585357219383274
2.929292929292929,4.7594936708860756,0.021575820178028407,0.019424014546518084,-1.418832541787718e-05,-0.012299950417363948,0.020584458127252615
3.0303030303030303,4.7594936708860756,0.021397988854294593,0.019338089797168643,3.3932611038400494e-05,-0.012220823595438971,0.02044609665278404
3.131313131313131,4.7594936708860756,0.0214653545090031,0.01927841096832929,-2.026841988894034e-06,-0.012223129643199717,0.02045973265171865
3.2323232323232323,4.7594936708860756,0.02151138936359843,0.019296018853615822,-5.363698482162508e-05,-0.012242222465164274,0.02049391792709215
3.3333333333333335,4.7594936708860756,0.02126394594331852,0.019106079927725853,-7.802095306467746e-05,-0.012111007761313311,0.02027178577038754
3.4343434343434343,4.7594936708860756,0.021384974895478116,0.01910449003251606,-1.3976592582784847e-05,-0.012146839478398253,0.020340851432078443
3.5353535353535355,4.7594936708860756,0.021207499297399176,0.01903029446126547,-3.1611610874874386e-05,-0.012071338127599394,0.02020713179045698
3.6363636363636362,4.7594936708860756,0.02133058117342241,0.019203647125402734,-4.70636824684137e-05,-0.012160268489647543,0.020350809498627092
3.7373737373737375,4.7594936708860756,0.021004406834790528,0.018786355951748063,-3.316889355495094e-05,-0.011937228835961577,0.01998797922752496
3.8383838383838382,4.7594936708860756,0.021000308834161,0.019149831667865016,-1.4229328814520332e-05,-0.012045042150607805,0.02013894863968177
3.9393939393939394,4.7594936708860756,0.021342584186275975,0.018925962861137215,5.538794028808806e-06,-0.012080564114223955,0.02024275441569123
4.040404040404041,4.7594936708860756,0.021156549137339813,0.018883353031254504,-1.7854933976316685e-05,-0.012011970650578296,0.02011653457273876
4.141414141414141,4.7594936708860756,0.021067629446002586,0.019042259142245773,-5.207063627967867e-05,-0.012032966576474508,0.020131704307991827
4.242424242424242,4.7594936708860756,0.021337667151993926,0.018850389738758994,0.00011834945920762886,-0.012056417067225874,0.02021019323620816
4.343434343434343,4.7594936708860756,0.02097275815337702,0.018951333936537643,-6.774801794999218e-05,-0.0119772276269744,0.02003900368234717
4.444444444444445,4.7594936708860756,0.021061882306137043,0.018875959011896242,4.1350310042523e-05,-0.011981352395409985,0.02005857964355283
4.545454545454545,4.7594936708860756,0.021294144927076895,0.019025255773451443,3.527096532424175e-05,-0.0120958202101585,0.020255323839154127
4.646464646464646,4.7594936708860756,0.021159179289890435,0.018924641888347814,-3.523289806887396e-05,-0.012025146353471475,0.020135212245783105
4.747474747474747,4.7594936708860756,0.02087849442983454,0.018861608341513132,-3.174935110567427e-05,-0.011922030831404301,0.019946750067445923
4.848484848484849,4.7594936708860756,0.02091925542560811,0.01885240358810808,-2.3031940479345195e-06,-0.011931497704114856,0.019966224943102524
4.94949494949495,4.7594936708860756,0.02068381603775847,0.018892277657150323,-3.275331735781357e-05,-0.011872828108472637,0.019848859506363024
5.05050505050505,4.7594936708860756,0.020996690308943477,0.01897821136813869,5.118305990814426e-05,-0.01199247050312465,0.020063941364194017
5.151515151515151,4.7594936708860756,0.020867963356527984,0.018906572454796964,0.0001291770259506599,-0.011932360743397485,0.019960931229923567
5.252525252525253,4.7594936708860756,0.02088278454423275,0.019045090468089106,-1.2168195311025895e-05,-0.011978362503696556,0.020027283504832863
5.353535353535354,4.7594936708860756,0.020957299032275244,0.01898572876501603,3.892007229227283e-05,-0.011982908339187382,0.020044481253176222
5.454545454545454,4.7594936708860756,0.021000582283107107,0.01897326786871584,-2.675714373019862e-05,-0.011992155045546885,0.020063943396685997
5.555555555555555,4.7594936708860756,0.021207292927794975,0.018896864964944863,-1.6849817732166856e-05,-0.012031247367821952,0.020151681811927367
5.656565656565657,4.7594936708860756,0.020870980464577166,0.018876826532641333,-9.342063669018806e-06,-0.01192434209916555,0.019948804212851584
5.757575757575758,4.7594936708860756,0.02114423378354131,0.018815509440494874,3.9666541108448064e-05,-0.011987922967210855,0.020081514079760013
5.858585858585858,4.7594936708860756,0.02095320850135587,0.01901747971275532,-4.568044649431047e-06,-0.011991206464233357,0.020055531060926318
5.959595959595959,4.7594936708860756,0.021108327916499,0.01908491871917992,2.5697641062260132e-05,-0.012057973990703677,0.02017292463849116
6.0606060606060606,4.7594936708860756,0.021101457997488908,0.01889316408268546,-2.9387715684807053e-05,-0.01199838662405231,0.020088615215044334
6.161616161616162,4.7594936708860756,0.021099738354201068,0.01900320584591825,4.629948137080003e-05,-0.012030883260035796,0.020133667095790363
6.262626262626262,4.7594936708860756,0.021257760550250367,0.01901275085648786,-1.9480521988873613e-05,-0.012081153422021469,0.02022893254984269
6.363636363636363,4.7594936708860756,0.021208942966754553,0.01906847994096886,-1.3752509375710165e-05,-0.012083226872317025,0.020223858506477187
6.4646464646464645,4.7594936708860756,0.021201714400681596,0.019070987066664564,5.969651506610755e-05,-0.012081810440203846,0.020220986897779618
6.565656565656566,4.7594936708860756,0.02120605740321451,0.01920672758073368,5.1157188381874565e-05,-0.012123835495184457,0.020280634568912593
6.666666666666667,4.7594936708860756,0.021410322784840678,0.019315395565124103,9.353326373245876e-06,-0.012217715504989434,0.02044352798017601
6.767676767676767,4.7594936708860756,0.021337737386913674,0.019067380263544733,1.7637212392767694e-05,-0.012121535295137521,0.020298034569912266
6.8686868686868685,4.7594936708860756,0.021395542947095753,0.019363197539930977,-5.219537958104003e-06,-0.012227622146108017,0.020455234883604862
6.96969696969697,4.7594936708860756,0.02135299724179321,0.019388595206402074,-3.023407496381354e-05,-0.012222477734458583,0.020441776772557325
7.070707070707071,4.7594936708860756,0.0215517847179253,0.01948806966956243,6.230989615535845e-05,-0.012311956316246318,0.020597894296666714
7.171717171717171,4.7594936708860756,0.021629713300356828,0.019447395388892747,1.650172658599757e-05,-0.012323132606774872,0.020625346423468124
7.2727272727272725,4.7594936708860756,0.02163502501821483,0.01958025140430452,-8.873093560245874e-06,-0.012364582926755805,0.020684331262935587
7.373737373737374,4.7594936708860756,0.021880231420120414,0.019646146388651937,8.019797961785891e-05,-0.012457913342631705,0.02085360066206561
7.474747474747475,4.7594936708860756,0.021883274132069374,0.019705543974518992,2.4515248375876426e-06,-0.012476645431976508,0.020879759275072438
7.575757575757575,4.7594936708860756,0.02192998570556853,0.019689567002381086,-4.510258621012929e-05,-0.012485865812384886,0.02090017946349963
7.6767676767676765,4.7594936708860756,0.02204670803685908,0.01960700263409277,-2.691866744041681e-05,-0.012496113201285554,0.020933805168865685
7.777777777777778,4.7594936708860756,0.02197414818327694,0.019840206798130002,-1.684359615537263e-05,-0.012544306494422081,0.0209887160427789
7.878787878787879,4.7594936708860756,0.022186991514946262,0.019995165186687425,-5.2485726573073966e-05,-0.012654647010490105,0.021176518298452962
7.979797979797979,4.7594936708860756,0.022211872332366725,0.020093660640447382,4.895695189719783e-05,-0.012691659891844231,0.02123232997004145
8.080808080808081,4.7594936708860756,0.022316847387032778,0.020002576739443993,-6.256234348987936e-05,-0.01269582723794303,0.021254694615833538
8.181818181818182,4.7594936708860756,0.022456800711160605,0.020438869667555263,2.821218331989666e-05,-0.01286870111361476,0.021518969686401882
8.282828282828282,4.7594936708860756,0.022695171699469364,0.020330582154544072,1.2466525691694852e-05,-0.01290772615620403,0.021610131945601442
8.383838383838384,4.7594936708860756,0.022729857917138944,0.020374310246994588,-3.564552884920473e-05,-0.012931250449240058,0.021648500957604393
8.484848484848484,4.7594936708860756,0.022979120761640288,0.020677209449845437,2.6593553070904907e-06,-0.013096899063445718,0.021919007958062543
8.585858585858587,4.7594936708860756,0.023281892743630187,0.020788070318553373,1.1715273399448767e-05,-0.013220988918655068,0.022140577804888255
8.686868686868687,4.7594936708860756,0.02320231667699792,0.021179009319733932,-5.7405330575152264e-05,-0.013314397799019554,0.02225995821917577
8.787878787878787,4.7594936708860756,0.023300288613997154,0.02101944846164908,-1.672739863659206e-05,-0.013295921122693871,0.02224774790583579
8.88888888888889,4.7594936708860756,0.023524082291350924,0.02117439259164061,-6.214793095100926e-05,-0.01340954246489746,0.02244194248669251
8.98989898989899,4.7594936708860756,0.023623935339547576,0.021262530753558873,0.00010663959553921723,-0.013465939827931936,0.022536969612304922
9.09090909090909,4.7594936708860756,0.023845048441812282,0.021505109891034022,6.466699719048305e-05,-0.013605047499853891,0.02276572522414337
9.191919191919192,4.7594936708860756,0.024251214564234833,0.02177180348490951,4.6958532441936095e-05,-0.013806905414743302,0.023111615529306573
9.292929292929292,4.7594936708860756,0.024118423732372562,0.021916498269501566,8.230749341586835e-05,-0.01381047660056224,0.023096757160002045
9.393939393939394,4.7594936708860756,0.024460089032714186,0.022020559567679277,2.1386130089273465e-05,-0.013944194580118039,0.023336184857128538
9.494949494949495,4.7594936708860756,0.02477127808834962,0.02223237688720821,-3.407101335344791e-05,-0.01410109649266735,0.023604531180454347
9.595959595959595,4.7594936708860756,0.02494750291802693,0.022441972876090215,-1.4815638945869942e-05,-0.014216842738235144,0.023793896761839184
9.696969696969697,4.7594936708860756,0.02515955848283448,0.022624811744241743,5.8774544357861816e-05,-0.014335311068122867,0.023993031876200444
9.797979797979798,4.7594936708860756,0.025442931732657128,0.022873515883670842,-2.3891957562481075e-05,-0.01449493428489839,0.024260521704943118
9.8989898989899,4.7594936708860756,0.025744539273768952,0.02319832547725105,1.372901914331075e-05,-0.014682859425305998,0.024570591598295763
10.0,4.7594936708860756,0.02577129641567983,0.023331044427477077,1.018989313851639e-05,-0.014730702252947071,0.02464196426617815
0.0,4.860759493670886,0.025913318861710326,0.02341761635246022,-2.7501628430771037e-05,-0.014799280564251165,0.02476002745466733
0.10101010101010101,4.860759493670886,0.02565093224040431,0.023064763070942636,-6.140729486354516e-05,-0.014614708593404083,0.024460831102282494
0.20202020202020202,4.860759493670886,0.025325429316843052,0.02301876834548967,-6.586665203247873e-05,-0.014503259298699816,0.024254770474667408
0.30303030303030304,4.860759493670886,0.025180541659954057,0.022803717196471635,-4.054468836261765e-05,-0.014395277656927708,0.024080369121195724
0.40404040404040403,4.860759493670886,0.025170393870979815,0.02238581715264997,4.55180410939119e-05,-0.014266863307088935,0.023900207489316812
0.5050505050505051,4.860759493670886,0.024823600935317026,0.022188900738196488,-3.408972183410393e-05,-0.014103750502054053,0.023616806485519205
0.6060606060606061,4.860759493670886,0.024511044943443725,0.021950010729834536,-1.5088182077763943e-05,-0.013938316701983477,0.023336179608304322
0.7070707070707071,4.860759493670886,0.024206711371745984,0.021754921027443842,9.755261480354693e-06,-0.013788489719756946,0.023078705674587852
0.8080808080808081,4.860759493670886,0.024224012867412596,0.02179244159555107,2.5194610253183838e-05,-0.0138049363388891,0.023104433097963395
0.9090909090909091,4.860759493670886,0.023977580781227567,0.021313315027791206,5.647068652732809e-05,-0.013587268742705631,0.022762899894672024
1.0101010101010102,4.860759493670886,0.02383633307680144,0.021246287529547103,-2.5397448007802237e-05,-0.013524786181904563,0.022652678809088465
1.1111111111111112,4.860759493670886,0.023501559198468292,0.021042628367135816,3.020758946365624e-05,-0.013363256269681231,0.022373726881998707
1.2121212121212122,4.860759493670886,0.023338254879108823,0.02087288707674986,2.1584535663835962e-05,-0.013263342586757603,0.022208471238189552
1.3131313131313131,4.860759493670886,0.023233268030113417,0.020935363599145513,1.0847662433453724e-05,-0.013250589488777678,0.022173805077073047
1.4141414141414141,4.860759493670886,0.02302955084223786,0.0207573503670976,5.7093125938162626e-05,-0.013136070362800636,0.021981927338237076
1.5151515151515151,4.860759493670886,0.022835496630480984,0.020531223321217665,-7.083734363689462e-06,-0.013010015985509594,0.02177499729030935
1.6161616161616161,4.860759493670886,0.022689051878386594,0.020527418349904385,-5.462710640724551e-05,-0.012964941068487293,0.0216893815436044
1.7171717171717171,4.860759493670886,0.022615555939940447,0.02029698333317067,-7.697515451672855e-06,-0.012873761781933335,0.02155002363505562
1.8181818181818181,4.860759493670886,0.0224935086020994,0.020264765292793134,-4.4156347140626996e-05,-0.01282748216846776,0.021466225064522258
1.9191919191919191,4.860759493670886,0.02243064073005886,0.020162517947316966,1.7556090079567721e-06,-0.012777947603212748,0.021386972354536595
2.0202020202020203,4.860759493670886,0.022165078347794947,0.020144661736217474,-2.1693981802565826e-05,-0.012692922025203725,0.02122714066576007
2.121212121212121,4.860759493670886,0.022123116299117895,0.020112095855784946,4.019980483114895e-06,-0.012670563646470852,0.021189301247109816
2.2222222222222223,4.860759493670886,0.022136537196661574,0.01989884308444941,6.412582922623961e-06,-0.012610614084333293,0.021106844349948063
2.323232323232323,4.860759493670886,0.021940852505816826,0.01983382846162702,3.535629225102021e-06,-0.012532404290233152,0.020966895161827044
2.4242424242424243,4.860759493670886,0.02202466793680882,0.019791908860603023,-1.6874231328374934e-05,-0.01254497303922355,0.020997530516748724
2.525252525252525,4.860759493670886,0.02180320793117241,0.019550476083988636,6.217907203960139e-06,-0.012406105204548315,0.020768678628527226
2.6262626262626263,4.860759493670886,0.021724360982958497,0.019663906738186073,-8.26901345799062e-05,-0.01241648031634337,0.020771417693201764
2.727272727272727,4.860759493670886,0.021803248153681672,0.019767248842423642,1.2912279196140892e-05,-0.012471149098831595,0.02085991431437926
2.8282828282828283,4.860759493670886,0.02166887553952099,0.0193429840818029,3.0089279764239914e-05,-0.012303557886397167,0.02060468883043078
2.929292929292929,4.860759493670886,0.021619300176328814,0.019429999214340403,-3.1691610409740696e-05,-0.012314789817200765,0.020612108994892606
3.0303030303030303,4.860759493670886,0.021342489452373537,0.019410945122625693,7.474913907445791e-05,-0.01222603037249977,0.02044567233767084
3.131313131313131,4.860759493670886,0.021377598408242042,0.019343935891497136,-3.649452947329538e-05,-0.012216460289921753,0.020436894869506547
3.2323232323232323,4.860759493670886,0.02137501699937871,0.01930629635633467,1.579287798448292e-05,-0.012204394006714013,0.02041942129825521
3.3333333333333335,4.860759493670886,0.021329960866620323,0.01931707826719716,9.575891838971477e-05,-0.012194111740145244,0.02039881685704275
3.4343434343434343,4.860759493670886,0.02123765007473916,0.019000806701071047,-2.9045469675823184e-05,-0.012071537032743062,0.020212334923292632
3.5353535353535355,4.860759493670886,0.021464686706996573,0.019227661584619932,-2.8161438513396894e-06,-0.012207704487484951,0.02043820043967088
3.6363636363636362,4.860759493670886,0.021302677253776593,0.019011263219431845,5.0467566911218825e-05,-0.01209418214196253,0.02025460500115646
3.7373737373737375,4.860759493670886,0.02126945564385255,0.01902387302134271,-2.5739290205491774e-05,-0.012087998599558579,0.020240357018823332
3.8383838383838382,4.860759493670886,0.021060551948866003,0.01912882861077168,2.8512776125040346e-05,-0.012056814167891304,0.020164267471650354
3.9393939393939394,4.860759493670886,0.021192477104323117,0.019084093275609563,2.556568915856179e-05,-0.012082971113979804,0.020220940951960906
4.040404040404041,4.860759493670886,0.021070489594342975,0.019071414936987514,1.580912245075127e-05,-0.012042571359399146,0.020145498237818082
4.141414141414141,4.860759493670886,0.02118686424148757,0.018865927065853078,5.991380068596293e-06,-0.012015837392202192,0.0201270140010182
4.242424242424242,4.860759493670886,0.021110767596630137,0.018964042505657027,4.029643489318967e-05,-0.01202244303068615,0.02012358800149093
4.343434343434343,4.860759493670886,0.021170379814721023,0.01896865832866527,-6.960823480025757e-06,-0.012041711443015886,0.020159896434626474
4.444444444444445,4.860759493670886,0.021169217869538685,0.018966185092904486,-1.896903425211057e-05,-0.01204062088873295,0.02015821761152007
4.545454545454545,4.860759493670886,0.020905219262661364,0.018965587960682987,1.3375408604548398e-05,-0.011961242167003306,0.020006061107965475
4.646464646464646,4.860759493670886,0.021302121385498522,0.018885600488622818,2.3823882462127127e-05,-0.012056316562236402,0.020202589686073344
4.747474747474747,4.860759493670886,0.020872358912159026,0.01894640137180725,1.9245399266820397e-05,-0.011945628085189883,0.019979151962223014
4.848484848484849,4.860759493670886,0.020967887493680552,0.018835615997673444,-6.064209534027927e-05,-0.011941051047406198,0.019987513383041236
4.94949494949495,4.860759493670886,0.020796307330730405,0.019029626615674856,-2.219251178010836e-05,-0.011947780183921577,0.019971695014702882
5.05050505050505,4.860759493670886,0.021118745515628444,0.01890335836617753,1.1121170796355932e-05,-0.012006631164541794,0.020102823831225827
5.151515151515151,4.860759493670886,0.02097956546858445,0.01886438040133685,-6.857298187827253e-05,-0.01195318376097639,0.020006364444455322
5.252525252525253,4.860759493670886,0.02087225966162569,0.018985166831658816,4.4301443101186e-06,-0.01195722794798535,0.019995612270123527
5.353535353535354,4.860759493670886,0.02097239845264955,0.01905331964552502,-4.963497553810812e-05,-0.01200771542945237,0.020081933816542438
5.454545454545454,4.860759493670886,0.020967510225586156,0.01874735345653718,3.794481978756902e-05,-0.011914459104637,0.019950407033687844
5.555555555555555,4.860759493670886,0.021106329197759004,0.019079314051177416,-8.141453810881735e-06,-0.012055692974680926,0.02016936470208869
5.656565656565657,4.860759493670886,0.021203713743920872,0.0189367360408065,-3.702571309338639e-06,-0.012042134935418213,0.020166019916854468
5.757575757575758,4.860759493670886,0.021142146192336873,0.018954142400190502,4.421482806705729e-06,-0.012028886577758212,0.020137494104733488
5.858585858585858,4.860759493670886,0.021053081900931674,0.01879642160926844,-1.8554149880678086e-06,-0.011954851053060033,0.02002036786834933
5.959595959595959,4.860759493670886,0.020947172024009492,0.018943988465757965,3.992522167012572e-05,-0.011967348146930236,0.020021001764425006
6.0606060606060606,4.860759493670886,0.021240227472483598,0.01902641488262224,2.0732187651759895e-05,-0.012079992706531751,0.020224431654476398
6.161616161616162,4.860759493670886,0.021111092121655566,0.019010387476049932,0.00012164911895501739,-0.012036443879311649,0.020144165329140696
6.262626262626262,4.860759493670886,0.021165901119785356,0.019174813597875116,-0.00011733599360970737,-0.012102214415298141,0.02024494853856231
6.363636363636363,4.860759493670886,0.021265444048168405,0.01916047664788412,-5.671304561464999e-06,-0.012127776208815758,0.020295000082265657
6.4646464646464645,4.860759493670886,0.02121023334792734,0.01915404653545682,-5.296064141643757e-05,-0.012109283965015248,0.020260753077575713
6.565656565656566,4.860759493670886,0.021402360458914298,0.019154918291206094,4.6872667575280104e-05,-0.012167183625036116,0.02037199188266904
6.666666666666667,4.860759493670886,0.02149246171552699,0.019238883792806465,-2.6938007282452997e-05,-0.012219403652500035,0.020459026462391804
6.767676767676767,4.860759493670886,0.02129223393631405,0.019301172566251378,-7.258253972173465e-05,-0.012178021950769629,0.020370204014205764
6.8686868686868685,4.860759493670886,0.021583105583138893,0.019269175343839914,-6.500120107718989e-05,-0.012255684278093641,0.020524512042113943
6.96969696969697,4.860759493670886,0.021556297776054983,0.019294012698118194,2.4211545115511624e-05,-0.012255093142251951,0.02051894674163925
7.070707070707071,4.860759493670886,0.02146270186170856,0.019326338258599227,-2.263482611365886e-07,-0.012236712036092336,0.020478268621180795
7.171717171717171,4.860759493670886,0.021523238316233564,0.01948013479366945,-4.694142457077657e-06,-0.012301011932970904,0.020577898865174134
7.2727272727272725,4.860759493670886,0.021772167603143593,0.01953876581551415,7.773439064438385e-05,-0.012393280025597322,0.020746264616682192
7.373737373737374,4.860759493670886,0.021872138946877215,0.019642463339134948,2.2419163107032424e-05,-0.01245438068580365,0.0208469577776923
7.474747474747475,4.860759493670886,0.021895568004351103,0.019736549246132624,8.123498424835209e-05,-0.012489635175145118,0.02090033769000535
7.575757575757575,4.860759493670886,0.021919920135458952,0.01976173199832126,4.9339474165177645e-05,-0.012504495640134063,0.020924642561534
7.6767676767676765,4.860759493670886,0.02206997465169855,0.019751710667665935,1.87424924110854e-05,-0.012546505595809344,0.021007026336580796
7.777777777777778,4.860759493670886,0.022148311074373997,0.01988351867784869,1.8994729743764444e-05,-0.012609548925666805,0.02110726708810857
7.878787878787879,4.860759493670886,0.022170320959060172,0.019977704341473494,-2.1560349904284102e-05,-0.0126444075901601,0.021159420584067477
7.979797979797979,4.860759493670886,0.022264742894180987,0.019939383062027798,3.129940725753532e-06,-0.012661237786862636,0.02119793775543306
8.080808080808081,4.860759493670886,0.02233356076734889,0.020060040159386887,-6.515347566794805e-05,-0.012718080278020733,0.021288347910914295
8.181818181818182,4.860759493670886,0.022579440008536684,0.020244938152030323,-4.121167967953877e-05,-0.012847313448170103,0.021507541947092926
8.282828282828282,4.860759493670886,0.022605328785345012,0.020462890106801163,4.35585713035768e-05,-0.012920465667643852,0.02161402540715974
8.383838383838384,4.860759493670886,0.022744743989505593,0.020546524971357213,-3.977041402944279e-05,-0.012987380688258842,0.02172929732542562
8.484848484848484,4.860759493670886,0.02287707033322521,0.02066804798329077,2.8051844493038825e-05,-0.013063535494954794,0.021856498526174422
8.585858585858587,4.860759493670886,0.022952037997182893,0.02072254358296756,-9.965821149867042e-05,-0.013102374474045135,0.02192316237076496
8.686868686868687,4.860759493670886,0.023141884917372037,0.021085886754887248,1.734624426400429e-05,-0.013268331501677786,0.022185472629246625
8.787878787878787,4.860759493670886,0.023468430413063807,0.02093626454509074,1.0689858416467412e-05,-0.013321408487446364,0.022310389382260983
8.88888888888889,4.860759493670886,0.02377624452516781,0.021353477414604697,-5.759707677571287e-05,-0.013538916581931753,0.02266241940336634
8.98989898989899,4.860759493670886,0.023669488118081023,0.021333294029201682,5.627152577645427e-05,-0.013500834644184811,0.022592375966650174
9.09090909090909,4.860759493670886,0.0239136142832673,0.02145047695096217,-8.947958820544873e-05,-0.013609227370268841,0.02278265781916887
9.191919191919192,4.860759493670886,0.02393116879829286,0.02153800176544646,-2.946069176482879e-06,-0.013640751169121796,0.022828859592890372
9.292929292929292,4.860759493670886,0.02437432520670164,0.02184633892499835,7.8073259892096e-05,-0.013866199239509998,0.023214193297979257
9.393939393939394,4.860759493670886,0.024431546050413474,0.02199091062860947,1.9602765562980203e-05,-0.013926737003706882,0.023307290700139663
9.494949494949495,4.860759493670886,0.02479073050057601,0.022069226588072546,5.3501769660114296e-05,-0.014057987126594566,0.02354840588160683
9.595959595959595,4.860759493670886,0.025100965149816825,0.0223806787663214,-4.209339433932694e-06,-0.014244493174841466,0.023857423350113163
9.696969696969697,4.860759493670886,0.02506685734017481,0.02268602103886977,-1.9015770295275655e-05,-0.014325863513713373,0.02396532326695646
9.797979797979798,4.860759493670886,0.025479514172043964,0.022806915093311064,-6.329499020325191e-05,-0.014485928779606508,0.02425415265358947
9.8989898989899,4.860759493670886,0.025648317162720546,0.02316072391030116,-3.0113139116825577e-05,-0.01464271232190651,0.024499478222250657
10.0,4.860759493670886,0.026032189160112365,0.023425638090795335,-2.4992553553279878e-05,-0.014837348175272309,0.024831766436080916
0.0,4.962025316455696,0.026051898566566995,0.02350574608926706,-5.222298754076239e-05,-0.014867293396750214,0.024876904691058493
0.10101010101010101,4.962025316455696,0.025709987192483102,0.02310770813630119,1.4876125446333885e-06,-0.014645308598635286,0.02451266495420597
0.20202020202020202,4.962025316455696,0.02558105062889516,0.02283508209918724,7.094795727079724e-05,-0.01452483981842472,0.024324901547557294
0.30303030303030304,4.962025316455696,0.025114794223054217,0.022819365463937296,7.032826954149784e-05,-0.014380247906097453,0.024049688133365187
0.40404040404040403,4.962025316455696,0.0250366424591171,0.022555603307220673,-2.7652356239039456e-05,-0.014277673729901331,0.02389297856451185
0.5050505050505051,4.962025316455696,0.024568960366302527,0.02216928111374726,2.897845034220769e-05,-0.014021472444014938,0.023461397417885672
0.6060606060606061,4.962025316455696,0.024342643134178766,0.021961024979287515,5.742345601391319e-05,-0.013891100434039886,0.023243738755354976
0.7070707070707071,4.962025316455696,0.02431556238124105,0.021993801273969098,6.090905479962955e-05,-0.013892809096563045,0.023242059961542244
0.8080808080808081,4.962025316455696,0.024267275937996383,0.0216167653256084,5.97554186197728e-05,-0.013765212379081435,0.023056797862669395
0.9090909090909091,4.962025316455696,0.023801355595105916,0.02151052484268857,-9.570633554142775e-05,-0.013593564131338345,0.02274324153374799
1.0101010101010102,4.962025316455696,0.02367854726444628,0.021301476430378014,-3.5243700760941944e-05,-0.013494007108447286,0.022584114075267645
1.1111111111111112,4.962025316455696,0.023477897832371013,0.021322772222932593,5.7271321820681155e-05,-0.013440201016591083,0.022478173283394194
1.2121212121212122,4.962025316455696,0.023452257974961206,0.021134908027571172,-3.098802088445169e-05,-0.013376149800759712,0.022383795631899905
1.3131313131313131,4.962025316455696,0.023098112190747016,0.020761715047201115,3.517731823149686e-05,-0.013157948171384439,0.02202314435715516
1.4141414141414141,4.962025316455696,0.02299267628062499,0.020658357013724194,8.75629160418896e-06,-0.013095309988304755,0.021918945954673353
1.5151515151515151,4.962025316455696,0.02277392582793077,0.020737063819858546,-2.2282647867455007e-05,-0.013053296894336795,0.02182692487987351
1.6161616161616161,4.962025316455696,0.022703869321003323,0.020498668939338813,-3.350646233998072e-05,-0.01296076147810264,0.02168560300350459
1.7171717171717171,4.962025316455696,0.0224356131343964,0.020523245549066132,4.155187252246772e-05,-0.012887657605038759,0.02154330352700864
1.8181818181818181,4.962025316455696,0.022337259258483993,0.02030993319686646,2.4782362088578502e-05,-0.012794157736605135,0.021395797176020866
1.9191919191919191,4.962025316455696,0.022518415806799322,0.02030741604427062,9.708048447317939e-06,-0.012847749555320984,0.02149836368505914
2.0202020202020203,4.962025316455696,0.02218649691038663,0.020041046300623595,3.889177823759547e-05,-0.012668262963303069,0.02119547375879758
2.121212121212121,4.962025316455696,0.022100146798621156,0.020128456837373847,-0.00013213143256403292,-0.0126685810907985,0.021184470453267632
2.2222222222222223,4.962025316455696,0.022145881083961965,0.01985060282942309,-0.00014319677896008353,-0.012598945174015516,0.021093575038945753
2.323232323232323,4.962025316455696,0.021949650488126308,0.01986685720075005,-2.5601718905958795e-05,-0.012544952306662908,0.020985961166359555
2.4242424242424243,4.962025316455696,0.021999269765052277,0.01982004856208476,-3.230245150204395e-05,-0.01254579549814111,0.02099473101686043
2.525252525252525,4.962025316455696,0.02181043959105847,0.01958976765045409,5.051285793943404e-05,-0.012420062172453767,0.020789431989771623
2.6262626262626263,4.962025316455696,0.021659970592218646,0.019550992164524106,6.226917280084516e-05,-0.012363288827022827,0.020686549680659996
2.727272727272727,4.962025316455696,0.021839250883672907,0.019414655603262918,2.501694066810901e-05,-0.012376171946080747,0.02073359771857051
2.8282828282828283,4.962025316455696,0.02149543770349235,0.019452137548813767,-4.162388917360746e-05,-0.012284272575691835,0.02055024291941217
2.929292929292929,4.962025316455696,0.021571712416987188,0.01949460534415357,1.692703412032015e-05,-0.012319895328342226,0.02061182314915908
3.0303030303030303,4.962025316455696,0.02164199733456975,0.019423776606230483,-6.733841345271903e-05,-0.012319732182240068,0.0206228860280207
3.131313131313131,4.962025316455696,0.02154509471963658,0.01936520296768064,-3.2894988579293676e-05,-0.012273089306195164,0.02054215924616332
3.2323232323232323,4.962025316455696,0.021370492422791154,0.019255156512784793,2.0232567254776302e-05,-0.012187694680672784,0.02039529481127009
3.3333333333333335,4.962025316455696,0.02133159531141497,0.01926625885926446,-5.275766126413991e-05,-0.012179356251203829,0.020377782065863808
3.4343434343434343,4.962025316455696,0.021292981977491934,0.019128821766982128,3.004705701259112e-05,-0.012126541123342218,0.020297683489222732
3.5353535353535355,4.962025316455696,0.021139796078838653,0.019169125696233403,4.264095474100809e-06,-0.012092676532521617,0.02022659152038248
3.6363636363636362,4.962025316455696,0.02115538563884671,0.019003392112993782,9.230106724104295e-06,-0.012047633325552148,0.02016569910309397
3.7373737373737375,4.962025316455696,0.021096549661762606,0.018933791480621427,-2.0382257471817537e-05,-0.01200910234271521,0.020102647624522987
3.8383838383838382,4.962025316455696,0.021222990744154166,0.018989471359681886,-2.3352589261659113e-05,-0.012063738631150817,0.020199099479283684
3.9393939393939394,4.962025316455696,0.021100946944196095,0.019083674532327323,8.320126104406399e-05,-0.012055386442957026,0.02016863305085771
4.040404040404041,4.962025316455696,0.021004502426768174,0.01887788239194084,-9.684964423374723e-05,-0.011964715445612702,0.020026761566640253
4.141414141414141,4.962025316455696,0.02123622673663017,0.019166607070009837,9.92385274871515e-05,-0.012120850141992,0.020281501027564576
4.242424242424242,4.962025316455696,0.021166760638257124,0.019092382668934295,2.7509259969222863e-05,-0.012077742992157426,0.020209631570246526
4.343434343434343,4.962025316455696,0.02099277797386376,0.018820102533595038,-5.083659269124342e-05,-0.01194386415223764,0.019995362101730686
4.444444444444445,4.962025316455696,0.021071194086775113,0.018937787662617597,2.0034110383707818e-05,-0.012002694524817814,0.020089659690510533
4.545454545454545,4.962025316455696,0.020857160643535988,0.018982994240992066,-1.1087435684791366e-05,-0.011952046465358414,0.019986100892315256
4.646464646464646,4.962025316455696,0.020733142330622154,0.018998682725859438,-6.500699363270236e-05,-0.011919547516944478,0.019922937055007563
4.747474747474747,4.962025316455696,0.02083508564866951,0.01898337100741874,8.046117219661356e-05,-0.011945536996826477,0.0199741941002223
4.848484848484849,4.962025316455696,0.02118589841283642,0.018936846982008135,-3.2384572334402616e-05,-0.012036823618453365,0.020155780685459417
4.94949494949495,4.962025316455696,0.020979103151647516,0.0188083190536389,2.065946030373316e-05,-0.011936226661585924,0.019982373472024164
5.05050505050505,4.962025316455696,0.02083536893015646,0.018835278730845183,-4.765441345724005e-05,-0.011901194298300494,0.01991098076173636
5.151515151515151,4.962025316455696,0.021057387969741947,0.018948304402742342,-2.1208008776278462e-05,-0.012001707711745286,0.020086099173528233
5.252525252525253,4.962025316455696,0.021140214630468918,0.018982829477081006,-4.296599659796739e-05,-0.012036913232264976,0.02014847235821451
5.353535353535354,4.962025316455696,0.02086659430715862,0.01886169416557451,-4.550267667331766e-05,-0.011918486541819939,0.019940039020955334
5.454545454545454,4.962025316455696,0.020667309758550988,0.01897265253997954,-3.4486080455364005e-05,-0.011891988689559157,0.01987433314460659
5.555555555555555,4.962025316455696,0.021183288670735836,0.01885674879905199,-1.9789237283967326e-05,-0.012012011240936349,0.020121180775942084
5.656565656565657,4.962025316455696,0.02105288771073468,0.019065813652063744,7.524452417683158e-05,-0.012035610408839527,0.020133451826763064
5.757575757575758,4.962025316455696,0.021267002432493926,0.01905917421350438,1.2347254926347425e-05,-0.01209785299379949,0.0202535544329533
5.858585858585858,4.962025316455696,0.021195433654768458,0.018881224586118267,1.005107516184085e-05,-0.012022997472266019,0.020138311987890425
5.959595959595959,4.962025316455696,0.021173625022822544,0.019063117974658893,-2.1104919945432196e-05,-0.012071022899244431,0.020201259565050443
6.0606060606060606,4.962025316455696,0.02106746734943843,0.018881882455284254,-3.603709266049214e-05,-0.011984804941416806,0.02006424978583382
6.161616161616162,4.962025316455696,0.021296224246086737,0.018973984487735025,-6.557784391888951e-05,-0.012081062620146528,0.020235610377467857
6.262626262626262,4.962025316455696,0.02113388950176669,0.019239029549793864,-9.587751551461645e-06,-0.012111875715468167,0.020253056427095087
6.363636363636363,4.962025316455696,0.021039803606968343,0.019249562136431364,-0.00011623874676454568,-0.012086809723019913,0.02020525935820247
6.4646464646464645,4.962025316455696,0.021375203532103555,0.01926951426789719,-8.594017751958578e-05,-0.012193415340000223,0.020404555223302617
6.565656565656566,4.962025316455696,0.021315075599869972,0.019155899027069156,3.891965358745514e-05,-0.01214129238808174,0.02032181152447519
6.666666666666667,4.962025316455696,0.02133209099250936,0.019176229729130145,0.00010106061903506978,-0.012152496216491851,0.02034078304805805
6.767676767676767,4.962025316455696,0.02134850077360043,0.019176182244214024,4.403624619083038e-05,-0.012157404905344334,0.020349632105798796
6.8686868686868685,4.962025316455696,0.021447899937594567,0.01911203739849965,4.942362153338828e-05,-0.012167981200828263,0.02038079114291761
6.96969696969697,4.962025316455696,0.02142602075411107,0.01914753495801696,4.089244065680188e-05,-0.01217206671363841,0.02038263956161345
7.070707070707071,4.962025316455696,0.0214984003898086,0.019476456833319358,-9.649551593034504e-05,-0.012292457166938386,0.02056280275344136
7.171717171717171,4.962025316455696,0.021510271943431525,0.01968023332821181,-5.024795672103031e-05,-0.012357151581493,0.020656325585754105
7.2727272727272725,4.962025316455696,0.021590901468781596,0.019534368356997144,-3.765256205947262e-05,-0.012337580947733623,0.020639723933157758
7.373737373737374,4.962025316455696,0.021769476429445923,0.019576127897844263,9.905766854103827e-05,-0.012403681298187056,0.020760594160527026
7.474747474747475,4.962025316455696,0.021876185073324856,0.019467790625689832,-6.962889591265169e-05,-0.012403192709704405,0.020777292871333522
7.575757575757575,4.962025316455696,0.021807044846761336,0.019710247919650755,1.940897510735242e-05,-0.012455187829923628,0.02083794490354298
7.6767676767676765,4.962025316455696,0.022038758106080195,0.019703728485112194,9.553732078259897e-06,-0.012522745977357716,0.020968985264515246
7.777777777777778,4.962025316455696,0.02214156264102492,0.0197701070391229,8.03416698321117e-05,-0.012573500904044348,0.02105669084756753
7.878787878787879,4.962025316455696,0.022121241515703053,0.020032623242379016,1.4102329530154344e-05,-0.01264615942742462,0.0211544184476083
7.979797979797979,4.962025316455696,0.02231284000112013,0.020057834166076535,-4.037995845920102e-05,-0.012711202250158999,0.021275271736358216
8.080808080808081,4.962025316455696,0.022488071090979538,0.020117535090296897,1.87399522984126e-05,-0.01278168185438293,0.02140151989401316
8.181818181818182,4.962025316455696,0.022550088571087968,0.020146468600314354,2.5237155310247606e-05,-0.012808967151420695,0.021449567618897533
8.282828282828282,4.962025316455696,0.02257903544032308,0.020504763740123326,-7.846285265952166e-06,-0.012925139754133922,0.0216166735406381
8.383838383838384,4.962025316455696,0.022613902937860628,0.02057502714479743,5.3434943131802606e-05,-0.012956679024797418,0.02166673134497399
8.484848484848484,4.962025316455696,0.022964727013121175,0.020593177847032264,-2.5272350404267957e-05,-0.013067371458046033,0.02187562271369691
8.585858585858587,4.962025316455696,0.02304238751852335,0.020601533186257508,-2.531637102704334e-05,-0.013093176211434259,0.02192414659184552
8.686868686868687,4.962025316455696,0.023005122286464414,0.02095198653649534,-9.524175264294756e-05,-0.013187132646887924,0.022050977116639794
8.787878787878787,4.962025316455696,0.02339522809281405,0.020984732328083847,-6.833304622084766e-05,-0.013313988126269369,0.0222882726412248
8.88888888888889,4.962025316455696,0.02335609930753403,0.021196011559768066,-3.835505452427685e-05,-0.01336563326019063,0.022354564261516118
8.98989898989899,4.962025316455696,0.023883963264776834,0.021360777061166875,-2.541247799917208e-05,-0.013573422097783111,0.022727701613585987
9.09090909090909,4.962025316455696,0.023703124759220925,0.021597128592036066,-5.592141624141347e-06,-0.013590076005377098,0.022723440477408114
9.191919191919192,4.962025316455696,0.024172323686329777,0.02175823772271548,4.776120716013067e-05,-0.013779168422713577,0.023060395042497368
9.292929292929292,4.962025316455696,0.02422689836385399,0.021814223545185262,-4.57180754533247e-05,-0.013812336572711775,0.0231153249365762
9.393939393939394,4.962025316455696,0.02468707974058537,0.022085857605428177,4.068791832491756e-05,-0.014031881203804065,0.023494821790363593
9.494949494949495,4.962025316455696,0.024792361062122372,0.02231723737376869,6.849170912789847e-05,-0.014132879530767318,0.023652427306618498
9.595959595959595,4.962025316455696,0.02495185735308603,0.02249227020797533,0.00010658507827798716,-0.014233238268318408,0.023818219241530117
9.696969696969697,4.962025316455696,0.025102713232274195,0.022709042671827138,-5.501144999942802e-05,-0.0143435267712304,0.02399577720144106
9.797979797979798,4.962025316455696,0.025579596703612307,0.02292675208487272,-6.2933893384153145e-06,-0.014551904636545508,0.024361748201764392
9.8989898989899,4.962025316455696,0.02598227587046756,0.023294256670366074,-1.0038350010158715e-05,-0.014782959762250091,0.024748000980532904
10.0,4.962025316455696,0.026190628690473887,0.023374326064584117,-8.384885351730539e-05,-0.0148694864265174,0.024902629323404597
0.0,5.063291139240507,0.03182049806198015,0.028777605399014115,2.8642045174195288e-05,-0.01817943103829828,0.030413473883894714
0.10101010101010101,5.063291139240507,0.031621174894587066,0.028516649463190904,5.077776236007033e-05,-0.01804134730733339,0.030189000867548242
0.20202020202020202,5.063291139240507,0.03116518323385424,0.02802512112133118,-0.0001128465894273349,-0.017757091306555627,0.029720468166332503
0.30303030303030304,5.063291139240507,0.030781987456522057,0.027912692003328708,5.726058218438197e-06,-0.01760840383795523,0.029452352875197797
0.40404040404040403,5.063291139240507,0.030528914781018896,0.027566378341714857,6.041177054823455e-05,-0.017428587936820124,0.02916091881467051
0.5050505050505051,5.063291139240507,0.030392461248522924,0.0272584959004157,1.9433700943318377e-05,-0.01729528714468159,0.028952990383650172
0.6060606060606061,5.063291139240507,0.02997910429048077,0.02686281503784862,-8.322102152847792e-05,-0.017052575798498816,0.02854917108213306
0.7070707070707071,5.063291139240507,0.029828283517804796,0.02672781469849563,-6.215715209600939e-05,-0.016966829464890126,0.02840544546512616
0.8080808080808081,5.063291139240507,0.02958179903161338,0.026763759926137082,-2.907807356760789e-05,-0.01690366768732514,0.028278331783689357
0.9090909090909091,5.063291139240507,0.029121175120597365,0.026286941415899576,1.8421143274856374e-05,-0.01662243496094908,0.02781259648191263
1.0101010101010102,5.063291139240507,0.029161829995404523,0.026108392292079757,-1.5021232987966335e-05,-0.016581066686245285,0.02776135184380196
1.1111111111111112,5.063291139240507,0.02876631547976518,0.026112307202344427,-6.601289469702878e-06,-0.01646358680463288,0.02753540915902413
1.2121212121212122,5.063291139240507,0.028712828255649872,0.025805377543698445,-2.5087491085835614e-05,-0.016355461739804494,0.027375180935903805
1.3131313131313131,5.063291139240507,0.02847453100376284,0.02566214637771756,1.3085032119370478e-05,-0.01624100321444412,0.027177704163421006
1.4141414141414141,5.063291139240507,0.028079347091437144,0.025332007480300452,2.1817578862024952e-05,-0.01602340637152128,0.026811481374989364
1.5151515151515151,5.063291139240507,0.027914201808470398,0.02507453138762907,-1.4658197747952337e-05,-0.01589661995882984,0.026608267551540967
1.6161616161616161,5.063291139240507,0.027927827379323977,0.025032721444293696,-4.10684686815406e-06,-0.015888164647085302,0.026598706966778615
1.7171717171717171,5.063291139240507,0.027591634197041224,0.025065564375205143,5.0870409205689876e-06,-0.015797159571673908,0.0264193298469472
1.8181818181818181,5.063291139240507,0.027471928982297028,0.024902127541917618,-4.886596721370322e-05,-0.015712216957264394,0.026281562404676304
1.9191919191919191,5.063291139240507,0.027413726351683956,0.02477597291792381,-3.87848081596812e-05,-0.015656909780882328,0.026194732249634495
2.0202020202020203,5.063291139240507,0.02725314085168261,0.024507202594744655,8.49290726901497e-05,-0.015528103033928178,0.025989614463250068
2.121212121212121,5.063291139240507,0.027291267047471986,0.024620274947362034,4.346051402590339e-05,-0.015573462598450206,0.026058748312578824
2.2222222222222223,5.063291139240507,0.027036777673393506,0.024497285500020467,-1.0818650288911129e-05,-0.01546021895202419,0.025860723758122182
2.323232323232323,5.063291139240507,0.027017543736317557,0.024319163787713375,6.051040266365237e-06,-0.015401012257209279,0.025774511352448768
2.4242424242424243,5.063291139240507,0.02692149938636093,0.024180315687345307,-7.733136249490314e-05,-0.01533054452211187,0.025661301261422912
2.525252525252525,5.063291139240507,0.026704627871076612,0.024058579535903974,-0.00010768126440933036,-0.015228962222094175,0.025485520814164244
2.6262626262626263,5.063291139240507,0.02668861439309422,0.023868491526636584,-5.452887090488741e-05,-0.01516713177591924,0.02539643635777359
2.727272727272727,5.063291139240507,0.026522137838643947,0.023797629261405603,3.5488104057341423e-06,-0.015095930130014866,0.025270278753380563
2.8282828282828283,5.063291139240507,0.026433449665122746,0.023847332278851472,3.832020627127172e-05,-0.015084234583192264,0.02524004092490101
2.929292929292929,5.063291139240507,0.026561684668488083,0.023859646639840908,-4.7225301329635454e-05,-0.015126399392498695,0.025319164886396198
3.0303030303030303,5.063291139240507,0.02635672750833018,0.023679558349905344,7.266964863236809e-05,-0.015010885757470657,0.02512565908155203
3.131313131313131,5.063291139240507,0.026420052450507693,0.02369769817288695,0.00010646047579735576,-0.015035325187018393,0.025170213407827404
3.2323232323232323,5.063291139240507,0.026306776069954192,0.023684455134792354,0.00011555389211706286,-0.014997369361423964,0.02509936817457359
3.3333333333333335,5.063291139240507,0.026151283320762678,0.023619258138592888,4.542667014035537e-05,-0.01493116243780667,0.024981818462209558
3.4343434343434343,5.063291139240507,0.026089352979675504,0.023443650275207728,-7.980133564910855e-05,-0.014859900976464968,0.02487264591316942
3.5353535353535355,5.063291139240507,0.026140955785947287,0.023235623481766818,-4.864668143025164e-05,-0.01481297378031423,0.024816314420000846
3.6363636363636362,5.063291139240507,0.025850719792129034,0.023453429011532006,-1.3156614156413904e-05,-0.014791244641098312,0.02473935213213813
3.7373737373737375,5.063291139240507,0.026049948502628872,0.023474027490559116,4.245231877939909e-05,-0.014857192797956395,0.024862380878284587
3.8383838383838382,5.063291139240507,0.025878756789223956,0.02330546080299574,-1.7685715636379353e-05,-0.014755265277665908,0.02469289660140887
3.9393939393939394,5.063291139240507,0.025849121116953706,0.023382460233239696,-5.620831997971908e-05,-0.01476947440505802,0.024708499359983725
4.040404040404041,5.063291139240507,0.02576868204395137,0.02326192014734407,-1.6225810313759076e-05,-0.014709180657388632,0.024611250863085746
4.141414141414141,5.063291139240507,0.025592462921701715,0.02328960896560487,-2.1988904980530578e-05,-0.014664621566191976,0.024522296809069744
4.242424242424242,5.063291139240507,0.02576657841619918,0.02329791047304436,-7.28439834440487e-05,-0.014719346666773062,0.024625549278922042
4.343434343434343,5.063291139240507,0.025788858634761134,0.02336990181556026,-0.00011712469792682422,-0.014747628135096417,0.02466932510036468
4.444444444444445,5.063291139240507,0.02572401638228953,0.023119563757066433,-4.8374614107306234e-05,-0.014653074041806788,0.024525868600827696
4.545454545454545,5.063291139240507,0.025817857869409946,0.02315034508297463,-6.595058189563273e-05,-0.014690460885715372,0.024593108625864796
4.646464646464646,5.063291139240507,0.02561034786869594,0.02307473526500591,-6.238128649942248e-06,-0.014605524940110554,0.024441387954320555
4.747474747474747,5.063291139240507,0.02572250126075456,0.023102167792774037,-6.897309067099043e-05,-0.014647400716058578,0.02451787020768571
4.848484848484849,5.063291139240507,0.025676386022167926,0.023126433128424505,-2.0867026808501432e-05,-0.014640845745177728,0.024501158959935224
4.94949494949495,5.063291139240507,0.025854407125811454,0.02308568359006244,-6.970418394252317e-07,-0.014682027214762167,0.02458724250073911
5.05050505050505,5.063291139240507,0.025657548180068726,0.02301068755294875,-0.00010108062406656374,-0.014600470719905242,0.024442470161654555
5.151515151515151,5.063291139240507,0.025779668126515,0.023035931198052716,5.5435470313882966e-05,-0.014644679797370313,0.024523376049756004
5.252525252525253,5.063291139240507,0.02577969837065616,0.023162195023367055,-2.57835991481359e-06,-0.014682568018206964,0.02457571453735588
5.353535353535354,5.063291139240507,0.025794664285200622,0.023087760838786272,-2.0326671172567442e-05,-0.014664727537196068,0.024553403139328498
5.454545454545454,5.063291139240507,0.025577005374488707,0.023229543667727667,9.59653549064955e-06,-0.014641964712664912,0.02448781362191366
5.555555555555555,5.063291139240507,0.025724231545692037,0.023070897733040066,-9.019887089498721e-05,-0.014638538783619629,0.0245060340137281
5.656565656565657,5.063291139240507,0.025843602949558574,0.023277609374605882,-6.347908557705631e-05,-0.014736363697249337,0.02466117811666451
5.757575757575758,5.063291139240507,0.025695411965417133,0.023213660865276223,-2.860987023379931e-05,-0.014672721849208007,0.02454885177061911
5.858585858585858,5.063291139240507,0.02594101697294394,0.023302997888239196,-6.810144661916529e-05,-0.014773204458354942,0.024728051315290718
5.959595959595959,5.063291139240507,0.025754597958398382,0.02327183115602896,3.246703242834428e-07,-0.014707928734328201,0.02460733196611196
6.0606060606060606,5.063291139240507,0.025813704105775374,0.02322908685450448,1.9068037320649618e-06,-0.014712837288083957,0.024623343232648236
6.161616161616162,5.063291139240507,0.025858646885611188,0.023367780569227992,5.157537429144721e-07,-0.014767928236451754,0.02470756163696068
6.262626262626262,5.063291139240507,0.026000890829589854,0.02333200296923122,6.171630777723531e-05,-0.014799868139646321,0.024774730092530853
6.363636363636363,5.063291139240507,0.026118870642695968,0.02325468766472811,3.18245381127789e-05,-0.014812067492227222,0.024811141881950743
6.4646464646464645,5.063291139240507,0.025955888626719124,0.02344126168279473,4.966479572289114e-05,-0.014819145092854156,0.02479454629452436
6.565656565656566,5.063291139240507,0.02593471882807097,0.023575517973149038,-8.654519233484139e-05,-0.014853071040366001,0.02483974091540745
6.666666666666667,5.063291139240507,0.026151116616664326,0.02350816390200617,5.038782143268661e-05,-0.014897784155601147,0.024935066703231156
6.767676767676767,5.063291139240507,0.026181062429423016,0.023594673822229267,-7.3731484309479e-05,-0.014932720875495685,0.02498878435147285
6.8686868686868685,5.063291139240507,0.026361222816412382,0.02350366302946857,-1.6421864707473205e-05,-0.014959465753764285,0.025054974657552038
6.96969696969697,5.063291139240507,0.02625634416577887,0.02370494232722513,-2.337621931434398e-05,-0.014988385947901198,0.025078205973678137
7.070707070707071,5.063291139240507,0.026465093031584345,0.023809394335330424,3.213829236631754e-05,-0.01508234621007443,0.025242299227387948
7.171717171717171,5.063291139240507,0.026556070964244935,0.023859049812265835,-2.144298045926002e-05,-0.015124536232953229,0.025315566800931832
7.2727272727272725,5.063291139240507,0.02654636708960363,0.023900837652818467,-7.181761572653144e-05,-0.015134161422726628,0.02532774584110126
7.373737373737374,5.063291139240507,0.026592702204023967,0.02400855857894781,6.13240420520783e-05,-0.015180378234891533,0.025399636391634558
7.474747474747475,5.063291139240507,0.02679263908325896,0.0240959811002009,7.5892693782140215e-06,-0.015266586055037955,0.025551263413837906
7.575757575757575,5.063291139240507,0.026686113985875587,0.02421114092943258,-2.1088204571046564e-05,-0.01526917647459245,0.025538756671736596
7.6767676767676765,5.063291139240507,0.027014697773245912,0.024194087656845952,-1.0499724436685062e-05,-0.015362635629027559,0.025720655864703183
7.777777777777778,5.063291139240507,0.02715833565506424,0.024483948080607807,-7.405414365757423e-05,-0.015492685120701614,0.025925124514287263
7.878787878787879,5.063291139240507,0.02717590460922024,0.02455656409826391,1.3973213110558671e-05,-0.015519740612245245,0.025965522793292905
7.979797979797979,5.063291139240507,0.027346693441291026,0.024624665056452055,-3.300425724761043e-05,-0.015591407549322922,0.026092448577397336
8.080808080808081,5.063291139240507,0.027543363771673796,0.02476780919492206,-1.5791912202537494e-05,-0.015693351889978755,0.02626581865933643
8.181818181818182,5.063291139240507,0.027613978702018926,0.024814540007208695,1.5878911071474447e-05,-0.015728555612768286,0.02632614276123467
8.282828282828282,5.063291139240507,0.02779134744666907,0.02482740298837197,6.327842299275874e-05,-0.01578562513051231,0.02643452216092878
8.383838383838384,5.063291139240507,0.027821296578546546,0.025315189760739595,5.5276958657843617e-05,-0.015940945901785842,0.02665691543079309
8.484848484848484,5.063291139240507,0.02811923803779006,0.025178985458835772,-2.2357178360609756e-05,-0.015989467048987748,0.026770514945091695
8.585858585858587,5.063291139240507,0.028171613164282835,0.025393009729286667,-6.353713710686598e-05,-0.01606938686807085,0.02689042199599482
8.686868686868687,5.063291139240507,0.02828842285418227,0.02545392872876903,4.67911678776188e-06,-0.01612270547488539,0.026983067316542063
8.787878787878787,5.063291139240507,0.028654509625794845,0.025839523395946903,1.7033502740398566e-06,-0.016348209906522523,0.027355859117445966
8.88888888888889,5.063291139240507,0.028850223481383025,0.025975903445830492,1.2244662958574065e-05,-0.016447838078164054,0.027525856662511502
8.98989898989899,5.063291139240507,0.029057031877980626,0.026252867084971227,-0.00012550438641343047,-0.016592969688885555,0.027762222353690955
9.09090909090909,5.063291139240507,0.029412289448274793,0.026419331038778325,7.582428134160035e-05,-0.016749486146115936,0.028036191958756403
9.191919191919192,5.063291139240507,0.02945654750733458,0.02666683190754198,5.542278613462005e-05,-0.016837013824462968,0.02816566223503383
9.292929292929292,5.063291139240507,0.029730574900259463,0.02705478645229421,3.985120098375062e-05,-0.017035608405766102,0.028487171906024327
9.393939393939394,5.063291139240507,0.02998749198416681,0.027031915521877833,-4.115069988328763e-05,-0.017105822251813393,0.028624462656855677
9.494949494949495,5.063291139240507,0.030276120861051123,0.027127827692148086,-2.789503078141076e-05,-0.017221184565959762,0.02883122394524439
9.595959595959595,5.063291139240507,0.03046950663184694,0.027523079317501926,-2.0001648317734493e-05,-0.01739777578480466,0.029108371337297437
9.696969696969697,5.063291139240507,0.030948380161500023,0.027889074787161308,5.7340146491655256e-05,-0.017651236484598397,0.029537956969232487
9.797979797979798,5.063291139240507,0.031185358686072133,0.028155790279024363,-6.728137008517878e-05,-0.01780234468952895,0.029786578924449535
9.8989898989899,5.063291139240507,0.03150325941800832,0.028331639018874796,0.0001460280600869464,-0.017950469531064935,0.03004433594353814
10.0,5.063291139240507,0.03190339693989406,0.0288744974101714,4.001746494600712e-05,-0.018233368305019638,0.03050202597976563
0.0,5.1645569620253164,0.031908964729904905,0.02873675286632287,-6.508852624212794e-05,-0.018193715278868334,0.030447260489569267
0.10101010101010101,5.1645569620253164,0.0315010808738087,0.028236854618555487,-1.3481788040489155e-05,-0.017921380647709255,0.030002452554456376
0.20202020202020202,5.1645569620253164,0.031063961870722665,0.02808220054054562,5.045502727870943e-05,-0.017743848723380484,0.02968573638293261
0.30303030303030304,5.1645569620253164,0.030826285065191212,0.02782433652388314,-3.962117340828592e-06,-0.017595186476722306,0.02944032390404046
0.40404040404040403,5.1645569620253164,0.030526206936829264,0.027581224160262076,3.696146323757454e-07,-0.0174322293291274,0.02916544325484112
0.5050505050505051,5.1645569620253164,0.03037493479103256,0.027349894526219207,2.258992938271935e-05,-0.017317448795175532,0.028981091461399405
0.6060606060606061,5.1645569620253164,0.030041908578310888,0.02698587432611525,-9.793522844012259e-05,-0.01710833487132784,0.02863695669390243
0.7070707070707071,5.1645569620253164,0.029757817102903737,0.026787396258978,-1.7348273435297995e-05,-0.01696356400856452,0.02838941248802936
0.8080808080808081,5.1645569620253164,0.029386264386239116,0.02679576474641099,-3.2834057041604436e-05,-0.01685460873979503,0.028180513655349754
0.9090909090909091,5.1645569620253164,0.029263120445273856,0.026338799049692,-1.8740183092100028e-05,-0.016680575848489757,0.027916091384415663
1.0101010101010102,5.1645569620253164,0.02896520036373223,0.02621207884999681,5.1870848171087126e-05,-0.016553183764118712,0.027691620856572625
1.1111111111111112,5.1645569620253164,0.02869198952029478,0.025801630731010335,-3.8797485912006806e-05,-0.016348086075391535,0.027361630218358652
1.2121212121212122,5.1645569620253164,0.028657666067637855,0.02564153071283491,-7.0633317033597e-05,-0.01628975903414183,0.027275235366654868
1.3131313131313131,5.1645569620253164,0.028359555983765387,0.025680572639532433,7.226979436635692e-05,-0.016212038586989348,0.027119776142036728
1.4141414141414141,5.1645569620253164,0.02829366347437169,0.02548050861750687,4.4580660179629724e-05,-0.016132251627563567,0.02699734687953717
1.5151515151515151,5.1645569620253164,0.028185763636142537,0.0251559053074415,4.70430155338902e-05,-0.01600250068307521,0.026799721671626746
1.6161616161616161,5.1645569620253164,0.027745166825600194,0.025193704662329938,6.817978040971699e-05,-0.01588166144637904,0.02656176657207151
1.7171717171717171,5.1645569620253164,0.027924484217647993,0.024813150425272764,7.139501054558623e-06,-0.015821290392876226,0.02650613095730225
1.8181818181818181,5.1645569620253164,0.02752686361714127,0.024804835778218983,-5.6896194668019096e-05,-0.015699509818608074,0.026272009413050065
1.9191919191919191,5.1645569620253164,0.027299893680847818,0.024700180196877308,7.085744450442113e-05,-0.015600022163317536,0.026097621841914956
2.0202020202020203,5.1645569620253164,0.027358481754895747,0.02463051471189209,4.177922451932472e-05,-0.015596698940036352,0.02610173419636154
2.121212121212121,5.1645569620253164,0.026953166353080742,0.024337742903170888,5.1674146337347195e-05,-0.015387272776875488,0.02574544005454583
2.2222222222222223,5.1645569620253164,0.026981052048390353,0.024290164827787286,-1.8309027063006797e-05,-0.015381365062853291,0.02574133021383958
2.323232323232323,5.1645569620253164,0.0269542498216593,0.024260423723406685,-7.723743534967195e-05,-0.015364402063519793,0.02571373402934507
2.4242424242424243,5.1645569620253164,0.02666370756061292,0.02416073281150142,-6.00017677193815e-05,-0.015247332111634301,0.02550471323828318
2.525252525252525,5.1645569620253164,0.02671283918214618,0.024228135936061625,1.4088844316267508e-05,-0.01528229253546234,0.02556123323806769
2.6262626262626263,5.1645569620253164,0.026779294542459423,0.024099218375128184,4.2208424810508995e-05,-0.015263553875276281,0.025545023390607415
2.727272727272727,5.1645569620253164,0.026680819798119874,0.02400060431618039,3.182918736459962e-05,-0.01520442723429008,0.025446854287458007
2.8282828282828283,5.1645569620253164,0.0264881217460318,0.02371566127752619,1.60711238436591e-05,-0.015061134907067397,0.02521647546940803
2.929292929292929,5.1645569620253164,0.026491970293649237,0.023738104391182187,4.0739786867510844e-05,-0.015069022405449427,0.025228117507222286
3.0303030303030303,5.1645569620253164,0.026388459277021287,0.023809720285941624,4.250570371842486e-06,-0.015059453868888871,0.025198249604863394
3.131313131313131,5.1645569620253164,0.026232899315130488,0.023543489775789083,-4.209981393553914e-05,-0.014932916727275869,0.02499704457867729
3.2323232323232323,5.1645569620253164,0.02628088608220515,0.02361323339503813,-6.772079661003821e-05,-0.014968235843172983,0.025054078032642698
3.3333333333333335,5.1645569620253164,0.026225272290293197,0.02337349575894146,2.194939264775139e-05,-0.014879630414770396,0.02492208589517608
3.4343434343434343,5.1645569620253164,0.026192446935709195,0.023377427405671745,-7.258138832152945e-05,-0.01487096230241428,0.02490486229523736
3.5353535353535355,5.1645569620253164,0.025966908992719053,0.023465064833821405,2.0440668537255185e-05,-0.014829592147962136,0.024810797663644225
3.6363636363636362,5.1645569620253164,0.02601261302353892,0.023498597240698006,-2.941053016521802e-05,-0.014853363079271077,0.024851212986743802
3.7373737373737375,5.1645569620253164,0.026118024099237237,0.023311477018471076,-1.2938095549004881e-05,-0.014828850335312494,0.024833987341076526
3.8383838383838382,5.1645569620253164,0.02577747701374686,0.02350725283759954,2.5734390295761606e-05,-0.01478541895540392,0.024720711443323256
3.9393939393939394,5.1645569620253164,0.025886315179497518,0.02323259946653324,9.750015564740821e-05,-0.014735674393809226,0.02466732896273921
4.040404040404041,5.1645569620253164,0.025874466617143342,0.023257836646550442,-7.885747353326953e-05,-0.014739690979108135,0.024670823371029667
4.141414141414141,5.1645569620253164,0.025960238427047158,0.023298110843576716,-6.974770928681889e-05,-0.014777504781187162,0.024737138676462784
4.242424242424242,5.1645569620253164,0.025890241921876684,0.023250782543653103,1.3823005886385873e-05,-0.014742307339658936,0.02467662262068887
4.343434343434343,5.1645569620253164,0.025828563214751608,0.023271988601277854,-6.545281410327539e-05,-0.014730165544808837,0.02465017149408832
4.444444444444445,5.1645569620253164,0.02558857003030137,0.023164964233511377,-5.911252518541696e-05,-0.014626060279143824,0.024467175101935402
4.545454545454545,5.1645569620253164,0.025540174630520305,0.022989624294969525,1.4639355813095035e-05,-0.014558939677646949,0.02436524100291167
4.646464646464646,5.1645569620253164,0.025695101097611275,0.023167194088475406,2.1333772360559353e-05,-0.014658688555826003,0.024529065891055156
4.747474747474747,5.1645569620253164,0.025625416714458907,0.023224870274953853,-9.923038302175251e-05,-0.014655086096823828,0.024514060091096836
4.848484848484849,5.1645569620253164,0.025787215288272602,0.02329913281306414,2.0343109617349718e-06,-0.014725904430401024,0.02463757944074953
4.94949494949495,5.1645569620253164,0.025591589694975218,0.023097098825106303,5.892638282454878e-05,-0.014606606556024455,0.02444022049679692
5.05050505050505,5.1645569620253164,0.0257976911094667,0.023060515881750482,-7.033110607691447e-06,-0.014657462097365154,0.024543845301083278
5.151515151515151,5.1645569620253164,0.025847378120239694,0.023219594605000934,-6.799511831049319e-05,-0.014720091817572188,0.024639090035255756
5.252525252525253,5.1645569620253164,0.02598137589797146,0.02298463146066615,7.074057683479071e-05,-0.014689802207591283,0.024620476026390333
5.353535353535354,5.1645569620253164,0.025780659649155154,0.023064689831887367,-0.0001451155340389061,-0.014653604844312756,0.024536963668559026
5.454545454545454,5.1645569620253164,0.02577525664470828,0.023067395646194935,2.2514509154443745e-06,-0.014652795687270966,0.02453366196270064
5.555555555555555,5.1645569620253164,0.02568273217135614,0.023226154235864403,2.412347001253056e-05,-0.014672665922166164,0.024546845410131128
5.656565656565657,5.1645569620253164,0.025857588124862364,0.022971272181132634,-3.1607301812278725e-05,-0.014648658091798498,0.024542117096034086
5.757575757575758,5.1645569620253164,0.025871919626851016,0.0231696304261673,-2.0913980195212426e-05,-0.014712465015905493,0.024632224732603365
5.858585858585858,5.1645569620253164,0.02584672322645219,0.02326293489500551,1.712324890202848e-05,-0.014732897436437308,0.024656591034140606
5.959595959595959,5.1645569620253164,0.025884603652090096,0.02318744669396636,-5.674004971008453e-05,-0.014721615103816935,0.024647153615250682
6.0606060606060606,5.1645569620253164,0.02574875077512693,0.023282476614859583,4.9428440520271426e-05,-0.014709368216995953,0.024608627054948422
6.161616161616162,5.1645569620253164,0.02589666250081531,0.023223289523362715,3.818298862087294e-05,-0.014735985607253407,0.024668947846304228
6.262626262626262,5.1645569620253164,0.02605810412371667,0.023374398193836268,-3.2292846161437638e-06,-0.01482975069526588,0.024825285713705552
6.363636363636363,5.1645569620253164,0.025942352384329282,0.023435872235278786,-1.2109453076230676e-05,-0.01481346738588242,0.024784360766738903
6.4646464646464645,5.1645569620253164,0.026050858466455985,0.02342670122966101,-0.0001460476583224206,-0.014843267908835098,0.024844232107851052
6.565656565656566,5.1645569620253164,0.026133276761602493,0.023350180570486198,0.00010097479977981249,-0.014845037199626607,0.02485946386029849
6.666666666666667,5.1645569620253164,0.02614461080226392,0.023475649812214297,1.887991696240757e-05,-0.014886078184343465,0.024917587158286077
6.767676767676767,5.1645569620253164,0.026304283490226225,0.023557039624997483,2.717444611237487e-05,-0.01495839693456711,0.02504397358034519
6.8686868686868685,5.1645569620253164,0.02613716466961372,0.023802391976287432,5.742761020297359e-05,-0.014981866993770344,0.025051708443450716
6.96969696969697,5.1645569620253164,0.026336872469588785,0.02354622083141699,1.7107191613432018e-06,-0.014964927990301732,0.025058363085467397
7.070707070707071,5.1645569620253164,0.02646978596610611,0.023768567058115194,-6.023887834869296e-07,-0.015071505907266391,0.025227870846087144
7.171717171717171,5.1645569620253164,0.02645757132269034,0.023832768175039112,-7.057852000443227e-05,-0.015087101849318834,0.025248003868714446
7.2727272727272725,5.1645569620253164,0.02659613996172768,0.023830848072673712,2.7257002214963862e-05,-0.015128096410320417,0.025327014012940317
7.373737373737374,5.1645569620253164,0.026632046656808985,0.02416221595818155,1.344890964284483e-05,-0.015238278784497161,0.02548705296870511
7.474747474747475,5.1645569620253164,0.02688353307834339,0.02405358488731608,7.530298144170647e-05,-0.015281135389697841,0.025586538713781574
7.575757575757575,5.1645569620253164,0.02699094233275963,0.02428269438658629,-9.658959884579515e-06,-0.015382091015803775,0.025743886472264575
7.6767676767676765,5.1645569620253164,0.026919125650220668,0.02431265100501471,1.666872148018824e-05,-0.01536953299657061,0.025715167720800184
7.777777777777778,5.1645569620253164,0.027153222066995747,0.02426756177173999,-8.817691047302512e-06,-0.015426235151620721,0.025831565233396806
7.878787878787879,5.1645569620253164,0.027177182055398253,0.024560685493804163,1.5603151185164353e-05,-0.015521360264760723,0.02596799964768771
7.979797979797979,5.1645569620253164,0.02719834166361627,0.0245324296326782,0.0001128363701485149,-0.01551923138888834,0.025968956199358323
8.080808080808081,5.1645569620253164,0.027496543693392383,0.024754607676805308,-5.169240753671012e-05,-0.015675345411059305,0.026233421069927418
8.181818181818182,5.1645569620253164,0.027488562252545555,0.024754067842417158,6.61582780915931e-05,-0.015672789028488815,0.026228692787142932
8.282828282828282,5.1645569620253164,0.027700865109581294,0.024914174004762056,8.774758784408379e-05,-0.015784511734303005,0.02641842008246796
8.383838383838384,5.1645569620253164,0.027951569506339646,0.024977183943449954,4.280230867814092e-05,-0.01587862603493688,0.026589546040833103
8.484848484848484,5.1645569620253164,0.02833575789368633,0.02500292372871118,4.2010989955856343e-05,-0.01600160448671925,0.026825172352701144
8.585858585858587,5.1645569620253164,0.028196473278502967,0.025355448294664296,-4.938405826525565e-06,-0.01606557647195018,0.02688876561739712
8.686868686868687,5.1645569620253164,0.028485718635409277,0.025550373250107436,-7.70499988809952e-06,-0.016210827565655013,0.02713737596128872
8.787878787878787,5.1645569620253164,0.02850309760420214,0.02578554442573395,1.1944876632022959e-05,-0.016286592608980827,0.027246163268655296
8.88888888888889,5.1645569620253164,0.028695817401909192,0.02598032109863333,-3.261407872209879e-05,-0.016402841550162757,0.027439090026763795
8.98989898989899,5.1645569620253164,0.029076837453445893,0.026055081281333884,0.00010899133545660123,-0.016539575620433934,0.027690540098578374
9.09090909090909,5.1645569620253164,0.02907738176245245,0.026430598555202828,2.8558274480069875e-05,-0.01665239409529658,0.027848528012644747
9.191919191919192,5.1645569620253164,0.02947954903447846,0.02640908818235205,-7.99138014956672e-06,-0.016766591165049152,0.028070552745865618
9.292929292929292,5.1645569620253164,0.02966973733336681,0.026631901946484116,1.4770720366711929e-05,-0.016890491783955276,0.02827349702107083
9.393939393939394,5.1645569620253164,0.03008542266498172,0.02688825911026537,-6.57253899478605e-05,-0.017092104532574124,0.028621311191735027
9.494949494949495,5.1645569620253164,0.030487413407523964,0.02719881176867543,1.1204783897211736e-05,-0.01730586755285982,0.028983386551016073
9.595959595959595,5.1645569620253164,0.03068002891112186,0.027562127138937482,5.591080846932738e-06,-0.0174726468150178,0.02924599566976929
9.696969696969697,5.1645569620253164,0.03107577569120167,0.027755053242145816,-2.826402727908282e-05,-0.017649248680004243,0.029555700008622038
9.797979797979798,5.1645569620253164,0.03105719455687502,0.028123697700927753,-2.0312793245963264e-05,-0.017754267677340833,0.029699323103212515
9.8989898989899,5.1645569620253164,0.031533092882142615,0.02817365020490485,3.477451126456652e-05,-0.01791202292611424,0.029994863087565656
10.0,5.1645569620253164,0.031689685192198044,0.0286267081500782,-2.218446219847106e-05,-0.018094918002682873,0.030274653989377825
0.0,5.265822784810126,0.03180437146447902,0.02884918086360899,-5.04326636135023e-05,-0.018196065698426404,0.03043469806783547
0.10101010101010101,5.265822784810126,0.03162300109590288,0.02827925581162403,-4.834669675841664e-05,-0.017970677072258075,0.030090905308044553
0.20202020202020202,5.265822784810126,0.03107006781612775,0.028055596399075802,6.22863688215358e-05,-0.017737699264561063,0.029678072030383654
0.30303030303030304,5.265822784810126,0.030718901652751762,0.027794812652073172,1.3463299046665514e-05,-0.01755411429144748,0.0293662554061775
0.40404040404040403,5.265822784810126,0.030534008373273715,0.027462719597008235,1.3159167500133215e-05,-0.017399018391084584,0.02912010034952146
0.5050505050505051,5.265822784810126,0.030231881424519706,0.027440567178572035,-0.00012048904409141291,-0.017301734580927524,0.028938122973216934
0.6060606060606061,5.265822784810126,0.030177434268204305,0.02711447850035049,-7.946628338741435e-06,-0.01718757383056644,0.02876851195566953
0.7070707070707071,5.265822784810126,0.02971744149671929,0.026732126139620064,8.398483014797006e-06,-0.016934870290901807,0.028342948223887422
0.8080808080808081,5.265822784810126,0.029294470013562057,0.02651100750325629,-4.0210696328283496e-05,-0.016741643255045503,0.028006756837949575
0.9090909090909091,5.265822784810126,0.02925607806372249,0.026344124995024733,7.565167973509408e-05,-0.016680060917624168,0.027914555657920566
1.0101010101010102,5.265822784810126,0.029004786400328615,0.02609711031782674,7.680829562833998e-05,-0.016530569015446604,0.027666105421218255
1.1111111111111112,5.265822784810126,0.0287744636520295,0.026057636504410352,-1.6094844917773216e-05,-0.016449630046931955,0.027516839232297228
1.2121212121212122,5.265822784810126,0.02873187830822779,0.025845483274342638,7.484755907078741e-05,-0.01637320847477113,0.02740323636030392
1.3131313131313131,5.265822784810126,0.028475315395253206,0.02543389671365445,-9.514081754464198e-05,-0.016172763632672296,0.0270834933783268
1.4141414141414141,5.265822784810126,0.028205867890783422,0.025502956627082095,4.465703451941882e-05,-0.016112647355359656,0.02695634874198464
1.5151515151515151,5.265822784810126,0.027982422470643545,0.025141404373392025,2.861661286287019e-05,-0.01593714805321067,0.02667566755007355
1.6161616161616161,5.265822784810126,0.0280240900042247,0.025149927559228437,-1.5698770229241357e-05,-0.01595220526903594,0.026703284117013323
1.7171717171717171,5.265822784810126,0.02776446580105601,0.024982189591094904,-5.893270250980805e-05,-0.01582399661764527,0.02648336513051622
1.8181818181818181,5.265822784810126,0.027770392380858575,0.024768165869696806,-5.739560673402313e-05,-0.015761567475166615,0.026397820583279392
1.9191919191919191,5.265822784810126,0.0273087386236223,0.02457488685618801,-2.8277684595383126e-05,-0.015565087643943092,0.026049673821938176
2.0202020202020203,5.265822784810126,0.027214700308776686,0.02439874364299609,3.801642110328103e-05,-0.015484033185531834,0.02592177547628988
2.121212121212121,5.265822784810126,0.02721427050648665,0.024438834875473246,1.0135145975756245e-05,-0.015495931614587968,0.025938165206312102
2.2222222222222223,5.265822784810126,0.027068657916272967,0.02431992275177241,-3.3299674301029897e-05,-0.015416574200413612,0.02580438995844309
2.323232323232323,5.265822784810126,0.02699059556384744,0.024307436165466798,8.145451618717988e-05,-0.015389409518794271,0.025754444812651135
2.4242424242424243,5.265822784810126,0.026936640070594608,0.024063871926856925,-4.103642947179421e-05,-0.01530015359923546,0.025621430591829496
2.525252525252525,5.265822784810126,0.02677026451662757,0.024083203160379835,1.4869623700083873e-05,-0.015256040303102222,0.0255330115940211
2.6262626262626263,5.265822784810126,0.026705923846185985,0.023915435866084633,5.760543285409806e-05,-0.015186407913681185,0.025425982524039742
2.727272727272727,5.265822784810126,0.026512192901969052,0.02404207624677461,4.673681285402876e-05,-0.015166280744623098,0.025367620946742973
2.8282828282828283,5.265822784810126,0.026424873750284582,0.023737180176508624,-3.1915583659829555e-05,-0.015048616178037962,0.025188861465178528
2.929292929292929,5.265822784810126,0.026488367886597034,0.02369264972932534,-3.1460042421021184e-05,-0.015054305284776713,0.025207114699155063
3.0303030303030303,5.265822784810126,0.026363586381137068,0.023696310291355754,-4.4893803354980126e-05,-0.015017969001747844,0.025136430362727377
3.131313131313131,5.265822784810126,0.026131912554286662,0.023633969330074903,4.443482886596897e-05,-0.01492976456530847,0.024976918616147283
3.2323232323232323,5.265822784810126,0.026322142215305707,0.023637392409888776,-2.7235233154950274e-07,-0.014987860387558343,0.025087739761730104
3.3333333333333335,5.265822784810126,0.026243585380326204,0.023494475320443135,-0.0001081539064640056,-0.0149214182102308,0.024983433850490143
3.4343434343434343,5.265822784810126,0.02610495741908561,0.023471141000774368,4.9717379395394135e-05,-0.014872829525957993,0.02489292149952225
3.5353535353535355,5.265822784810126,0.026029963915946086,0.023517400143792836,3.05634677390527e-05,-0.014864209217921675,0.02486911450425227
3.6363636363636362,5.265822784810126,0.02600716116376605,0.023494959450761292,-3.4187666457868164e-05,-0.014850636184358203,0.02484656637864747
3.7373737373737375,5.265822784810126,0.02607835400377043,0.023255795492512565,0.00010354290743688413,-0.014800244848884897,0.024788543068190737
3.8383838383838382,5.265822784810126,0.025864879743420735,0.02330613907865647,8.470095953720383e-06,-0.014751305646623162,0.024685174772927636
3.9393939393939394,5.265822784810126,0.025867251038474866,0.023233795877377665,-3.250125050154903e-05,-0.014730314074755758,0.0246562909947172
4.040404040404041,5.265822784810126,0.02579593564908557,0.02331933819289902,-4.7661883531633716e-05,-0.014734582152595377,0.02465125752023011
4.141414141414141,5.265822784810126,0.02586506392794509,0.02323492629527125,-2.1472922647763004e-05,-0.014729997066964902,0.0246554631109276
4.242424242424242,5.265822784810126,0.025676154229971354,0.02311262259355251,-8.987711807479435e-05,-0.01463663304705716,0.024495697387728225
4.343434343434343,5.265822784810126,0.02569405454531441,0.023116684889894143,0.0001327382558171198,-0.014643221830562566,0.024508305839901275
4.444444444444445,5.265822784810126,0.025859992093209237,0.023299384065820675,3.632681769280964e-05,-0.014747812847708973,0.024679598053893533
4.545454545454545,5.265822784810126,0.025541218111651456,0.023233761166941393,1.5901863014191024e-05,-0.014632493783577855,0.024469239417650487
4.646464646464646,5.265822784810126,0.025849368763072283,0.02308471523088712,7.039044013972266e-05,-0.01468022519818782,0.024584212218188434
4.747474747474747,5.265822784810126,0.025821018367925053,0.02317603982839101,-7.419166264538638e-06,-0.014699117458894819,0.024605386132132263
4.848484848484849,5.265822784810126,0.025566089452500326,0.023194514315002603,0.00010386632297899446,-0.014628181130250878,0.024467320267176806
4.94949494949495,5.265822784810126,0.025703756714179574,0.022912923093090443,-3.671827580035943e-05,-0.014585003942181004,0.024428282743398855
5.05050505050505,5.265822784810126,0.025624984707979415,0.02302480653703736,-2.9741854513121594e-05,-0.014594937373505031,0.024428956090470584
5.151515151515151,5.265822784810126,0.025694538759520262,0.023333941188392215,-3.616455156274503e-05,-0.014708543984373743,0.0245994146433344
5.252525252525253,5.265822784810126,0.025684315565110007,0.0231562019720031,-4.4767286055803936e-05,-0.01465215526113393,0.024518331293293692
5.353535353535354,5.265822784810126,0.025648843874052134,0.023119163135558042,-7.003066431985502e-06,-0.014630402102883052,0.024482222887846523
5.454545454545454,5.265822784810126,0.025739376598618014,0.02309706140287496,1.1271305713616619e-05,-0.014650931400447893,0.024525215034544655
5.555555555555555,5.265822784810126,0.025777222995316287,0.023251528328972395,-1.5662989905052992e-05,-0.014708625397286604,0.024611779705116646
5.656565656565657,5.265822784810126,0.02587164706202361,0.023218684149801976,-1.0351176708260368e-05,-0.014727099363547675,0.024652467122429748
5.757575757575758,5.265822784810126,0.025948081855176282,0.023090305645598753,-2.1601055973885475e-05,-0.01471151625023251,0.024643811102058065
5.858585858585858,5.265822784810126,0.025735647182802406,0.023247016052390206,6.052870607775952e-05,-0.014694798970557782,0.024586200992696965
5.959595959595959,5.265822784810126,0.025810878592451084,0.02323844758231296,2.9609974519175826e-05,-0.014714797852429212,0.024625693508565635
6.0606060606060606,5.265822784810126,0.025727930208928877,0.023212987849155403,-2.8382411576193642e-05,-0.014682275417425283,0.024567244108377885
6.161616161616162,5.265822784810126,0.025811748103432584,0.02324071619574437,4.7922749735160375e-05,-0.014715739289753085,0.024627233036378586
6.262626262626262,5.265822784810126,0.02602712368561583,0.02346498629721885,-2.2392257013195104e-05,-0.014847632994850403,0.02484536481671259
6.363636363636363,5.265822784810126,0.02575912565064718,0.02347945044844381,-7.02356964529259e-06,-0.014771572829727297,0.0246983234517799
6.4646464646464645,5.265822784810126,0.026252164418675516,0.023562799316892435,-1.632977492722507e-05,-0.014944489120670385,0.02501615411022749
6.565656565656566,5.265822784810126,0.026186008871780256,0.023416797762901648,1.4066295749565209e-05,-0.01488084199040457,0.02491709448783288
6.666666666666667,5.265822784810126,0.026273363772138406,0.02365441650862915,-5.4474462904032265e-05,-0.014978334084230265,0.02506688805813874
6.767676767676767,5.265822784810126,0.026107585618763997,0.023564599569365078,1.8801147271679134e-05,-0.014901655556438721,0.024933564513040286
6.8686868686868685,5.265822784810126,0.026131432136813605,0.023731424195252655,9.579499305094296e-06,-0.014958856899619878,0.02501792186190047
6.96969696969697,5.265822784810126,0.026288359236820186,0.023819790821687305,-8.506325654851335e-07,-0.015032445017552248,0.02514511980996207
7.070707070707071,5.265822784810126,0.026326058897089125,0.023812651975981824,6.485881980257302e-05,-0.015041613261921286,0.02516392482833653
7.171717171717171,5.265822784810126,0.02644140729877197,0.02384629210898224,6.9051439023930965e-06,-0.015086309822326262,0.025244094123386674
7.2727272727272725,5.265822784810126,0.02658739135637864,0.023840718801900758,3.638748572890463e-05,-0.015128433047483819,0.025326087405526835
7.373737373737374,5.265822784810126,0.02663623955251646,0.024059631579461234,4.0640616756867275e-05,-0.015208761339593308,0.02544606008642246
7.474747474747475,5.265822784810126,0.026732957284501046,0.02400680882191214,-6.418928428606492e-06,-0.015221929831923955,0.025479501639972525
7.575757575757575,5.265822784810126,0.026883847707291218,0.02411370987027159,2.6293089600718172e-06,-0.015299267273268842,0.02561138395686713
7.6767676767676765,5.265822784810126,0.02699240923180315,0.024174100987277892,-3.4959039846373354e-05,-0.015349953065724313,0.025699489380610296
7.777777777777778,5.265822784810126,0.027301557051051466,0.024404132069984034,1.4770763835052372e-05,-0.01551170673631065,0.025974343688289228
7.878787878787879,5.265822784810126,0.027227358644475334,0.024477374130774384,3.3973540168417105e-05,-0.015511419832574914,0.025961897495435243
7.979797979797979,5.265822784810126,0.02738495936450612,0.024658168852104114,-6.649928512990695e-05,-0.015612938464983071,0.02612875054382233
8.080808080808081,5.265822784810126,0.027420583302331776,0.02471842830090486,2.6802241910034554e-05,-0.015641703480970992,0.02617436759617943
8.181818181818182,5.265822784810126,0.027491593364439036,0.024809718032361868,6.850661927756274e-05,-0.015690393419040268,0.02625386094271739
8.282828282828282,5.265822784810126,0.02758389174784122,0.02496848989711763,2.9072496650953483e-06,-0.015765714493487654,0.026373632184934822
8.383838383838384,5.265822784810126,0.02791806819297578,0.025176483288468023,3.389395831426666e-05,-0.01592836544443314,0.026653302074914106
8.484848484848484,5.265822784810126,0.02810076769740254,0.025194108636071917,-1.9495772005078346e-05,-0.015988462900042338,0.026766090511682383
8.585858585858587,5.265822784810126,0.028240897531146614,0.02532659789604817,-0.0001134783637875966,-0.016070248628158434,0.026903115625799338
8.686868686868687,5.265822784810126,0.028462982778277954,0.025488334978113748,1.652110495791879e-05,-0.01618539532691751,0.02709840194374532
8.787878787878787,5.265822784810126,0.028716113364505604,0.025898507172031338,8.267160763648459e-06,-0.016384386160961082,0.027416118937902644
8.88888888888889,5.265822784810126,0.028785076464252185,0.025992013936975197,-8.878627228320424e-05,-0.016433127120368214,0.027495580661689185
8.98989898989899,5.265822784810126,0.029140934989774808,0.026078324903869275,-2.847418987366376e-05,-0.016565777968093224,0.027736776733114414
9.09090909090909,5.265822784810126,0.0292667411030376,0.026279734251675013,-7.529884184976645e-06,-0.016663942606413785,0.02789345010263085
9.191919191919192,5.265822784810126,0.029447647510399334,0.026413547572081007,-1.539728287303593e-05,-0.016758358524744103,0.0280539357678467
9.292929292929292,5.265822784810126,0.029765235787083247,0.026841029602438116,9.342037027128939e-05,-0.016981879616856408,0.02841666304814331
9.393939393939394,5.265822784810126,0.029964893425663493,0.027070780855683062,-2.9348523053364114e-05,-0.017110702284403964,0.02862781051469304
9.494949494949495,5.265822784810126,0.03022020588246112,0.027241910307648946,1.2291994433555426e-05,-0.01723863485703302,0.02884660874243311
9.595959595959595,5.265822784810126,0.030596948797238673,0.027424566272401068,4.971415756505858e-05,-0.01740645452089192,0.029140684195801177
9.696969696969697,5.265822784810126,0.030870579697447442,0.027837694076367346,-7.152717524222704e-05,-0.017612482132144437,0.02947167279233752
9.797979797979798,5.265822784810126,0.031087158825138572,0.0279901967212422,6.572017444218466e-05,-0.01772320666391423,0.02966040833699168
9.8989898989899,5.265822784810126,0.0315694722959708,0.0284336512405181,1.2837407298299187e-05,-0.01800093706094667,0.03012423000177317
10.0,5.265822784810126,0.03197008340714995,0.02873729259738915,3.3969939394713975e-06,-0.01821221280136173,0.030482529623910504
0.0,5.367088607594937,0.03192441798603799,0.02870211267690794,-4.404005977503327e-05,-0.018187959198883778,0.030441539255855833
0.10101010101010101,5.367088607594937,0.031570696904183584,0.028369472094970784,4.539066534436042e-05,-0.017982050699746312,0.03009813991027747
0.20202020202020202,5.367088607594937,0.031060753284716632,0.028081084379650994,4.080429258855232e-06,-0.017742551299310287,0.0296832968286404
0.30303030303030304,5.367088607594937,0.030954627110834566,0.02775232835963134,-3.2725944137282165e-05,-0.017612086641139772,0.02948424844021031
0.40404040404040403,5.367088607594937,0.030678771991748496,0.02754234681641227,-1.538963870709616e-05,-0.01746633564244823,0.029237018512526095
0.5050505050505051,5.367088607594937,0.03027058906506026,0.02736187358212849,-1.5940926409608038e-06,-0.017289738794156625,0.02892612425885606
0.6060606060606061,5.367088607594937,0.029947021370364747,0.026922997935623638,5.354987467317654e-05,-0.017061005791796514,0.028555505861978758
0.7070707070707071,5.367088607594937,0.029874431150467284,0.026805801393859238,-1.0747231656962614e-05,-0.017004069763297956,0.028464449814919187
0.8080808080808081,5.367088607594937,0.029476147723568165,0.026538184267898633,2.2880692435798313e-05,-0.01680429959744004,0.028122529040627932
0.9090909090909091,5.367088607594937,0.02933507651346189,0.026373708729358625,9.752334364394314e-06,-0.016712635572846152,0.027972213855830114
1.0101010101010102,5.367088607594937,0.02906884219606344,0.026055153599064337,-1.830674626628079e-05,-0.016537198738538334,0.027685311497903625
1.1111111111111112,5.367088607594937,0.028818510918458162,0.026055083269197178,9.363503314201227e-05,-0.0164620782562966,0.027541451243638018
1.2121212121212122,5.367088607594937,0.028530280302713703,0.02581149346724056,-4.76807566895781e-07,-0.01630253213098628,0.0272727143165255
1.3131313131313131,5.367088607594937,0.02843318675423356,0.025565042332430926,-7.278466258296083e-05,-0.016199468725999346,0.027113424133877573
1.4141414141414141,5.367088607594937,0.028114228917504206,0.02545532435095378,-2.4652420734349345e-05,-0.016070865980537394,0.026883608624803344
1.5151515151515151,5.367088607594937,0.028058216034763456,0.025285527086795767,8.760291928545386e-06,-0.016003122936467766,0.026779746372669496
1.6161616161616161,5.367088607594937,0.02795402062825351,0.02513308538442991,1.3802506586984251e-05,-0.015926131803805026,0.02665575049525751
1.7171717171717171,5.367088607594937,0.027662029753419786,0.02510830943279955,9.197866009658581e-05,-0.015831101755865797,0.026478173469593025
1.8181818181818181,5.367088607594937,0.02765877701393723,0.024857246966079924,8.077403208810513e-05,-0.015754807194005144,0.026370233122917194
1.9191919191919191,5.367088607594937,0.02734235354521663,0.02457704423277986,3.7671017332794785e-05,-0.015575819333398947,0.02607001007708253
2.0202020202020203,5.367088607594937,0.027300152600475844,0.024541600921054747,-5.112457275720969e-05,-0.015552526056459175,0.02603088355662614
2.121212121212121,5.367088607594937,0.027338337324641485,0.0243667232733323,-4.553227582983446e-05,-0.015511518179392135,0.025980423591175642
2.2222222222222223,5.367088607594937,0.02693562225399861,0.024392855143487407,1.3479067571451134e-05,-0.015398543219245803,0.025758550841915955
2.323232323232323,5.367088607594937,0.02715185933392016,0.024347372541308962,0.0001218624769470378,-0.015449769562568735,0.02586476622650908
2.4242424242424243,5.367088607594937,0.026873375319196386,0.023869048216131922,1.468810382617449e-05,-0.01522272706059849,0.02550428434180222
2.525252525252525,5.367088607594937,0.026632420274068515,0.02399443551833015,-5.2696904811423084e-05,-0.015188056737719599,0.025416474685251763
2.6262626262626263,5.367088607594937,0.02690467102137352,0.024046590771469988,-9.821673809390483e-05,-0.015285378537853053,0.025596155496281282
2.727272727272727,5.367088607594937,0.02657507650600557,0.02395144843368107,1.777558496293302e-06,-0.01515795748190599,0.025365232273640893
2.8282828282828283,5.367088607594937,0.026604247309889053,0.02391918597857031,-5.7956205149728584e-05,-0.015157029986537807,0.025368712429747087
2.929292929292929,5.367088607594937,0.0263756490860709,0.023700435305141238,4.083478926996179e-05,-0.01502282531736364,0.025145101630521426
3.0303030303030303,5.367088607594937,0.02639914398044322,0.023767652663124035,3.9242574062754474e-05,-0.015050038993070176,0.025186803116373453
3.131313131313131,5.367088607594937,0.026152769847457038,0.023640716710021464,8.547991501288157e-05,-0.014938045967243551,0.024992049827075702
3.2323232323232323,5.367088607594937,0.026142828472526355,0.023587211259133753,3.1658211360893435e-05,-0.014919011919498033,0.024963385270455694
3.3333333333333335,5.367088607594937,0.02614594494480005,0.023597531492082036,-2.4527354037037928e-05,-0.014923042931064626,0.024969500898585153
3.4343434343434343,5.367088607594937,0.02620754257751459,0.023382176520522022,2.5412048508013947e-05,-0.014876915729410982,0.024915336991282632
3.5353535353535355,5.367088607594937,0.025920442313712443,0.023399678793701216,3.4281752334721225e-06,-0.014796036332224096,0.02475650032440992
3.6363636363636362,5.367088607594937,0.025860454729542973,0.02364993811587252,-5.710492062435951e-06,-0.014853117853624646,0.02482910863342633
3.7373737373737375,5.367088607594937,0.025899015603944253,0.023238000004837448,-7.5800656137243e-05,-0.01474110468263451,0.02467670087282423
3.8383838383838382,5.367088607594937,0.026110073569829476,0.02313500181180483,3.962377636529247e-06,-0.014773522614490291,0.02475697272307476
3.9393939393939394,5.367088607594937,0.025957992171201368,0.023211405769462665,7.241238428427942e-05,-0.01475081938219921,0.02469981693795926
4.040404040404041,5.367088607594937,0.026066073376619616,0.023165418943042387,3.0288916742310308e-05,-0.0147694476958986,0.024743646828386884
4.141414141414141,5.367088607594937,0.025853084279986,0.023175276789977373,1.656158312869361e-05,-0.014708508320989012,0.02462364432562617
4.242424242424242,5.367088607594937,0.02584480222228085,0.023387195129865816,1.664456974429004e-06,-0.014769599205644,0.024707838302797994
4.343434343434343,5.367088607594937,0.025786107102656438,0.02330955489129798,0.00013926602869198298,-0.014728698598186325,0.024642527769652332
4.444444444444445,5.367088607594937,0.025579783505073717,0.023037213136740696,8.898363100271816e-05,-0.014585098992544324,0.02440850964183908
4.545454545454545,5.367088607594937,0.0258847395763784,0.023280314073558697,3.7231138627698876e-05,-0.014749516094981128,0.02468586757080156
4.646464646464646,5.367088607594937,0.02572717585006202,0.023107512908075493,1.2790874811138546e-05,-0.014650406627441253,0.024522523785138615
4.747474747474747,5.367088607594937,0.025713016077238797,0.023216760837618387,5.522901765748808e-05,-0.014678933074457154,0.024560402798683822
4.848484848484849,5.367088607594937,0.025759224021533654,0.023151504366491667,6.594203140585358e-05,-0.014673218516407596,0.024559683105972348
4.94949494949495,5.367088607594937,0.025691496362262325,0.023275821993265135,5.553440668895889e-06,-0.01469019550665824,0.02457287673935993
5.05050505050505,5.367088607594937,0.025814676305687567,0.023097536826077385,7.267146704037661e-06,-0.014673663939529485,0.024569054560764154
5.151515151515151,5.367088607594937,0.025799456026554247,0.023170387101190775,5.600421166201123e-05,-0.014690952938323506,0.024590746144940265
5.252525252525253,5.367088607594937,0.0258578335558572,0.023199583102448598,-6.695204069106337e-05,-0.01471722499749174,0.024636775390231132
5.353535353535354,5.367088607594937,0.025757437038772327,0.0230005743424617,-1.984658031939136e-05,-0.014627403414370207,0.02449565918827496
5.454545454545454,5.367088607594937,0.02567106538574744,0.023103474661301367,7.876212404257736e-05,-0.014632362014114641,0.02448881257254094
5.555555555555555,5.367088607594937,0.02578117493507459,0.02318306814412037,1.156290477620154e-05,-0.014689272923758488,0.024585306493001575
5.656565656565657,5.367088607594937,0.025944504599239138,0.02317243251267257,3.3344720098300715e-05,-0.014735081133573512,0.024675595254517953
5.757575757575758,5.367088607594937,0.025764744772789953,0.023210012362493215,2.8411598996930344e-05,-0.01469242714058495,0.024587173974209207
5.858585858585858,5.367088607594937,0.025782772152639303,0.02319988209598512,7.933590578451133e-06,-0.014694796274587328,0.024593267044441692
5.959595959595959,5.367088607594937,0.025997066121257257,0.0233368940895819,1.908311347981895e-05,-0.014800188063251748,0.02477434936472412
6.0606060606060606,5.367088607594937,0.02591384843296995,0.023274369222337513,3.0300172847310186e-05,-0.01475646529659224,0.024700163586612534
6.161616161616162,5.367088607594937,0.025798486655443,0.023604699234,-3.961432071413181e-05,-0.0148209557668329,0.024774642869833524
6.262626262626262,5.367088607594937,0.026039906513462906,0.023396432888121876,6.751921862683831e-05,-0.014830901820475435,0.024824233210669934
6.363636363636363,5.367088607594937,0.02601100452904489,0.023367890772776942,-2.14713651410177e-05,-0.014813668590546548,0.02479535734995693
6.4646464646464645,5.367088607594937,0.026049174553231295,0.02340934452889997,-3.725775730125999e-05,-0.014837555724639379,0.024834793512104016
6.565656565656566,5.367088607594937,0.026144560699708254,0.023523170886990182,5.9243792968628086e-05,-0.014900319476009529,0.024937625852028557
6.666666666666667,5.367088607594937,0.02617152755612861,0.023550112500078563,4.140229137825804e-06,-0.014916492016862152,0.02496426018463821
6.767676767676767,5.367088607594937,0.026065054088167033,0.02348204128518693,2.9635327143889747e-05,-0.01486412861200619,0.024874389763312237
6.8686868686868685,5.367088607594937,0.02631787443342007,0.023664966715115362,-3.8302677218577915e-05,-0.01499485234456063,0.025096891104807353
6.96969696969697,5.367088607594937,0.026419373707826134,0.02371895935000233,9.875565530607187e-05,-0.015041499917348539,0.025178593026036106
7.070707070707071,5.367088607594937,0.026445833634137435,0.02384460745122536,-7.301700164762149e-05,-0.015087132325608836,0.02524624514316289
7.171717171717171,5.367088607594937,0.026567436136686953,0.023868699899535953,-8.356287706532083e-05,-0.015130840810866871,0.02532655297879382
7.2727272727272725,5.367088607594937,0.02664898931443935,0.02391289721846862,7.896847694803225e-05,-0.01516856595987239,0.025392113942540206
7.373737373737374,5.367088607594937,0.02665377441077273,0.02405619210234223,2.6254769384329907e-05,-0.015212989953934488,0.025454622748449045
7.474747474747475,5.367088607594937,0.026858092269544494,0.024112735762832672,-5.806949536090995e-06,-0.01529124840971315,0.025596077150615067
7.575757575757575,5.367088607594937,0.026769555109058877,0.024291699402181594,7.655060447662029e-05,-0.015318376353372139,0.025620994023039665
7.6767676767676765,5.367088607594937,0.026999544106623103,0.024449975253571135,5.3900445684133597e-05,-0.01543485580805827,0.025819512047581858
7.777777777777778,5.367088607594937,0.02699887143798293,0.02436393361133989,-3.42577482099684e-05,-0.015408841514796845,0.025782651714405337
7.878787878787879,5.367088607594937,0.02710550765303427,0.024413260931469578,7.874538790731146e-06,-0.015455630575351154,0.02586469039923599
7.979797979797979,5.367088607594937,0.02726443691718995,0.024600307791883737,2.756216521550046e-05,-0.015559423412722106,0.02603484977775807
8.080808080808081,5.367088607594937,0.02754434082182468,0.02477584070594049,3.213320655411501e-05,-0.015696054458329552,0.02626979046494668
8.181818181818182,5.367088607594937,0.027535344820029752,0.024855349873852045,-8.895312195704857e-06,-0.01571720840816454,0.026297970257992805
8.282828282828282,5.367088607594937,0.027949258122090766,0.02491915262046596,-7.960097202686153e-05,-0.015860523222767018,0.026564494669923562
8.383838383838384,5.367088607594937,0.027898069113320715,0.025032205062784422,1.5941445760954528e-05,-0.01587908225283154,0.026581273973337163
8.484848484848484,5.367088607594937,0.027964406317904776,0.025366808863646093,-7.081336816436029e-05,-0.01599936455446526,0.02676061109514002
8.585858585858587,5.367088607594937,0.028034733407611624,0.025326485268279148,-3.2372721160311936e-05,-0.016008365602767232,0.026783558662198583
8.686868686868687,5.367088607594937,0.028325060239245196,0.025563210792213503,5.115953069726519e-05,-0.016166481309437607,0.027050233822626807
8.787878787878787,5.367088607594937,0.028547890461761316,0.025573737899178474,-7.579082720824646e-06,-0.016236488508281938,0.027183120204210254
8.88888888888889,5.367088607594937,0.02883675875448825,0.025854970859507363,-3.014030135057988e-05,-0.016407518884198682,0.02746756890669228
8.98989898989899,5.367088607594937,0.029002254267600048,0.02597072794981316,-5.163279835561349e-05,-0.016491894665223963,0.027611733106927227
9.09090909090909,5.367088607594937,0.029114955935118127,0.026181408947727136,0.00010933256724829688,-0.016588909464853578,0.027765304366968443
9.191919191919192,5.367088607594937,0.02946185462517436,0.02627239549281567,3.7548164390082175e-05,-0.016720275035397008,0.02800375645900662
9.292929292929292,5.367088607594937,0.029928572506717294,0.026710447290856264,4.924428850124648e-05,-0.01699170593927207,0.028456443265736018
9.393939393939394,5.367088607594937,0.030253061733731643,0.026927016319537853,-7.083822132380397e-05,-0.017154023415980848,0.0287350364412203
9.494949494949495,5.367088607594937,0.030283065513124447,0.027347228550224426,-1.6671331960048202e-05,-0.017289088219004663,0.028927113341318585
9.595959595959595,5.367088607594937,0.030720788502921505,0.02742064522549713,1.6342278630433362e-05,-0.01744243011852559,0.029210881353493656
9.696969696969697,5.367088607594937,0.030938022981564003,0.027836832766636246,6.20420754191443e-06,-0.017632456724460076,0.029509897798770553
9.797979797979798,5.367088607594937,0.031090838508762673,0.028128956794782025,2.0438617816519782e-05,-0.01776593859106341,0.029720815090192903
9.8989898989899,5.367088607594937,0.03162669620697582,0.02845100929603969,-6.021809978233034e-05,-0.018023311650904653,0.030164669628600402
10.0,5.367088607594937,0.031938270046151344,0.028641656895309415,-4.922752096762104e-05,-0.018173978082438227,0.030424330737164468
0.0,5.468354430379747,0.03188693597335189,0.028661137637679347,5.528756225371206e-06,-0.01816442208330937,0.030402659873438233
0.10101010101010101,5.468354430379747,0.03166743498120681,0.028402629860987207,8.358395459800347e-06,-0.018021019452658205,0.03016782386052119
0.20202020202020202,5.468354430379747,0.03128599717309318,0.0280713773104619,8.967158968187436e-05,-0.017807212345066523,0.02980937662922784
0.30303030303030304,5.468354430379747,0.030866214753272274,0.028018092411998187,-1.4196739930819685e-05,-0.017665292149581138,0.029545301874898875
0.40404040404040403,5.468354430379747,0.03065138803025689,0.02755431417077833,5.841723543429002e-06,-0.017461710660310565,0.029226185937005187
0.5050505050505051,5.468354430379747,0.03027016439778737,0.0273548389293104,-2.154171559685635e-05,-0.01728750099812933,0.028922931839440183
0.6060606060606061,5.468354430379747,0.02999589732410701,0.026963226909929677,7.246594950299926e-05,-0.017087737270211005,0.0286006823292625
0.7070707070707071,5.468354430379747,0.02971726163787323,0.02683975736034394,-1.8613667152728135e-05,-0.016967105699465152,0.02838811656393197
0.8080808080808081,5.468354430379747,0.029376542644831687,0.02667512629507177,3.56439331138918e-05,-0.016815500681971036,0.028123379009786512
0.9090909090909091,5.468354430379747,0.02933377667866546,0.02641524119031154,3.4913196075769684e-05,-0.0167247053606931,0.027988931601264203
1.0101010101010102,5.468354430379747,0.028971900754559816,0.02620478739385015,6.368692991062473e-05,-0.01655300644452299,0.02769244633641291
1.1111111111111112,5.468354430379747,0.028799465866202485,0.025922984361269514,2.7858797839254468e-05,-0.016416735068241598,0.027474434979605215
1.2121212121212122,5.468354430379747,0.028566942356766035,0.02584164141256481,-1.5375149246191934e-06,-0.016322575130799252,0.027306481885539143
1.3131313131313131,5.468354430379747,0.0284716387568183,0.025478587935565095,1.4583132183209439e-05,-0.016185068007715016,0.027099375324111726
1.4141414141414141,5.468354430379747,0.02819178966206454,0.02549176511909938,-3.1997212259006737e-06,-0.016105066434349176,0.02694343414636793
1.5151515151515151,5.468354430379747,0.028065134126747385,0.025319666242886507,3.993240601180648e-05,-0.016015440110890167,0.026798175438703824
1.6161616161616161,5.468354430379747,0.027824085200460952,0.02509574933792922,-4.0389817475833576e-05,-0.015875950361517052,0.02656529650387509
1.7171717171717171,5.468354430379747,0.02774307187045029,0.02493931447314086,-6.349115060414845e-05,-0.015804715903077346,0.02645309703512408
1.8181818181818181,5.468354430379747,0.027587156044413187,0.024783987952335405,1.3010010421145621e-05,-0.015711343199024577,0.026297870677632625
1.9191919191919191,5.468354430379747,0.027459592192884973,0.02454656639840287,5.0941726914498435e-05,-0.015601847577386353,0.026125317366371976
2.0202020202020203,5.468354430379747,0.027346234949590095,0.02454463903823589,3.042709665773799e-05,-0.015567262196347794,0.026058687284044632
2.121212121212121,5.468354430379747,0.02731462493303656,0.02456158024717186,-5.85840230763934e-05,-0.015562861554062526,0.026047646794285003
2.2222222222222223,5.468354430379747,0.026955655935060375,0.0243348772097729,1.8088645715558201e-06,-0.015387159943449982,0.025745505787058694
2.323232323232323,5.468354430379747,0.02700976919534844,0.024258047548709978,2.9902536531375852e-05,-0.015380345023217525,0.02574449300192366
2.4242424242424243,5.468354430379747,0.02679644594617329,0.024084402984418118,-3.080165070348345e-06,-0.015264254679177422,0.025548612647391857
2.525252525252525,5.468354430379747,0.026912494340854572,0.02416347675468753,-1.6376377017138412e-05,-0.015322791328662629,0.02564872966955922
2.6262626262626263,5.468354430379747,0.026603171688430745,0.024005650186181015,5.024915306237289e-05,-0.015182646562383526,0.025404352506650966
2.727272727272727,5.468354430379747,0.026408959618807414,0.023830313161931058,1.237238405410813e-05,-0.015071781834221542,0.02521871635857374
2.8282828282828283,5.468354430379747,0.026496935175279526,0.023825147007262026,-7.15097962152262e-05,-0.015096624654762466,0.025267512120518504
2.929292929292929,5.468354430379747,0.026584933949698412,0.023907130710874774,7.796928645024804e-05,-0.015147619398171955,0.02535267951696931
3.0303030303030303,5.468354430379747,0.02631851913275952,0.023461928367473853,-2.8329039317047958e-06,-0.014934134250070012,0.025012863600698407
3.131313131313131,5.468354430379747,0.02640298076156965,0.023525804341732796,9.626492019506759e-06,-0.014978635530990733,0.025088439202033547
3.2323232323232323,5.468354430379747,0.0262228931718761,0.023673289074224307,4.817269940218249e-05,-0.014968854673830122,0.02504574960551174
3.3333333333333335,5.468354430379747,0.026112212396711423,0.023532278982779528,-3.0165186513452164e-05,-0.014893347413847284,0.024922653414369063
3.4343434343434343,5.468354430379747,0.02597084390477494,0.023539597028435236,-3.401854826606432e-05,-0.014853132279963053,0.024844670115849503
3.5353535353535355,5.468354430379747,0.026017158488754587,0.02330353575393551,1.9565012767800594e-05,-0.01479620827280703,0.024772094779703234
3.6363636363636362,5.468354430379747,0.026151755694655852,0.023325117958059822,4.751903450387009e-06,-0.014843062095814702,0.024859258537291862
3.7373737373737375,5.468354430379747,0.02597765764976759,0.023394760346219165,-3.617361174317712e-05,-0.014811725398796025,0.024787423406713274
3.8383838383838382,5.468354430379747,0.02570469593421276,0.023288814453606643,-2.9512717698709102e-05,-0.014698053116345821,0.02458599175400723
3.9393939393939394,5.468354430379747,0.026033634277361932,0.023293983617223197,9.432119463353808e-06,-0.01479828536837554,0.024777671460165105
4.040404040404041,5.468354430379747,0.02563804934393785,0.02343358822832365,-6.158212311099347e-05,-0.01472149127167845,0.024610211644502333
4.141414141414141,5.468354430379747,0.02580120646530373,0.023287947116598227,-0.00014150628819443572,-0.014726746074570585,0.024642111848441013
4.242424242424242,5.468354430379747,0.02572433707150534,0.02324275550163506,-2.650318309910827e-05,-0.014690127771942119,0.02457773039437752
4.343434343434343,5.468354430379747,0.025754891660721396,0.02299893959281378,-3.884106235965729e-05,-0.014626149376060552,0.02449357048715795
4.444444444444445,5.468354430379747,0.02575172985609421,0.023090522092043077,1.3336615818932702e-05,-0.014652675584441185,0.024529644259749857
4.545454545454545,5.468354430379747,0.025901828611641895,0.02315045400448423,-5.409449358264303e-05,-0.014715684784837837,0.024641792401882398
4.646464646464646,5.468354430379747,0.025752812915044703,0.023222374372073494,-8.251616914144931e-05,-0.014692556186135457,0.024585870100962484
4.747474747474747,5.468354430379747,0.025549248474357474,0.023223787946937243,6.398887198228584e-05,-0.014631910926388414,0.02446978502488099
4.848484848484849,5.468354430379747,0.025573662265914333,0.02314714987723373,1.68914781539272e-05,-0.01461624364294442,0.024450893883811265
4.94949494949495,5.468354430379747,0.02572519206030939,0.023079175616023927,2.161410319752454e-05,-0.014641310302899994,0.0245095701685612
5.05050505050505,5.468354430379747,0.025874399976371094,0.023346630253264385,1.4386114352462799e-05,-0.014766309068890641,0.02470769697740609
5.151515151515151,5.468354430379747,0.02562618407854208,0.023125706808734024,3.667842900963616e-05,-0.014625567266182832,0.024472025705390688
5.252525252525253,5.468354430379747,0.025635175063973167,0.023111852584027835,4.9920955336113626e-05,-0.0146241082944003,0.02447143272649635
5.353535353535354,5.468354430379747,0.025697466473484323,0.023098230309585015,2.9388213640337765e-05,-0.0146387090349208,0.024501522781541666
5.454545454545454,5.468354430379747,0.025861643634750926,0.023160978167689104,5.981331007483526e-05,-0.014706786540732009,0.024622861134851667
5.555555555555555,5.468354430379747,0.025858078190972272,0.023038594917008798,-1.1153013273688761e-05,-0.01466900193239432,0.024569974519226205
5.656565656565657,5.468354430379747,0.02578837327666275,0.023136228478645795,1.3543399832298773e-06,-0.014677380526592565,0.02456989161054301
5.757575757575758,5.468354430379747,0.02561823596119969,0.023059261452511002,7.864841790877988e-05,-0.014603249224113206,0.02443981399762405
5.858585858585858,5.468354430379747,0.02589773518866152,0.02312415960886574,4.662783152526082e-05,-0.014706568439258178,0.024628491751863435
5.959595959595959,5.468354430379747,0.025812531144395467,0.023344136708788495,1.7304010058576885e-05,-0.014747000355955189,0.02467113951990577
6.0606060606060606,5.468354430379747,0.025935364700394307,0.023256190442124843,-4.709728232537316e-05,-0.014757466542755743,0.02470510898228367
6.161616161616162,5.468354430379747,0.025892730813781354,0.02324290775464537,-4.172197553427335e-05,-0.014740691570528017,0.02467486855557776
6.262626262626262,5.468354430379747,0.02594528058511201,0.023290666653150643,1.4469220333626022e-05,-0.014770784171478793,0.024725098271454443
6.363636363636363,5.468354430379747,0.026038977192646116,0.023666368808633827,4.442933800368679e-05,-0.014911603800383984,0.024937586693240373
6.4646464646464645,5.468354430379747,0.02608867898555517,0.023519020988815066,-7.528893664068746e-05,-0.01488230999231107,0.02490382171723614
6.565656565656566,5.468354430379747,0.02621128646684101,0.023341930995703718,-1.7476698736186807e-05,-0.014865965238763417,0.024900926832998955
6.666666666666667,5.468354430379747,0.02631923304447072,0.023514797805580447,-3.687798169724116e-05,-0.01495020925501535,0.025035182851427553
6.767676767676767,5.468354430379747,0.026200659353756064,0.023575309795407486,5.6659154216753775e-05,-0.014932790744749062,0.024991813703521614
6.8686868686868685,5.468354430379747,0.026514640042854087,0.023655163673338902,9.087939072834677e-05,-0.015050941114857897,0.02520733092281236
6.96969696969697,5.468354430379747,0.026259194702806375,0.023620553447859197,-7.894227384654104e-05,-0.01496392444519967,0.025044716714219158
7.070707070707071,5.468354430379747,0.026503278271733703,0.023793906750785777,9.274400287075213e-05,-0.015089155506755844,0.02525832595752315
7.171717171717171,5.468354430379747,0.026636428243448345,0.02391779355903762,-1.1259401186249267e-05,-0.015166266540745788,0.02538653081353462
7.2727272727272725,5.468354430379747,0.02658156699707883,0.023865225400449434,-5.387625808809499e-06,-0.015134037719258479,0.025332857845721802
7.373737373737374,5.468354430379747,0.026606100504057147,0.023897661909957926,1.4070569792751965e-05,-0.01515112872420452,0.02536059597385534
7.474747474747475,5.468354430379747,0.026619735156589955,0.024196759354567568,-8.036279623488922e-05,-0.015244948353347255,0.02549512721954082
7.575757575757575,5.468354430379747,0.02690004327537925,0.02418768322905683,-3.895308967664088e-05,-0.015326317951330822,0.025651728492311506
7.6767676767676765,5.468354430379747,0.026993210276689147,0.024282141193705295,-6.759146780948922e-05,-0.015382605441118332,0.025745223724066093
7.777777777777778,5.468354430379747,0.027138757787831674,0.02453453147598835,-5.959108321530512e-05,-0.015501986779146007,0.025935098903603078
7.878787878787879,5.468354430379747,0.027280746276455818,0.02460830280341928,-3.855366598014479e-06,-0.01556671472396253,0.026047550053362185
7.979797979797979,5.468354430379747,0.027164329057230416,0.02458903866289173,-1.1808883825496587e-05,-0.015526010316036645,0.025972625520038147
8.080808080808081,5.468354430379747,0.02756811450415746,0.024627800281967514,-4.182367268947085e-05,-0.01565877443583749,0.02622198912254381
8.181818181818182,5.468354430379747,0.02759636711765309,0.024844485125681968,2.3196533641907076e-06,-0.015732255673000517,0.026328509320079276
8.282828282828282,5.468354430379747,0.027796024973586263,0.024969730025242862,1.0602543331856282e-05,-0.015829726499648738,0.02649617934235357
8.383838383838384,5.468354430379747,0.027530314534605815,0.02514484694725276,0.00011085694963793469,-0.015802548444557574,0.026419176156393533
8.484848484848484,5.468354430379747,0.028199081567259067,0.02520717343274985,7.598097840746148e-06,-0.016021876500002676,0.02682854500692823
8.585858585858587,5.468354430379747,0.028323774880549636,0.0254550499736479,6.80074432757279e-05,-0.01613364745625926,0.02700419527879409
8.686868686868687,5.468354430379747,0.02845099240972192,0.02558393415448677,-6.852725672990994e-05,-0.016210477969262605,0.02713157620621746
8.787878787878787,5.468354430379747,0.028572616277127753,0.025746362217855735,-5.193358611411557e-06,-0.016295693548495045,0.027269556672289415
8.88888888888889,5.468354430379747,0.028785287164819744,0.025881649176617134,2.0697271408537926e-05,-0.01640008090243106,0.027448918057834434
8.98989898989899,5.468354430379747,0.029164502302584706,0.026014586182116408,-0.00010910550252033128,-0.016553726545410333,0.027724720777803136
9.09090909090909,5.468354430379747,0.02888180992706527,0.026316876600142522,6.984438548775224e-05,-0.016559605958162336,0.02768885236923805
9.191919191919192,5.468354430379747,0.029342573757352493,0.026714047014082035,-6.865045243579459e-05,-0.016816986231430357,0.028120849673543495
9.292929292929292,5.468354430379747,0.029811208155692027,0.026868384728990575,0.00010980385862256138,-0.01700387786540478,0.028454795559729528
9.393939393939394,5.468354430379747,0.03005259275682302,0.026796092980786022,4.1134296602948266e-05,-0.01705460572128271,0.028563997211663607
9.494949494949495,5.468354430379747,0.03034027812871734,0.02729800500110165,-7.384348748698734e-06,-0.017291484938945695,0.028939327107957658
9.595959595959595,5.468354430379747,0.030578954983855156,0.027457397756572997,5.390835815367271e-06,-0.017410905822128443,0.029143828449237432
9.696969696969697,5.468354430379747,0.03071456533963815,0.027665017711744174,-3.293153809642537e-05,-0.017513874915414698,0.029309076893055012
9.797979797979798,5.468354430379747,0.03128300704657845,0.028284619484944012,7.019439828771248e-05,-0.01787028795945674,0.029897040997190857
9.8989898989899,5.468354430379747,0.03140302087823063,0.02834254378604816,2.7990043390277666e-05,-0.017923669399283634,0.02999017113346966
10.0,5.468354430379747,0.03200245457302107,0.02875354812439117,4.20098939724843e-06,-0.018226800809223672,0.030508024579131446
0.0,5.5696202531645564,0.02139390905123251,0.01942959973029541,-1.1622092979683562e-05,-0.012247052634458376,0.02048252928373954
0.10101010101010101,5.5696202531645564,0.02128603324956394,0.019071421260643796,7.51127709637381e-05,-0.012107236353062321,0.020270084832507702
0.20202020202020202,5.5696202531645564,0.02103689845240894,0.018881125914991262,4.2986939567808235e-06,-0.01197540731022006,0.02004614025717199
0.30303030303030304,5.5696202531645564,0.020712574976683287,0.018814273328602475,2.258662792976966e-05,-0.011858054491585727,0.019831720211945344
0.40404040404040403,5.5696202531645564,0.02046547239824613,0.018582060921980174,-1.118097644766221e-05,-0.011714259996067889,0.019591790850581946
0.5050505050505051,5.5696202531645564,0.020505922098253502,0.018478393811255028,-5.858416936384906e-06,-0.011695294772852558,0.019571087806051334
0.6060606060606061,5.5696202531645564,0.02000214107478941,0.018106691171918713,6.457686411867404e-05,-0.011432649674012436,0.019125319136338425
0.7070707070707071,5.5696202531645564,0.01982364597599949,0.01802302898486899,1.6061124309280726e-06,-0.011354002488260543,0.018987479435110907
0.8080808080808081,5.5696202531645564,0.01972651103645065,0.017724224137413265,8.109230809146264e-05,-0.011235220552159175,0.01880600924631697
0.9090909090909091,5.5696202531645564,0.019645539016987835,0.017522167846073324,-4.875372280327784e-05,-0.011150312058918347,0.01867480302407968
1.0101010101010102,5.5696202531645564,0.0193819940763619,0.01766879026675796,-8.222003710517799e-05,-0.011115235302935957,0.018585255876192013
1.1111111111111112,5.5696202531645564,0.01941621904229453,0.017611339767155138,-4.167661339266249e-05,-0.0111082676428349,0.018579785536046854
1.2121212121212122,5.5696202531645564,0.019202940474144573,0.017334198279070335,4.028271976309163e-05,-0.01096114162596447,0.01834024654153243
1.3131313131313131,5.5696202531645564,0.018938346709539935,0.0170157730245701,-4.069403661315472e-05,-0.010786235920233011,0.018054137106439945
1.4141414141414141,5.5696202531645564,0.018925149541267748,0.01728684745294574,-2.797461724131355e-05,-0.010863599098264046,0.01816156806595486
1.5151515151515151,5.5696202531645564,0.01884696974045181,0.016943589082360922,-9.11576887017078e-07,-0.01073716764684382,0.01797103700826465
1.6161616161616161,5.5696202531645564,0.018845156089520903,0.01701184785710244,2.2484865136835906e-05,-0.010757101183987004,0.01799870728749182
1.7171717171717171,5.5696202531645564,0.018485404878772618,0.016867966885912727,-4.105165879321961e-05,-0.010606011529405603,0.017732240657757883
1.8181818181818181,5.5696202531645564,0.018595485943992383,0.01693101625611222,-7.969960477883567e-06,-0.01065795066003138,0.017821647642985296
1.9191919191919191,5.5696202531645564,0.01848504660394513,0.016791417139996694,-9.649731341005619e-05,-0.010582939123182547,0.01769989955719417
2.0202020202020203,5.5696202531645564,0.018260256002003608,0.01660173020912612,4.6035146056345684e-05,-0.010458595863338919,0.017490251833649995
2.121212121212121,5.5696202531645564,0.018180232648469623,0.016600586457223666,2.1074797448779437e-05,-0.010434245731707988,0.017444172047538994
2.2222222222222223,5.5696202531645564,0.018334457451697865,0.016420133078218328,1.2778294180950515e-05,-0.010426377158974858,0.017456212617149088
2.323232323232323,5.5696202531645564,0.01803590959137798,0.016419885698555643,4.390046249888596e-05,-0.010336738586980086,0.01728481671681552
2.4242424242424243,5.5696202531645564,0.018075464645429237,0.016164619440478485,3.457314454872289e-05,-0.010272025225772316,0.017199939607668458
2.525252525252525,5.5696202531645564,0.01793891186713651,0.016256996389179806,-4.6721196519921364e-05,-0.010258772476894893,0.017160076157624014
2.6262626262626263,5.5696202531645564,0.017999205786291037,0.016048439085902817,-3.273543102614564e-05,-0.010214293461658155,0.01710753819813354
2.727272727272727,5.5696202531645564,0.01776930874918644,0.016011937985635268,3.645708744352181e-05,-0.01013437402044651,0.016959168879925643
2.8282828282828283,5.5696202531645564,0.01795041382843953,0.015910802730878967,-3.702890361163617e-06,-0.010158364967795548,0.01702250122412763
2.929292929292929,5.5696202531645564,0.017824083515229436,0.01613931734915145,4.6598103188381366e-05,-0.010189020259314266,0.01704445632732503
3.0303030303030303,5.5696202531645564,0.01755821384660424,0.016132290469322484,2.2094899811286268e-05,-0.010107151294778018,0.016890498155103992
3.131313131313131,5.5696202531645564,0.017686184024224345,0.015686555412231545,7.953465310405861e-05,-0.010011821830936766,0.016776554997851998
3.2323232323232323,5.5696202531645564,0.01767695752160713,0.015878577919314345,-6.0352106495827396e-05,-0.010066660632276443,0.016850223847399377
3.3333333333333335,5.5696202531645564,0.017703732472635476,0.015783700126633084,-5.0749488986708895e-06,-0.010046229779780569,0.01682608112262713
3.4343434343434343,5.5696202531645564,0.017497372677321817,0.01569029091418518,1.86052627787972e-05,-0.0099562990774521,0.016667496827873246
3.5353535353535355,5.5696202531645564,0.017533347397328362,0.015729811305751438,-6.657340848715547e-05,-0.00997894761092394,0.016705157425416155
3.6363636363636362,5.5696202531645564,0.017436822303767203,0.015937089913727078,1.862993757072493e-05,-0.010012173665248283,0.01673745629808415
3.7373737373737375,5.5696202531645564,0.01738039997968181,0.015758157056262073,8.335933290135946e-05,-0.009941567110783166,0.016629359308710928
3.8383838383838382,5.5696202531645564,0.01766111459216599,0.015775230833482784,8.34290273665544e-05,-0.010030903627694631,0.016798380821588035
3.9393939393939394,5.5696202531645564,0.017508728851683846,0.01572934980027968,1.3256340570298234e-05,-0.009971423595589059,0.0166903456425161
4.040404040404041,5.5696202531645564,0.017293693583722517,0.01571541004978498,5.101907855439851e-06,-0.009902731090052248,0.016561055007016445
4.141414141414141,5.5696202531645564,0.017378208571921395,0.015653316357521034,-5.55947349695172e-05,-0.009909457478832729,0.016583459288647753
4.242424242424242,5.5696202531645564,0.017286007449374325,0.015410083230841556,-4.254863321932193e-05,-0.009808827204064764,0.016428735080828646
4.343434343434343,5.5696202531645564,0.017421441116008157,0.015466649149532677,0.00012016283008265914,-0.00986642707966225,0.01653226682490755
4.444444444444445,5.5696202531645564,0.017391393169597442,0.015596771679270848,6.19651718776808e-05,-0.009896449454660486,0.016567491475530067
4.545454545454545,5.5696202531645564,0.0173717783472306,0.015581089457744906,1.5709875732380235e-06,-0.009885860341492652,0.016549253958147152
4.646464646464646,5.5696202531645564,0.0172889415407692,0.015417031252761925,-6.571692561372098e-05,-0.009811791838059336,0.016433537547664426
4.747474747474747,5.5696202531645564,0.01728046725282612,0.015675219154578975,0.00011103104946866305,-0.009886705922221527,0.01653750030749324
4.848484848484849,5.5696202531645564,0.01723307884190691,0.015616990438956242,-5.3727533735813754e-05,-0.009855020784258947,0.016484818142085616
4.94949494949495,5.5696202531645564,0.017319219905680028,0.015586084709048476,2.284540587066605e-05,-0.00987159138441855,0.01652102151478772
5.05050505050505,5.5696202531645564,0.0172013014694839,0.015677598193165443,1.1431260429503476e-05,-0.009863669898794803,0.01649233629700424
5.151515151515151,5.5696202531645564,0.017300340687198913,0.015763973866451234,-7.334153767099135e-05,-0.009919294366095045,0.016586098951382296
5.252525252525253,5.5696202531645564,0.017312856851563977,0.01565795800391171,-2.2929444203366015e-06,-0.009891244456642707,0.016547588690750896
5.353535353535354,5.5696202531645564,0.01714865988912264,0.015669552268516403,-6.133548735377642e-05,-0.009845463647291712,0.016459370217203943
5.454545454545454,5.5696202531645564,0.017278674082436437,0.01563028451088637,-3.961668516747967e-05,-0.009872687577996843,0.016516430864571982
5.555555555555555,5.5696202531645564,0.017349920299083072,0.015546455515197214,-1.3935525071582989e-06,-0.009868912744284086,0.01652217465028724
5.656565656565657,5.5696202531645564,0.017449413247192222,0.015568731610746225,-8.476437364230024e-06,-0.009905443457381534,0.016589225737754367
5.757575757575758,5.5696202531645564,0.01724998964995699,0.01567338576592522,-8.881110033244852e-06,-0.009877012624764663,0.016518222019075893
5.858585858585858,5.5696202531645564,0.0174425652083311,0.015431341585777516,-9.144237996251778e-05,-0.009862172038232584,0.016529739485195552
5.959595959595959,5.5696202531645564,0.017440659075600586,0.015607683603668794,1.3394928441657408e-05,-0.009914502803780813,0.016600259818582843
6.0606060606060606,5.5696202531645564,0.017542419244089672,0.015631175901673462,-1.378268659161081e-05,-0.009952078543728942,0.016669194999955658
6.161616161616162,5.5696202531645564,0.017278871736628915,0.015768318484385962,-1.0255140192331982e-05,-0.009914157066304463,0.016575308118571514
6.262626262626262,5.5696202531645564,0.01736324024975755,0.015838003486673736,-0.00013141292464488556,-0.009960373120929384,0.01665464544412061
6.363636363636363,5.5696202531645564,0.017500411200642364,0.015531258039470615,-5.314104864336642e-05,-0.009909500772033893,0.016603898284418744
6.4646464646464645,5.5696202531645564,0.017604886503565727,0.015803962109788475,-7.261296864833674e-05,-0.01002265458400626,0.016777547670956832
6.565656565656566,5.5696202531645564,0.01765341948383592,0.01583689126892839,2.633451042558167e-05,-0.010047093225829291,0.0168189518152935
6.666666666666667,5.5696202531645564,0.017549768063407297,0.015928105290136958,2.333520061111729e-05,-0.010043362006063277,0.01679779679828304
6.767676767676767,5.5696202531645564,0.01772666520805203,0.015958101192566423,7.946817978456766e-05,-0.010105429920185536,0.016912441617002148
6.8686868686868685,5.5696202531645564,0.017610929870232394,0.015900979640606383,-8.053668048321993e-05,-0.010053572853251634,0.01682184370326927
6.96969696969697,5.5696202531645564,0.017869476019594835,0.015922991112019603,5.5602231072071166e-05,-0.01013774013948433,0.016980388280489193
7.070707070707071,5.5696202531645564,0.017739936785417416,0.01593666655348172,-5.132590066120287e-06,-0.010102981001669741,0.016910568286987563
7.171717171717171,5.5696202531645564,0.01795505209808914,0.01609583952044916,-4.3245594980732065e-05,-0.01021526748556149,0.017101576509358934
7.2727272727272725,5.5696202531645564,0.017962982680091076,0.016113978789991035,-7.601953440146783e-05,-0.010223088441024633,0.01711406655959947
7.373737373737374,5.5696202531645564,0.018029053978718595,0.01616130557655688,-2.7807610498917814e-05,-0.010257107866582642,0.01717160023089556
7.474747474747475,5.5696202531645564,0.01793218541401115,0.01614852264629286,-6.71874003486976e-05,-0.010224212418091204,0.017110619438375774
7.575757575757575,5.5696202531645564,0.01812799649934575,0.01639744065179874,-0.00011374884636242358,-0.010357631145343348,0.017328773374814
7.6767676767676765,5.5696202531645564,0.018349506473457157,0.016378072722641582,6.252791688115003e-06,-0.010418273758829623,0.01744752761204092
7.777777777777778,5.5696202531645564,0.018334827386461174,0.01642367559825533,-5.308087903455794e-05,-0.01042755089541495,0.017458127363550922
7.878787878787879,5.5696202531645564,0.01838355678412884,0.016665900189033064,-2.3855076503652794e-06,-0.010514837091948571,0.01758774811436442
7.979797979797979,5.5696202531645564,0.018516585731104533,0.016501237418843854,2.5260927211672847e-05,-0.010505346944984516,0.017595741544430433
8.080808080808081,5.5696202531645564,0.018462218006055076,0.01659784800431242,-4.55487711238913e-05,-0.01051801980311025,0.017604408194030058
8.181818181818182,5.5696202531645564,0.01851132276102255,0.016689656899442185,-1.1825492611523797e-05,-0.010560293898139419,0.017671064248493216
8.282828282828282,5.5696202531645564,0.018452563195937844,0.016978475680438334,-8.53349217106454e-06,-0.010629311662912854,0.017761462437783652
8.383838383838384,5.5696202531645564,0.018734717445227655,0.016998381375886485,5.8964865743804255e-05,-0.010719929646334241,0.017930007407006978
8.484848484848484,5.5696202531645564,0.018905881526650053,0.016945131165653857,2.687242895378424e-05,-0.010755303807691173,0.018005814356253303
8.585858585858587,5.5696202531645564,0.018984429248260343,0.01695869148243675,1.396592962890089e-05,-0.010782936219209128,0.018057000781659477
8.686868686868687,5.5696202531645564,0.019010241878514633,0.017239628117100864,-0.00010154058541333351,-0.010874960998684648,0.018190533388696865
8.787878787878787,5.5696202531645564,0.01917600645056854,0.01722881682166198,4.6280384013385656e-05,-0.010921446981669155,0.018280532694115028
8.88888888888889,5.5696202531645564,0.019228725957648022,0.017459351841689286,2.6705289340604426e-05,-0.01100642333980119,0.018407985121725343
8.98989898989899,5.5696202531645564,0.019540686611107534,0.017645723043905933,1.678168584608243e-05,-0.011155922896504038,0.0186655103284996
9.09090909090909,5.5696202531645564,0.01966470262711712,0.017810493497771352,4.454394851420449e-05,-0.011242558837466542,0.018806437787663926
9.191919191919192,5.5696202531645564,0.019742417273897323,0.0178312263506139,-1.359901163664039e-05,-0.011272093087353366,0.018859605421740044
9.292929292929292,5.5696202531645564,0.020190440172015316,0.018038768298191083,-2.851541531753375e-05,-0.01146876254106192,0.019205280610832327
9.393939393939394,5.5696202531645564,0.02010980321683385,0.018278399209375715,-2.3167331427641923e-05,-0.011516460727862868,0.019259560276225083
9.494949494949495,5.5696202531645564,0.020280730751730685,0.01846099393712036,2.6163511680672293e-05,-0.011622517406655312,0.019434915567363525
9.595959595959595,5.5696202531645564,0.020754033124138285,0.01855342616534333,-5.23887537300193e-05,-0.011792237786844484,0.019746121794758542
9.696969696969697,5.5696202531645564,0.02077737368538003,0.018657847335039324,1.2230614841890578e-06,-0.011830566306125806,0.01980286501197013
9.797979797979798,5.5696202531645564,0.021248664883732137,0.01897175385326748,-4.954522657460926e-05,-0.012066125621099884,0.02020683369342696
9.8989898989899,5.5696202531645564,0.021304588291439278,0.01904691441844475,-4.558491083853893e-05,-0.012105450812965208,0.020270421682252553
10.0,5.5696202531645564,0.021388307888495883,0.019335596782086982,3.600226137023711e-05,-0.01221717140117486,0.020439501181729762
0.0,5.670886075949367,0.021479855395723786,0.01930469892191978,7.160993169079263e-05,-0.012235366295293069,0.020479473404687518
0.10101010101010101,5.670886075949367,0.021259829589367108,0.01912390107907269,4.1733616324625763e-05,-0.012115119200531939,0.0202765454086805
0.20202020202020202,5.670886075949367,0.02093303380040071,0.018978188762661212,-2.037167293373446e-05,-0.011973366768918577,0.02002732460854223
0.30303030303030304,5.670886075949367,0.020760695926735646,0.01877010186396856,-2.8133915401902655e-05,-0.011859239337211261,0.019840494363448112
0.40404040404040403,5.670886075949367,0.020651636767818823,0.018413008289061308,-2.109258055668383e-05,-0.01171939351706404,0.019628335414530167
0.5050505050505051,5.670886075949367,0.02031258065175266,0.018507725219799927,6.805850605132592e-05,-0.011646091761465775,0.01947334229706472
0.6060606060606061,5.670886075949367,0.020085835262887146,0.018271425869313,4.644732287472702e-05,-0.011507178339660043,0.01924306117898013
0.7070707070707071,5.670886075949367,0.02011261333977371,0.017978569564687907,7.009558989166407e-05,-0.011427354871338485,0.019135435742776825
0.8080808080808081,5.670886075949367,0.019927099634989683,0.017807866849982874,-7.976454209285812e-06,-0.011320489945491766,0.018956541759370345
0.9090909090909091,5.670886075949367,0.019559433961793087,0.017628238475970216,-6.234641507253278e-05,-0.01115630173132899,0.01866921379074007
1.0101010101010102,5.670886075949367,0.019548654633819808,0.017647419800884856,-9.452300167333118e-06,-0.011158822330411398,0.01867078672133105
1.1111111111111112,5.670886075949367,0.019169178208484162,0.017625218800153806,-3.505483430724659e-05,-0.011038319102591392,0.01844582492930231
1.2121212121212122,5.670886075949367,0.019431990094679674,0.0174181645409826,9.756318183787121e-06,-0.01105504639069868,0.01850744119930768
1.3131313131313131,5.670886075949367,0.01900222452596078,0.017299407904690187,-2.7436972018255076e-05,-0.010890489729195289,0.018210685763558707
1.4141414141414141,5.670886075949367,0.018918773024343985,0.017223795377159457,3.06793777399532e-05,-0.010842770520451033,0.01813088106671421
1.5151515151515151,5.670886075949367,0.018766529436893102,0.017060103368177922,-3.2440393902752824e-05,-0.010747989841521305,0.017974258791972775
1.6161616161616161,5.670886075949367,0.018761397631577234,0.016842653409580327,-9.690226983627033e-05,-0.010681215312347269,0.017880197631097966
1.7171717171717171,5.670886075949367,0.018529003919933004,0.016745548470275144,4.3318808873295015e-06,-0.010582365717062442,0.017704776273188165
1.8181818181818181,5.670886075949367,0.018671390063065577,0.01689741216372339,-4.874336544300966e-05,-0.010670640668036689,0.01785083468355603
1.9191919191919191,5.670886075949367,0.018429976630980047,0.016581843073414218,3.986913310059597e-05,-0.010503545911318279,0.017579059890435716
2.0202020202020203,5.670886075949367,0.018356975426129313,0.01655592909839351,9.977232959299413e-07,-0.010473871357356846,0.01752599653306353
2.121212121212121,5.670886075949367,0.018156700269792266,0.016399518946207028,-7.664786118197209e-05,-0.010366865764799787,0.017345502614882297
2.2222222222222223,5.670886075949367,0.018318824362694545,0.016390737710856865,-5.648002826270549e-06,-0.010412868622065424,0.017434926416161997
2.323232323232323,5.670886075949367,0.018153875908269106,0.016322233004529226,-0.0001118818196834134,-0.010342832673839498,0.01731196871709355
2.4242424242424243,5.670886075949367,0.01807670707221506,0.016126596264644605,6.09368779777811e-05,-0.0102609910010579,0.0171851630431298
2.525252525252525,5.670886075949367,0.018001688503900104,0.01613802567367338,3.160718575272561e-05,-0.010241914253272045,0.017146076735881977
2.6262626262626263,5.670886075949367,0.017966957443021164,0.0161022970528459,-1.4578961946419101e-05,-0.010220776348760119,0.017111016389813032
2.727272727272727,5.670886075949367,0.017786766051570688,0.01611714625169284,9.855533792444649e-05,-0.010171173690979057,0.01701436685680235
2.8282828282828283,5.670886075949367,0.017795090230735548,0.016208437734581495,-5.4484300474946745e-05,-0.010201058389595112,0.01705746123391999
2.929292929292929,5.670886075949367,0.01770887840323046,0.01585274822118719,4.0781658171552186e-05,-0.010068487987325295,0.016857775632913543
3.0303030303030303,5.670886075949367,0.017879474324755576,0.015969713375922602,-7.086825868868201e-05,-0.010154756310203452,0.017005655944140174
3.131313131313131,5.670886075949367,0.017483807158583674,0.015829570437345043,0.0001406970170049333,-0.009994013278778614,0.016719959420149155
3.2323232323232323,5.670886075949367,0.017699131917512944,0.015889967036490538,-1.056952548525137e-05,-0.010076729686201045,0.016867484562171978
3.3333333333333335,5.670886075949367,0.01773443343311447,0.01594957676473069,3.645280644255197e-05,-0.010105203059353546,0.016912906526331668
3.4343434343434343,5.670886075949367,0.017532502003676165,0.015875926818575976,-3.636885454603458e-05,-0.010022528646675643,0.016765826200385477
3.5353535353535355,5.670886075949367,0.017419945317576496,0.016032339516040675,-1.962579014392175e-06,-0.010035685450085152,0.016769255770541946
3.6363636363636362,5.670886075949367,0.017677155150546263,0.015683141727487096,-1.7215452365227888e-05,-0.010008089063410008,0.016769326408998544
3.7373737373737375,5.670886075949367,0.017458232819868365,0.0156754865288161,0.00010246961897099396,-0.009940115804605338,0.01663959067379599
3.8383838383838382,5.670886075949367,0.017474294293488693,0.0157541960362167,3.9140886021315515e-05,-0.009968547098911618,0.016681030901467376
3.9393939393939394,5.670886075949367,0.017437936530694573,0.015819304208751096,2.398412331965395e-05,-0.009977172221833698,0.016687651693995338
4.040404040404041,5.670886075949367,0.017376938767655798,0.015529635649814216,5.879913351502926e-05,-0.009871972325241002,0.016531195619020417
4.141414141414141,5.670886075949367,0.01745166334276581,0.015663907868984542,-4.048691556980453e-06,-0.009934671363525105,0.016630013997930466
4.242424242424242,5.670886075949367,0.017433264052691876,0.015809490937011818,5.424721155552265e-05,-0.009972826496911108,0.01668102207464087
4.343434343434343,5.670886075949367,0.01718828022036446,0.015656057159619246,4.27384591896141e-05,-0.009853301213995112,0.016475857635981805
4.444444444444445,5.670886075949367,0.017274543244365326,0.015593800108934118,5.523830802425085e-05,-0.009860503005989833,0.016498782549785013
4.545454545454545,5.670886075949367,0.017451947904953847,0.015615528568849025,-4.22589690751726e-05,-0.009920242942140861,0.016610213259657242
4.646464646464646,5.670886075949367,0.01725096697067111,0.015550145429036091,-0.00010917661525809213,-0.009840333719912159,0.01646765307206468
4.747474747474747,5.670886075949367,0.017160147504401396,0.01566530888729028,-8.771137092972205e-05,-0.009847636917507502,0.016464405047036744
4.848484848484849,5.670886075949367,0.01730149889502892,0.01567884336246343,-7.931705805175433e-05,-0.009894102677247704,0.016550509831284713
4.94949494949495,5.670886075949367,0.017293191436944383,0.015612670559148228,-4.378782026099392e-05,-0.009871758598827784,0.016517348557247746
5.05050505050505,5.670886075949367,0.017390213251653696,0.015648282370222026,2.9398011282957165e-05,-0.009911548686562716,0.016588064485199637
5.151515151515151,5.670886075949367,0.017234021800798586,0.015463137343329079,4.187571054572286e-05,-0.0098091477432383,0.016420515782726935
5.252525252525253,5.670886075949367,0.0174654202180743,0.015678354496127436,-5.738757678934349e-06,-0.009943132414260522,0.016644000489587137
5.353535353535354,5.670886075949367,0.01728214606358971,0.015546605567865935,3.819583580598292e-05,-0.009848625489436694,0.016483178874076205
5.454545454545454,5.670886075949367,0.017345747059629314,0.015633057658329997,-2.874199053575164e-06,-0.009893641415387794,0.01655597758147723
5.555555555555555,5.670886075949367,0.0173230238843563,0.015584032477428414,-2.33066039356364e-05,-0.009872116908535416,0.016522357202524304
5.656565656565657,5.670886075949367,0.017167875842172643,0.015796483978159016,-4.9320501548032186e-05,-0.009889307946099499,0.01652513506329691
5.757575757575758,5.670886075949367,0.01748181946485452,0.015504564298293205,2.6364875976886873e-05,-0.009895915128944315,0.016581906321582567
5.858585858585858,5.670886075949367,0.017621351312140467,0.015746294699635413,-1.249908691320315e-05,-0.010010293803532763,0.01676267570372913
5.959595959595959,5.670886075949367,0.01731781458023876,0.015810358674338835,-7.818380663913052e-05,-0.009938451976373277,0.016616004977140678
6.0606060606060606,5.670886075949367,0.017543017540536585,0.015668930345091828,-3.185809717952702e-05,-0.009963584365688522,0.016685190065342064
6.161616161616162,5.670886075949367,0.01747343810930372,0.015693651560498914,6.989224837417325e-05,-0.009950126900940789,0.016655459891273205
6.262626262626262,5.670886075949367,0.01745068272434064,0.01576085953790705,-2.3118586388044293e-05,-0.009963462678674307,0.016670178915279592
6.363636363636363,5.670886075949367,0.01742853566233287,0.015593999857924836,-5.254746550650739e-05,-0.009906760656077311,0.016587778271013428
6.4646464646464645,5.670886075949367,0.01760897911975149,0.015884571435237763,8.88696481113802e-06,-0.010048065166496775,0.016813236021841347
6.565656565656566,5.670886075949367,0.0177203192139717,0.015932850503636457,-5.50237035842565e-05,-0.010095950915282446,0.016897908868473154
6.666666666666667,5.670886075949367,0.01750152913101192,0.015863897085201865,-5.672510069115924e-05,-0.010009627864864135,0.016743176189022345
6.767676767676767,5.670886075949367,0.017669769524768068,0.0159616812280569,2.238279236268627e-05,-0.01008943522584749,0.016880707838391313
6.8686868686868685,5.670886075949367,0.017694019559525532,0.015904651329372032,-1.9370535109021125e-05,-0.010079601266669269,0.016870689850308918
6.96969696969697,5.670886075949367,0.01781093505857109,0.015918758217265513,-5.8091173730669204e-05,-0.01011890798275098,0.01694456921178524
7.070707070707071,5.670886075949367,0.01759568902115278,0.01610006466083589,5.595513581394005e-05,-0.0101087261045966,0.016897870166129376
7.171717171717171,5.670886075949367,0.018115516750700902,0.016068966673962393,1.5078093790979437e-06,-0.010255345027398987,0.01718388806369752
7.2727272727272725,5.670886075949367,0.01784589557252188,0.016010407773077766,-1.8144501454082e-05,-0.010156891003679894,0.017002648861943415
7.373737373737374,5.670886075949367,0.017879894858688183,0.01609419243542986,-5.174226452465058e-05,-0.010192226188235412,0.01705752718043344
7.474747474747475,5.670886075949367,0.01801613456728808,0.016227021944844006,5.000629877751397e-05,-0.010272946953639625,0.017191760725713563
7.575757575757575,5.670886075949367,0.018056930715972565,0.016036995140754406,5.687625385304004e-05,-0.01022817775701809,0.01713676616523024
7.6767676767676765,5.670886075949367,0.018327152332619803,0.01638112581440415,-3.1290076015205483e-06,-0.010412483444107187,0.01743578035999708
7.777777777777778,5.670886075949367,0.0182927095613924,0.016438173675370142,7.743395643216195e-05,-0.010419264971028764,0.017440069614787748
7.878787878787879,5.670886075949367,0.018418592120579457,0.01633309145760249,7.3018441955925195e-06,-0.010425505073454586,0.017469459710928788
7.979797979797979,5.670886075949367,0.0184793539462079,0.016572577140918025,-4.769529650167682e-06,-0.010515579326137777,0.01760359011163033
8.080808080808081,5.670886075949367,0.01857843370446643,0.016681339855171718,-3.857543334352507e-06,-0.010577932067891444,0.017706275054791592
8.181818181818182,5.670886075949367,0.018441293618851242,0.01682922882167163,1.443337988054903e-05,-0.010581156732156862,0.01769045301729016
8.282828282828282,5.670886075949367,0.01862698446722076,0.01684522780792043,3.794737536636619e-05,-0.010641663682542357,0.017803223683585556
8.383838383838384,5.670886075949367,0.018971998823938553,0.016959978448537534,1.0027522991321188e-05,-0.010779593181742826,0.018050296917900218
8.484848484848484,5.670886075949367,0.018923459648877795,0.01703912492702074,2.4984511155060526e-05,-0.01078877537276956,0.018055242535896708
8.585858585858587,5.670886075949367,0.018928934910715813,0.01713632292867319,1.096363093088158e-06,-0.010819577351816701,0.01809933155257565
8.686868686868687,5.670886075949367,0.019176956662689357,0.017168625960069264,-7.688540485890377e-05,-0.010903674786827586,0.018256317325838177
8.787878787878787,5.670886075949367,0.019280152717661356,0.01739330812610001,1.7449022664495645e-05,-0.01100203825312841,0.018409419677285554
8.88888888888889,5.670886075949367,0.019343357069883833,0.01738131661571707,1.3124019806580834e-05,-0.011017402105680271,0.01844080077182102
8.98989898989899,5.670886075949367,0.019459319512926676,0.017552279831033503,-2.645909561096045e-05,-0.011103479803188054,0.018579405857344213
9.09090909090909,5.670886075949367,0.01971689326949293,0.01798893308038964,7.995791641933615e-05,-0.011311747904964772,0.01891271793789601
9.191919191919192,5.670886075949367,0.01979913795713564,0.01791232392899048,-4.828612799127025e-05,-0.011313438565837835,0.01892658538749816
9.292929292929292,5.670886075949367,0.02008502031098642,0.018319437066555158,7.100455142265875e-05,-0.011521337213262473,0.01926340246943884
9.393939393939394,5.670886075949367,0.0200607658074013,0.018358966157500725,-5.585049242803192e-05,-0.011525919589470607,0.01926656171797509
9.494949494949495,5.670886075949367,0.02043257358980749,0.01838792974241767,3.712479829751681e-05,-0.011646150999667546,0.019490957668641472
9.595959595959595,5.670886075949367,0.02051755329420029,0.018549515058034358,3.9720551597225956e-05,-0.011720120505670393,0.01960787014059557
9.696969696969697,5.670886075949367,0.02081467106565961,0.018710657570357628,3.5277419430062135e-05,-0.01185759859080517,0.01984658129317404
9.797979797979798,5.670886075949367,0.020970713868982815,0.018881120039123192,-4.872813072972661e-06,-0.011955550172431802,0.020007924416917393
9.8989898989899,5.670886075949367,0.02122596392745101,0.019102161514843747,6.177086998044544e-06,-0.012098437632688426,0.02024777623363672
10.0,5.670886075949367,0.021463217521979494,0.019320298070241007,-2.35399042746163e-05,-0.01223505467766615,0.02047607204101857
0.0,5.772151898734177,0.021414515387379145,0.0194396254586878,5.2391124544656144e-05,-0.012256242253820085,0.0204987458940833
0.10101010101010101,5.772151898734177,0.021273834336823415,0.019195811567126568,-1.3190667163634931e-05,-0.012140893771184994,0.020314704424441138
0.20202020202020202,5.772151898734177,0.020892410743441506,0.019076435675291763,1.642623697499899e-05,-0.011990653925619982,0.02004622918558404
0.30303030303030304,5.772151898734177,0.020792965064505214,0.01875168561972355,-0.00011530430505910464,-0.011863395205268629,0.019852200155435675
0.40404040404040403,5.772151898734177,0.020543945999510465,0.018716002435341616,-3.29907594363765e-05,-0.011777984530455624,0.019693785471634834
0.5050505050505051,5.772151898734177,0.020500266647827756,0.01836963993163971,-1.0534867949020135e-05,-0.01166097197384024,0.019522356926797053
0.6060606060606061,5.772151898734177,0.02033184820342473,0.018234391459112497,-4.3667357407360425e-06,-0.011569871898761169,0.01936848629160017
0.7070707070707071,5.772151898734177,0.01996356256121801,0.01795298474170512,-8.81918791663194e-06,-0.011374964190876937,0.01903807213333762
0.8080808080808081,5.772151898734177,0.02000725981615724,0.017717009367429856,3.0945101800584804e-05,-0.011317280755076127,0.018966204931280616
0.9090909090909091,5.772151898734177,0.019841206154320876,0.017750001835722187,-1.8108654171879826e-05,-0.011277362397012918,0.01888267896603476
1.0101010101010102,5.772151898734177,0.019511517588426504,0.017542339177264974,1.2675304109867058e-06,-0.011116157029707443,0.018605250007302603
1.1111111111111112,5.772151898734177,0.01930592214274578,0.017435840849925166,-5.006979970830885e-07,-0.011022528897801283,0.018442130862126933
1.2121212121212122,5.772151898734177,0.019236596189955404,0.017195059556438942,1.0608360093559933e-05,-0.010929496723918302,0.018301437828415312
1.3131313131313131,5.772151898734177,0.01918247784706162,0.017052696886340906,1.9560920227866123e-05,-0.010870552420020758,0.018211262863523224
1.4141414141414141,5.772151898734177,0.019004833557334025,0.017004803189818906,4.047644525729517e-05,-0.01080289102414588,0.018088075928538547
1.5151515151515151,5.772151898734177,0.01876461056941468,0.01689948456956584,1.5557648759392572e-05,-0.010699228541694155,0.0179050738029295
1.6161616161616161,5.772151898734177,0.0186343155516412,0.01701388130523209,-3.6329814670255996e-05,-0.010694459057061985,0.01787936798975571
1.7171717171717171,5.772151898734177,0.018609835373346473,0.016694962842371874,2.2780182601975162e-05,-0.010591439464715503,0.017730166487676204
1.8181818181818181,5.772151898734177,0.018571559273044144,0.016771628501169394,0.00010599388806763293,-0.010602956332264062,0.01774115970593266
1.9191919191919191,5.772151898734177,0.01846700158742081,0.016600687864513294,-1.933320811310444e-05,-0.01052030683558023,0.017608213349950223
2.0202020202020203,5.772151898734177,0.018386172505864537,0.016651319329318647,8.778900744268484e-05,-0.010511247550554955,0.01758371024308419
2.121212121212121,5.772151898734177,0.018115896922635107,0.01645142575063956,-7.685071393521139e-06,-0.0103701968019824,0.01734367246555188
2.2222222222222223,5.772151898734177,0.01814617714858295,0.016363189307375386,2.4633275079673523e-05,-0.010352809936787501,0.01732368892366893
2.323232323232323,5.772151898734177,0.01836268510088184,0.016422607929226278,-4.335981413210653e-05,-0.010435587909032436,0.017473772277102936
2.4242424242424243,5.772151898734177,0.01820075724722154,0.016323632341897265,4.189933037641434e-05,-0.01035731687673564,0.01733872354643251
2.525252525252525,5.772151898734177,0.01800386222241644,0.01632880593574562,-2.444444050120002e-05,-0.01029980044744862,0.017227570301097877
2.6262626262626263,5.772151898734177,0.017955553778225972,0.016096380369181675,-6.392660360935938e-05,-0.010215580244222294,0.017102286658528063
2.727272727272727,5.772151898734177,0.01788279599843306,0.016107257288077884,-3.9617727729386684e-05,-0.010197015985953283,0.017064584453832795
2.8282828282828283,5.772151898734177,0.01782441588312677,0.015979418212598514,2.509751387212714e-05,-0.010141150228717583,0.016977329055291014
2.929292929292929,5.772151898734177,0.01794375067397669,0.015934296944059272,-2.520205101770039e-05,-0.01016341428541079,0.01702823717394475
3.0303030303030303,5.772151898734177,0.017580230278373188,0.01597058031702368,1.4280205945103557e-05,-0.01006524317861906,0.016833242837416933
3.131313131313131,5.772151898734177,0.017805518445468328,0.01589126924902504,3.6784777474720304e-05,-0.01010903630834801,0.016929875873173565
3.2323232323232323,5.772151898734177,0.017649172955850972,0.01581866449646573,2.5175514798756672e-05,-0.01004035123569501,0.01680889669990925
3.3333333333333335,5.772151898734177,0.017705885799204617,0.016000306919231527,-2.0292716111849285e-05,-0.010111857815530841,0.01691773748947916
3.4343434343434343,5.772151898734177,0.01761598359886741,0.01593236418157033,-7.109820418634732e-05,-0.01006450433413132,0.016837874133035346
3.5353535353535355,5.772151898734177,0.017658071482611427,0.01568671524781018,1.317063220980611e-06,-0.010003436019126481,0.016759576062110256
3.6363636363636362,5.772151898734177,0.01764746490729717,0.015711434639279716,-4.069598195630426e-05,-0.010007669863973065,0.016763656317388034
3.7373737373737375,5.772151898734177,0.01749662455389666,0.01581844494791819,6.138761323547853e-06,-0.009994520850544454,0.016720819122378598
3.8383838383838382,5.772151898734177,0.01754801056658931,0.0157923437593257,-1.169016735620808e-05,-0.010002106297774501,0.016739384429483178
3.9393939393939394,5.772151898734177,0.017445393902669942,0.015647199277031208,1.7401275542179207e-05,-0.009927777953910344,0.016619445453631396
4.040404040404041,5.772151898734177,0.017615822807337655,0.015760641557289845,2.3093995070988407e-05,-0.010012939309388251,0.01676543964444518
4.141414141414141,5.772151898734177,0.017309975368586777,0.01571010980188328,3.3251772442372256e-05,-0.009906025551141017,0.016568177346377857
4.242424242424242,5.772151898734177,0.01734966241524114,0.015690866417505417,4.335415796814231e-05,-0.009912158649823965,0.016582776554531106
4.343434343434343,5.772151898734177,0.01761837372427494,0.015680992308601264,-5.366971676780143e-05,-0.00998980980986286,0.016734266369509882
4.444444444444445,5.772151898734177,0.01726264440059261,0.015472074152960112,7.7260935409569e-05,-0.009820415566065816,0.01644119715258832
4.545454545454545,5.772151898734177,0.017277257230158983,0.01572734635485837,9.656080263336568e-06,-0.009901381075505205,0.016556808628528763
4.646464646464646,5.772151898734177,0.01724375118784472,0.015713106105678037,-6.636625056400143e-05,-0.009887057188056826,0.016532059154252945
4.747474747474747,5.772151898734177,0.017256952886131445,0.015435518443798235,-8.674230532630985e-05,-0.009807741398978904,0.016422856349245608
4.848484848484849,5.772151898734177,0.017254704993913718,0.015439447144465783,1.2169615049590019e-05,-0.00980824564151385,0.016422506237035027
4.94949494949495,5.772151898734177,0.017145569455181642,0.015457523620632891,-9.918581105212493e-06,-0.00978092792274436,0.016366974024448224
5.05050505050505,5.772151898734177,0.017285147872866335,0.015510826201782476,1.69275944940886e-05,-0.009838792222394643,0.01646985129110107
5.151515151515151,5.772151898734177,0.0172638316083524,0.01559744104934241,0.00010127803767108675,-0.009858381797308443,0.016494824188664513
5.252525252525253,5.772151898734177,0.01737075690269919,0.015593997577412451,1.7537055769142195e-06,-0.009889426344033492,0.016554045547386743
5.353535353535354,5.772151898734177,0.01741426543104432,0.015622747265613643,-3.413561297442438e-05,-0.00991110380899739,0.01659131401374844
5.454545454545454,5.772151898734177,0.017421349226970532,0.01569455033537714,4.215052974851075e-05,-0.0099347698687043,0.016625504707116563
5.555555555555555,5.772151898734177,0.017314597372614236,0.015597031294063672,-6.130361694997744e-06,-0.009873488600003371,0.01652290722127822
5.656565656565657,5.772151898734177,0.017381076543936932,0.015625255285550983,-2.9087768857050103e-05,-0.009901899548846375,0.01657314709773035
5.757575757575758,5.772151898734177,0.01726493210859567,0.015555636180275938,-1.0634908408597077e-05,-0.009846170486661482,0.016476924301364
5.858585858585858,5.772151898734177,0.017391165438016422,0.015777735447926117,-8.32848239331749e-05,-0.009950670265782762,0.016643832876797184
5.959595959595959,5.772151898734177,0.017455903592974102,0.015635994742557557,1.887478617975499e-05,-0.009927569500659497,0.016620877046739112
6.0606060606060606,5.772151898734177,0.017692319212603853,0.015686164891891154,-4.694115713165328e-05,-0.010013545231348503,0.016779627590149036
6.161616161616162,5.772151898734177,0.01749195850334419,0.01590970641201429,5.529009798356856e-05,-0.010020499474607545,0.01675722581529132
6.262626262626262,5.772151898734177,0.017593219518286414,0.01577278527552126,5.964285422194429e-05,-0.010009801438142302,0.016757646804054928
6.363636363636363,5.772151898734177,0.01754288249217411,0.01578353941972391,4.003093244025427e-05,-0.009997926573569406,0.016732868039402243
6.4646464646464645,5.772151898734177,0.017653648867472494,0.015701307277482306,5.706731873411847e-05,-0.01000648684348644,0.01676325663937563
6.565656565656566,5.772151898734177,0.017585591650593327,0.015759275038476028,-1.1934150835342835e-05,-0.010003460006720807,0.01674729933976198
6.666666666666667,5.772151898734177,0.017585287467515726,0.015927566994817875,8.626939017659695e-05,-0.010053856338700078,0.01681847819068758
6.767676767676767,5.772151898734177,0.017961035612162512,0.016008496246876915,1.3181367418778828e-06,-0.010190859557711828,0.017068731246720405
6.8686868686868685,5.772151898734177,0.01777405834041817,0.016125226332740872,1.055884310549959e-05,-0.010169785401947714,0.017009694149150007
6.96969696969697,5.772151898734177,0.0178857830671717,0.016013920670163568,-8.244984248192852e-05,-0.01016991112120058,0.017027794159090347
7.070707070707071,5.772151898734177,0.01780580199035057,0.016096942716022116,-2.5382898649133242e-05,-0.010170823411911804,0.017015907485220867
7.171717171717171,5.772151898734177,0.017842384162910487,0.016073926899378047,-8.874875121019836e-05,-0.010174893318686559,0.0170278668323636
7.2727272727272725,5.772151898734177,0.017854997872717975,0.01608098209443249,5.064096358750757e-06,-0.010180793990145138,0.017037403264703505
7.373737373737374,5.772151898734177,0.018058604558187225,0.01623868456801604,1.1479467186737648e-05,-0.01028918673786098,0.017220931660745432
7.474747474747475,5.772151898734177,0.01791459710127634,0.01639951540261137,6.565346980128001e-06,-0.010294233751166313,0.01720715877066667
7.575757575757575,5.772151898734177,0.01814088311879549,0.016382627241822312,-5.088368262582166e-05,-0.010357053108185342,0.017329009121963
7.6767676767676765,5.772151898734177,0.01821257207651003,0.016437572822300493,-7.299631426914569e-05,-0.010395043469643156,0.017393593289690465
7.777777777777778,5.772151898734177,0.01825659320163244,0.01643476043947092,-7.630894671500393e-05,-0.010407406092331007,0.0174177862970308
7.878787878787879,5.772151898734177,0.01831409433745728,0.016634616700694035,7.025366943169028e-06,-0.010484613311445394,0.017534786360936448
7.979797979797979,5.772151898734177,0.01818745611550176,0.016492483213577488,-1.6084937159603714e-06,-0.010403981798723773,0.017401989989153644
8.080808080808081,5.772151898734177,0.018339960137808618,0.01655604141658316,-3.1301169963903687e-05,-0.010468800466317534,0.017516347933108252
8.181818181818182,5.772151898734177,0.018527937664124902,0.016985167930194618,-1.4223249136196817e-05,-0.010653931678295855,0.017806764949864377
8.282828282828282,5.772151898734177,0.01867731248798953,0.01690855523563414,-2.8092761796329043e-05,-0.0106757603170871,0.017858814061519485
8.383838383838384,5.772151898734177,0.018768788444398072,0.01688753595770825,9.382844366831097e-06,-0.010696897320631896,0.017902456947843034
8.484848484848484,5.772151898734177,0.018831635112022464,0.017069530871180145,-9.353162136110993e-05,-0.010770349794960781,0.018016060411411957
8.585858585858587,5.772151898734177,0.019200649935171725,0.01702259481039676,-1.9207269380145886e-05,-0.010866973423670545,0.018209610507280177
8.686868686868687,5.772151898734177,0.019291251203802928,0.017241213061440566,-4.131042719694743e-06,-0.010959739279573048,0.01835230993112912
8.787878787878787,5.772151898734177,0.01917705887396728,0.017476152722203812,-6.152548817443934e-05,-0.010995963478851326,0.018386017718318947
8.88888888888889,5.772151898734177,0.019511492118636283,0.017526766788331236,1.6447735935112093e-05,-0.011111477672090255,0.018598745072625406
8.98989898989899,5.772151898734177,0.019624605384221647,0.01759651017536745,-8.794050651153892e-06,-0.011166334667876728,0.018693260029036804
9.09090909090909,5.772151898734177,0.019700793269869957,0.017747125408502987,1.5840885194917963e-05,-0.011234375603511882,0.018800266480048716
9.191919191919192,5.772151898734177,0.01991545234106955,0.01798098137461715,-5.168681027185779e-05,-0.01136893011470601,0.019022343969946568
9.292929292929292,5.772151898734177,0.020151381182998133,0.01811147347759736,3.561081527925927e-05,-0.011478856398178647,0.019212918405850613
9.393939393939394,5.772151898734177,0.0203336925496531,0.01808729837008712,-0.0001340096388258551,-0.011526297275922064,0.019310145692642403
9.494949494949495,5.772151898734177,0.02050497938304,0.018130432320045728,0.00011461649769522196,-0.011590623510925716,0.01942786724031092
9.595959595959595,5.772151898734177,0.020653733801258848,0.01867453407292341,7.068512662252824e-05,-0.011798480362254676,0.01973907486005153
9.696969696969697,5.772151898734177,0.02083767218706385,0.018738059617431156,-3.812175642072057e-05,-0.0118727195413485,0.019871343096962188
9.797979797979798,5.772151898734177,0.020969921711568997,0.019063482510608045,2.695030225811731e-06,-0.012010021266653112,0.020084677443609592
9.8989898989899,5.772151898734177,0.02124864335491357,0.019114313819217285,5.651258555426622e-05,-0.012108887152239256,0.020266183185355047
10.0,5.772151898734177,0.021571472034691362,0.019613594179667456,5.065793410196587e-05,-0.012355519864307643,0.02066240747639387
0.0,5.8734177215189876,0.021417092650768983,0.019480338969217578,5.579230269584513e-05,-0.012269229485995967,0.020517616278170364
0.10101010101010101,5.8734177215189876,0.02108538082474333,0.019089649110575625,2.6993765057513937e-05,-0.012052508980595686,0.020161786934004645
0.20202020202020202,5.8734177215189876,0.02096661937157577,0.018969552966018325,-1.1392241937788363e-05,-0.011980851701278229,0.020042855591586438
0.30303030303030304,5.8734177215189876,0.02096936173089034,0.01863617226888642,-1.8580169001918713e-05,-0.011881660199933027,0.019905613437397836
0.40404040404040403,5.8734177215189876,0.020515907104602677,0.018453044979761437,-8.223912018115158e-05,-0.011690685625309234,0.01956672293887276
0.5050505050505051,5.8734177215189876,0.020552222536815556,0.01829956947314775,-4.2713250754083183e-05,-0.011655537602988991,0.01952374818600852
0.6060606060606061,5.8734177215189876,0.02040497704425478,0.01814936147247381,3.4045745150798185e-05,-0.011566301555018577,0.019375979540649284
0.7070707070707071,5.8734177215189876,0.0201330661130246,0.01807053733867641,1.8540491904267782e-05,-0.011461081035510303,0.019185160388487405
0.8080808080808081,5.8734177215189876,0.0199120535495797,0.017891398814599148,-0.00013597496975583742,-0.011341035709253653,0.018984019711546462
0.9090909090909091,5.8734177215189876,0.019544790788567936,0.017921705225791888,-4.2172339109577366e-07,-0.011239948804307946,0.01878590925375003
1.0101010101010102,5.8734177215189876,0.01957680311176845,0.017695682890061005,-2.275931170903348e-05,-0.011181745800548835,0.01870735328993225
1.1111111111111112,5.8734177215189876,0.019371078086503988,0.01737865079199338,-7.245064476552579e-05,-0.01102491866354921,0.018456129478888035
1.2121212121212122,5.8734177215189876,0.019215246321733912,0.01743976757063246,-2.807973745066647e-05,-0.010996504167709913,0.018391958021756912
1.3131313131313131,5.8734177215189876,0.01898408590883264,0.017258335682470056,2.9581303539254228e-05,-0.010872726477390808,0.01818280963558248
1.4141414141414141,5.8734177215189876,0.019030834767382748,0.017172916627856524,-2.0720264816047124e-05,-0.01086112541857178,0.018173279467946335
1.5151515151515151,5.8734177215189876,0.01887864202058414,0.017022222372259237,7.230869183566452e-05,-0.010770259317853012,0.018022719609206938
1.6161616161616161,5.8734177215189876,0.01878442360227135,0.016961117033493817,-3.4185896367954773e-06,-0.01072366219072955,0.017942388052565924
1.7171717171717171,5.8734177215189876,0.018610159638616376,0.01684964219739917,-6.382563681002529e-06,-0.010637940550804664,0.017795338575575144
1.8181818181818181,5.8734177215189876,0.01848734891499884,0.016638593650477478,-2.3083091391632762e-05,-0.010537782769642895,0.017635843636942393
1.9191919191919191,5.8734177215189876,0.01839454617108962,0.016373080726310815,-6.406008491988119e-05,-0.01043028806922013,0.01747209269123125
2.0202020202020203,5.8734177215189876,0.018307116216834996,0.016638338337965217,7.088893969304141e-05,-0.010483636366440063,0.017532823188022746
2.121212121212121,5.8734177215189876,0.01830076701832872,0.016331523052046517,1.3928365915491249e-05,-0.01038968702111257,0.017399939719057594
2.2222222222222223,5.8734177215189876,0.01821596773118517,0.016487660923992224,9.226988296975134e-05,-0.010411088596553219,0.017416982659687764
2.323232323232323,5.8734177215189876,0.018226149461475306,0.01640613903726763,-4.553186251798638e-05,-0.010389686549622879,0.017387909580358473
2.4242424242424243,5.8734177215189876,0.018076864914690773,0.016392776216307827,4.032396281124821e-05,-0.010340892339299579,0.017296561335968023
2.525252525252525,5.8734177215189876,0.01806089809135586,0.01622159778730388,8.250239854771229e-05,-0.01028474876359792,0.017215692552472094
2.6262626262626263,5.8734177215189876,0.01809123734384816,0.016313160549596004,1.7095328891877272e-05,-0.01032131936803325,0.01727100730033166
2.727272727272727,5.8734177215189876,0.017863596555349463,0.01619715655135335,1.7703094184632644e-05,-0.010218225932010843,0.01709144325277305
2.8282828282828283,5.8734177215189876,0.01780157783604527,0.01616586306752468,2.8499555067337047e-05,-0.010190232271070984,0.01704276588941078
2.929292929292929,5.8734177215189876,0.01782972406848029,0.01597094358594321,5.906641134599244e-06,-0.010140200296327048,0.016976827936870945
3.0303030303030303,5.8734177215189876,0.017821038485516905,0.015917682256633602,5.2980808607081986e-05,-0.010121616222645152,0.016949950263288913
3.131313131313131,5.8734177215189876,0.017790655547720784,0.01590594603996497,1.8563752412524624e-05,-0.010108980476305726,0.01692720800737636
3.2323232323232323,5.8734177215189876,0.01759824768171321,0.01593495293418692,1.07113270008525e-05,-0.010059960184770041,0.016828373128350553
3.3333333333333335,5.8734177215189876,0.017634328648929113,0.015887106042224063,4.0000378143362844e-05,-0.010056430407345954,0.0168290236245928
3.4343434343434343,5.8734177215189876,0.01777113122527924,0.015730962063108502,5.467999356979728e-05,-0.010050627986516321,0.016844234949642368
3.5353535353535355,5.8734177215189876,0.01745887482848722,0.015837635026335825,-7.335312084567663e-05,-0.009988952956446914,0.016707837922399035
3.6363636363636362,5.8734177215189876,0.017726469802689996,0.015695669197249858,-1.5001010977365793e-05,-0.010026641699981957,0.016803381571817863
3.7373737373737375,5.8734177215189876,0.017553047842651864,0.01566975210971247,-9.95128900486865e-06,-0.0099668399857093,0.01669128540186298
3.8383838383838382,5.8734177215189876,0.017300575362484322,0.01581424320267641,-0.00011330933812050089,-0.009934445569548218,0.016608528129733645
3.9393939393939394,5.8734177215189876,0.01752791582788921,0.01577623475126117,4.887196519829925e-05,-0.009991245173745115,0.016721245970390194
4.040404040404041,5.8734177215189876,0.01734089281889312,0.015828967038420173,-1.5306328621407622e-05,-0.009950957957193987,0.016636557434270546
4.141414141414141,5.8734177215189876,0.017457207301728724,0.01561091242035258,1.4004061478368596e-05,-0.009920435916624391,0.016611210895700414
4.242424242424242,5.8734177215189876,0.01726740126661481,0.015743258412655545,2.368837049158076e-05,-0.009903197903781106,0.016558075223627212
4.343434343434343,5.8734177215189876,0.017291095304806638,0.015662821670506394,-6.276014136091351e-05,-0.009886175092593909,0.016537546183793564
4.444444444444445,5.8734177215189876,0.017259790916915593,0.01565916402388573,1.7775833541470823e-05,-0.009875686482240397,0.01651777380210236
4.545454545454545,5.8734177215189876,0.01743194953238147,0.015511323036047823,-5.8347911001837466e-05,-0.009882981770528787,0.016555712606814165
4.646464646464646,5.8734177215189876,0.01719148112879593,0.01565592808579013,-5.702632123014784e-05,-0.009854222764375819,0.01647775079895526
4.747474747474747,5.8734177215189876,0.017316402139958505,0.015647279332226878,6.26429916679609e-05,-0.009889104441655614,0.01654546235962015
4.848484848484849,5.8734177215189876,0.017250295400247223,0.015567028535387151,5.848311124636807e-05,-0.009845197180690312,0.016473599755388778
4.94949494949495,5.8734177215189876,0.017351615728982805,0.015512417878472604,-0.00010121661413364874,-0.009859210082236622,0.01650996357345802
5.05050505050505,5.8734177215189876,0.017332915568526258,0.015608442731819664,-0.00012183220101986981,-0.009882407490103775,0.016539593581674325
5.151515151515151,5.8734177215189876,0.017463356506257913,0.01579295516246142,-4.560605288963772e-07,-0.0099768935006158,0.01669096305078712
5.252525252525253,5.8734177215189876,0.017244275098865884,0.015459704132467892,-5.297860497954922e-05,-0.009811193769400133,0.016425118104269984
5.353535353535354,5.8734177215189876,0.017413237465125655,0.015632468050130882,5.188813212750399e-05,-0.009913711654576962,0.016594911725196573
5.454545454545454,5.8734177215189876,0.017196289656457687,0.015634806856016082,-3.379297617209404e-05,-0.00984932895374213,0.016471257445945457
5.555555555555555,5.8734177215189876,0.01727961022562145,0.015621687520851716,-6.227201380076364e-05,-0.009870389323941948,0.016513540278597794
5.656565656565657,5.8734177215189876,0.017160167318853475,0.015562285982094267,-3.755516684279018e-05,-0.009816735990284323,0.01641977123027659
5.757575757575758,5.8734177215189876,0.017441665082481062,0.015812694674071624,2.901770834671339e-07,-0.009976307926965805,0.016686919110512014
5.858585858585858,5.8734177215189876,0.017172205443148743,0.015672411519046768,3.6738430192011777e-06,-0.009853385088658653,0.016473593800406236
5.959595959595959,5.8734177215189876,0.017478430379545162,0.01536895725884436,-2.682497191396901e-05,-0.009854216291516857,0.016525050228039555
6.0606060606060606,5.8734177215189876,0.017361707817125042,0.0156294983031591,2.9450805847577406e-05,-0.009897361836085241,0.01656375364215096
6.161616161616162,5.8734177215189876,0.01745112244552429,0.01577731699141393,-1.7289141107813e-05,-0.009968531831081465,0.01667736226507135
6.262626262626262,5.8734177215189876,0.017311580253395208,0.015577912303079339,-2.727536940356511e-06,-0.009866847766942364,0.016513143428658165
6.363636363636363,5.8734177215189876,0.017590487940019453,0.01583979912947662,5.891015338250483e-05,-0.010029086120848822,0.016784073346159552
6.4646464646464645,5.8734177215189876,0.01757733109343667,0.015881277012696652,2.1094020626335253e-05,-0.010037582431839998,0.016793701157179954
6.565656565656566,5.8734177215189876,0.017772118636219157,0.015964633809002204,1.2599788507836733e-05,-0.010121025733566408,0.01694086313332391
6.666666666666667,5.8734177215189876,0.017640950241370405,0.01587651818736226,8.582257407654966e-05,-0.0100552405286198,0.0168289091852486
6.767676767676767,5.8734177215189876,0.01757596446990142,0.015936675548849474,3.7531370759056916e-05,-0.010053792005625268,0.016816478144753788
6.8686868686868685,5.8734177215189876,0.01759521894503968,0.015741218766400097,-7.62105635129623e-05,-0.010000931313431933,0.016745892973172426
6.96969696969697,5.8734177215189876,0.01783024840340674,0.015750643889089446,7.267920233590572e-06,-0.010074267687748854,0.016886764238895135
7.070707070707071,5.8734177215189876,0.01768633220760554,0.016134962565088156,-7.223326232436205e-05,-0.010146388431808108,0.016964395326203377
7.171717171717171,5.8734177215189876,0.017717267642415765,0.016010695459877933,-1.4104651076513292e-05,-0.01011838893068811,0.01692863733564005
7.2727272727272725,5.8734177215189876,0.017991474764690513,0.015945510673173534,7.636207338020146e-05,-0.010181095631359214,0.01706126359473514
7.373737373737374,5.8734177215189876,0.01794868950625925,0.015969757311528124,8.277944780806984e-05,-0.01017553404533621,0.017046200321984173
7.474747474747475,5.8734177215189876,0.01771906550147342,0.016218375082860496,4.314746431621483e-05,-0.010181232175300174,0.017018581235350286
7.575757575757575,5.8734177215189876,0.01807707223573237,0.016228185267739288,-1.5339328105587428e-05,-0.010291577251041498,0.01722722166355172
7.6767676767676765,5.8734177215189876,0.018151357630970005,0.016417422800311256,2.1008044855074664e-05,-0.010370634129384378,0.017349535055387166
7.777777777777778,5.8734177215189876,0.018256473411375315,0.016443207768105438,6.674164809440287e-05,-0.010409904353844226,0.01742114465389605
7.878787878787879,5.8734177215189876,0.01826043752744554,0.016373362989076105,-5.246714704752884e-05,-0.010390140154956493,0.017394081772089415
7.979797979797979,5.8734177215189876,0.018330651945663298,0.01684129690147488,-4.56115669441888e-06,-0.010551584654141452,0.01763321277234
8.080808080808081,5.8734177215189876,0.018380817568492733,0.01675976259940595,4.465152296007932e-06,-0.010542174050369606,0.017626287693569633
8.181818181818182,5.8734177215189876,0.018708469313055455,0.016604014197381695,-2.867748371174216e-05,-0.010593745053131145,0.01775012362248089
8.282828282828282,5.8734177215189876,0.018691607464629032,0.01679320038429888,-6.290378980408024e-05,-0.010645442354678371,0.017818746582213208
8.383838383838384,5.8734177215189876,0.018841003929904687,0.016816800758950153,1.9567156604756148e-05,-0.01069734140665645,0.01791490877135463
8.484848484848484,5.8734177215189876,0.01889060157644731,0.01713551896768061,-6.379508543419507e-05,-0.010807836163238375,0.01807741093261096
8.585858585858587,5.8734177215189876,0.018881159472306657,0.017018429436573723,8.33583735385327e-05,-0.010769876672664115,0.018022715921899368
8.686868686868687,5.8734177215189876,0.01897868414427377,0.01701720557163227,4.038343177008943e-05,-0.010798766914771812,0.018078065721138445
8.787878787878787,5.8734177215189876,0.019072145905062243,0.017149658267316372,5.995967885685996e-05,-0.010866541251713584,0.018187565227450492
8.88888888888889,5.8734177215189876,0.019478008710815186,0.017489892935282265,1.5180863960099265e-05,-0.011090370493829235,0.018563986173703844
8.98989898989899,5.8734177215189876,0.019459135046209906,0.017656348032583823,1.963311842424994e-05,-0.011134644923638118,0.018623331017394475
9.09090909090909,5.8734177215189876,0.019780532880873607,0.017771216945399827,4.66641032842703e-05,-0.01126552494788203,0.018856511455350757
9.191919191919192,5.8734177215189876,0.019844539664688743,0.01784266321486524,1.8400064983652313e-05,-0.011306160863866195,0.018923212277481016
9.292929292929292,5.8734177215189876,0.020084588524385865,0.01812230949774452,-1.0608504583742843e-06,-0.011462069406639115,0.019178886091959984
9.393939393939394,5.8734177215189876,0.020086571081432053,0.018166203317470965,-2.9568565855929115e-05,-0.011475832319670904,0.01919862415552866
9.494949494949495,5.8734177215189876,0.020273972120345467,0.018375518713609675,3.749922682357429e-05,-0.011594847250186542,0.019394666741405813
9.595959595959595,5.8734177215189876,0.020789600345261696,0.018452461151392062,5.80989590583471e-06,-0.011772618448996125,0.01972515180169981
9.696969696969697,5.8734177215189876,0.020999588120833967,0.018679231598211853,6.262361146275772e-05,-0.011903645915713745,0.019941213341176836
9.797979797979798,5.8734177215189876,0.021180845135425563,0.018904523228467245,1.648670447804393e-05,-0.012025610509167842,0.02013941994496346
9.8989898989899,5.8734177215189876,0.021143969188439474,0.018919804615226472,-4.2744668490300085e-05,-0.012019132141099785,0.0201244168910414
10.0,5.8734177215189876,0.021482701389137233,0.019366671568941483,6.822261873289838e-05,-0.012254811887423615,0.020507071155924282
0.0,5.974683544303797,0.02152424025884136,0.01951568516457478,4.9019090859787214e-06,-0.012311977627024842,0.020593558749061703
0.10101010101010101,5.974683544303797,0.02124356966615434,0.0189233923734771,-2.618574346121685e-05,-0.01205008861188943,0.02018379756029255
0.20202020202020202,5.974683544303797,0.020991151335414515,0.01883548338857603,-2.1250342644128905e-05,-0.011947990417197164,0.02000066852166447
0.30303030303030304,5.974683544303797,0.020707748056572994,0.018695265959320695,-3.9586757047211795e-05,-0.011820904204768107,0.01977856523770114
0.40404040404040403,5.974683544303797,0.0206023484951321,0.018790393449305297,-1.935356645068033e-05,-0.011817822583331219,0.01975880914865406
0.5050505050505051,5.974683544303797,0.02051013247709172,0.018273445625731573,-3.0527967743297926e-05,-0.011635073430846988,0.019488364593730736
0.6060606060606061,5.974683544303797,0.020178829469179937,0.018201608516215995,-4.3318547762366865e-05,-0.01151413139561878,0.01926660806940537
0.7070707070707071,5.974683544303797,0.020030293566275264,0.017990713587454365,-4.6831162507126184e-07,-0.011406302146118888,0.01909238491575745
0.8080808080808081,5.974683544303797,0.019873943974707434,0.01780997554010855,7.368959827954279e-05,-0.011305175854444795,0.018926983706991758
0.9090909090909091,5.974683544303797,0.019692921805746826,0.017582185385444763,-7.764705483228285e-05,-0.011182532157357478,0.018727463720457988
1.0101010101010102,5.974683544303797,0.019606310866098986,0.017550153297373496,4.499458348625904e-05,-0.011146939249041745,0.018663537145489156
1.1111111111111112,5.974683544303797,0.019290886418786665,0.017364553746195315,-4.6563526673497946e-05,-0.010996632049494595,0.018403665289346904
1.2121212121212122,5.974683544303797,0.01920766819876601,0.017251486331590005,-4.652420863611947e-05,-0.010937746359106805,0.01830830320909515
1.3131313131313131,5.974683544303797,0.01909943682594083,0.01717095645193134,1.7961306852865796e-05,-0.01088111798336165,0.01821196316636993
1.4141414141414141,5.974683544303797,0.01885945468938843,0.017055856270130728,4.075287209498118e-05,-0.010774593287855747,0.018025595639616265
1.5151515151515151,5.974683544303797,0.01913524334061697,0.01701054741565833,5.201275759199078e-06,-0.01084373722688259,0.01816632538762503
1.6161616161616161,5.974683544303797,0.018901473513720148,0.016851477516351,4.304561901135554e-05,-0.010725885309021342,0.017964570640778946
1.7171717171717171,5.974683544303797,0.0187733291178405,0.016693813159678758,-1.2342147793947516e-05,-0.010640142683255777,0.01782479431254319
1.8181818181818181,5.974683544303797,0.018751917007429363,0.01674830896175992,-1.9023872570534372e-05,-0.010650067790756784,0.017834753449082537
1.9191919191919191,5.974683544303797,0.018522690861681165,0.016671195417984293,-8.002035092297275e-05,-0.010558165883899637,0.01767038890827574
2.0202020202020203,5.974683544303797,0.018125266371412627,0.01659619302270159,-1.823312163724616e-05,-0.010416437818234264,0.017411188412447848
2.121212121212121,5.974683544303797,0.018344349486162006,0.016520990219887025,-3.797538676372958e-05,-0.01045960191181471,0.01750416475742223
2.2222222222222223,5.974683544303797,0.01822733536884502,0.01637800688423623,5.0429997310672707e-05,-0.010381602675924374,0.01737685442046684
2.323232323232323,5.974683544303797,0.018142302363466853,0.01626694404250327,3.201330441122675e-05,-0.010322773921791036,0.017281199632423538
2.4242424242424243,5.974683544303797,0.017911268559994937,0.016339559412800082,-4.086044941384857e-05,-0.010275248391838507,0.01717956679218106
2.525252525252525,5.974683544303797,0.017995864628235637,0.016153738977977755,-3.9117437387828374e-05,-0.010244881081864018,0.017149300782265224
2.6262626262626263,5.974683544303797,0.01794449631410148,0.016167732634324524,-6.443793417645538e-05,-0.010233668684527802,0.0171257456649301
2.727272727272727,5.974683544303797,0.01796924555323889,0.01610978240096651,1.734665916981964e-05,-0.01022370838626162,0.017115464986573556
2.8282828282828283,5.974683544303797,0.017758067866215546,0.016202403347839286,-8.637808060953587e-05,-0.01018814136421645,0.017034255306848378
2.929292929292929,5.974683544303797,0.01795717803815222,0.016095145489285013,-5.223148293019757e-05,-0.010215697058231171,0.017102594618873528
3.0303030303030303,5.974683544303797,0.017750874454376234,0.016032510814578908,-1.72242487158535e-05,-0.010135015580686543,0.01695714452025542
3.131313131313131,5.974683544303797,0.017832105648825137,0.016072397823853318,-5.63235319046186e-05,-0.010171351041803537,0.017020892593366112
3.2323232323232323,5.974683544303797,0.01777876605038525,0.015803563546749035,3.995651324195374e-05,-0.010074698879140283,0.01687821298477033
3.3333333333333335,5.974683544303797,0.01762141168651951,0.01604272289076966,2.577340324645126e-05,-0.010099240373186751,0.016887559792633552
3.4343434343434343,5.974683544303797,0.01755360779394942,0.0158667996070533,6.282541559528252e-05,-0.010026122220300814,0.01677428806850885
3.5353535353535355,5.974683544303797,0.017558483081313248,0.01569611035143108,9.038576068206459e-05,-0.009976378029823298,0.016706071620528846
3.6363636363636362,5.974683544303797,0.017582779221970473,0.01577400908231524,1.8263029371947773e-05,-0.010007036491285714,0.01675182286118558
3.7373737373737375,5.974683544303797,0.017562785540461427,0.015679436410051623,-8.873261814467088e-07,-0.009972666585153913,0.01670094564310948
3.8383838383838382,5.974683544303797,0.01737274175222,0.015863397163836956,-1.5197503834848717e-05,-0.009970841674817085,0.016669418592713068
3.9393939393939394,5.974683544303797,0.01739001073819773,0.015716546855297425,9.647924045068329e-05,-0.009931967278048544,0.016617440376902083
4.040404040404041,5.974683544303797,0.01750169004071641,0.015567414032977544,-1.6032826929568165e-06,-0.009920731222108186,0.01661919030898715
4.141414141414141,5.974683544303797,0.017515054585572915,0.01565902822941337,4.7820497883753193e-05,-0.009952224844495884,0.016664946097423024
4.242424242424242,5.974683544303797,0.017318750274541158,0.015667256682565352,3.958500203559411e-05,-0.009895802087131953,0.016555042675087887
4.343434343434343,5.974683544303797,0.017437621229144593,0.015540148090440048,-1.7014722863806644e-05,-0.009893330795875392,0.016570591089650238
4.444444444444445,5.974683544303797,0.01738021960515115,0.015638855404618388,9.667104841802891e-05,-0.009905722502930862,0.016579117179728733
4.545454545454545,5.974683544303797,0.017442479003538097,0.015551388758811695,0.0001533100167697801,-0.009898160328704936,0.016580153982965796
4.646464646464646,5.974683544303797,0.017106410828007335,0.015567243935352377,9.95345675365074e-05,-0.009802096429007914,0.01639202325314946
4.747474747474747,5.974683544303797,0.017133457997445884,0.015679072280398394,-1.150362664955245e-05,-0.009843759083353285,0.016454554420261707
4.848484848484849,5.974683544303797,0.017354968642216466,0.015662350492235303,-4.76966285638717e-05,-0.009905195740335531,0.01657381617983384
4.94949494949495,5.974683544303797,0.017293061239739005,0.01569576246649349,-5.664535352829328e-05,-0.00989664711186975,0.01655260616932299
5.05050505050505,5.974683544303797,0.01723478450921476,0.015507726192422622,-0.0001471866735692872,-0.009822753210491215,0.01644141238867694
5.151515151515151,5.974683544303797,0.01728084862308891,0.015678182169884307,-1.704778973212445e-05,-0.009887709237891965,0.016537886938923423
5.252525252525253,5.974683544303797,0.017306430567743194,0.015748066087162747,0.00010038236063098998,-0.00991634899647178,0.016583170445455406
5.353535353535354,5.974683544303797,0.017350368426576807,0.015595882553322366,1.5506927336782627e-05,-0.009883875293969752,0.016543072577716634
5.454545454545454,5.974683544303797,0.01737171172272503,0.015549387227889164,-9.523715060427891e-05,-0.009876329685184258,0.016536854274527474
5.555555555555555,5.974683544303797,0.017372364188087474,0.015522330839925701,-4.571079479324237e-05,-0.009868408508403953,0.016525388837142795
5.656565656565657,5.974683544303797,0.017284533016215624,0.015692114138413267,-3.294460004134919e-05,-0.009892994146388667,0.01654599404212467
5.757575757575758,5.974683544303797,0.017350503418176386,0.015604189356414002,8.437193782568543e-05,-0.009886407832377115,0.016547250812153635
5.858585858585858,5.974683544303797,0.01740947248432944,0.015551345069512886,8.436475401936716e-05,-0.009888245266152696,0.01655942945293865
5.959595959595959,5.974683544303797,0.017442205155426403,0.01566276702939958,4.3945482219924975e-05,-0.009931491655447796,0.016624241019938823
6.0606060606060606,5.974683544303797,0.017469781633332335,0.01577602862539014,-1.0154928245348055e-05,-0.009973743077616741,0.01668750681636961
6.161616161616162,5.974683544303797,0.017616699643160674,0.015682036631285125,1.557464606033294e-05,-0.009989620882333738,0.01673348074384742
6.262626262626262,5.974683544303797,0.017435044607641125,0.015700089416852428,7.866335871733805e-05,-0.009940540207348067,0.016636117113462356
6.363636363636363,5.974683544303797,0.017504566806551446,0.015635744681451704,-9.796611375657146e-06,-0.009942093446400945,0.016649015628639987
6.4646464646464645,5.974683544303797,0.017521025562851286,0.015783059720050337,7.779578263119205e-05,-0.009991225584870487,0.016720468732578604
6.565656565656566,5.974683544303797,0.017514754392806788,0.015702362336204048,3.387931499917057e-05,-0.00996513501870325,0.016682662500220546
6.666666666666667,5.974683544303797,0.01746915708798126,0.015924596053456367,-2.5653653069311384e-06,-0.010018125942431287,0.016750371892980342
6.767676767676767,5.974683544303797,0.01752925948367328,0.01589340233914363,-3.630485437969489e-05,-0.010026798546845073,0.01677139100986951
6.8686868686868685,5.974683544303797,0.01758905966198387,0.016061192381098603,2.9565865204366823e-05,-0.010095075612924742,0.016877152362969872
6.96969696969697,5.974683544303797,0.017773815057499247,0.01593375712536272,1.5645235617471728e-05,-0.01011227165485859,0.01692897515596024
7.070707070707071,5.974683544303797,0.01797226360442786,0.016088730289666894,3.4071215158696326e-05,-0.010218298168228427,0.017108538281143656
7.171717171717171,5.974683544303797,0.018032042127617384,0.016100686851036647,2.528458672385469e-06,-0.01023981869359621,0.017148131559011147
7.2727272727272725,5.974683544303797,0.018068321034038864,0.016131973668163654,3.2831561474457746e-05,-0.010260088410660754,0.017182268593077598
7.373737373737374,5.974683544303797,0.01781583205824109,0.015916819545937582,7.733737656736248e-06,-0.0101197954812536,0.016946321485376493
7.474747474747475,5.974683544303797,0.017946348735935626,0.016064210564195228,2.6482712816818373e-05,-0.010203167790039255,0.017083280512018337
7.575757575757575,5.974683544303797,0.01813799446403233,0.016116469239886834,5.254319545931398e-06,-0.01027633911117575,0.01721647690174424
7.6767676767676765,5.974683544303797,0.01819030301658446,0.016352385911372082,-2.8613720632540723e-05,-0.010362806678386963,0.01734460291539251
7.777777777777778,5.974683544303797,0.018062853997250182,0.01637279637740836,-1.8360440650418688e-05,-0.01033069511239756,0.01727995186820733
7.878787878787879,5.974683544303797,0.018430902080404394,0.016538188091267447,-5.5362713885237025e-06,-0.010490727051501551,0.017561212472179642
7.979797979797979,5.974683544303797,0.018456519279602415,0.01674533898530332,5.9358267652132604e-05,-0.010560557479471721,0.017663504183404326
8.080808080808081,5.974683544303797,0.018525560395699015,0.0166502430026237,-5.591002452210226e-06,-0.010552741019496813,0.017662728878937883
8.181818181818182,5.974683544303797,0.018649411360455354,0.01676628419937502,-6.0922262862736214e-05,-0.010624708667949111,0.017783099659271523
8.282828282828282,5.974683544303797,0.018837231081017754,0.016723262373452032,-1.5080577865052987e-05,-0.010668148036340936,0.017874269320038196
8.383838383838384,5.974683544303797,0.01897777898246435,0.0168834165838222,2.3184070463143777e-05,-0.010758358669885965,0.01802214512084693
8.484848484848484,5.974683544303797,0.018878491697902667,0.01689005693038663,-2.821335027541659e-06,-0.010730564588486787,0.017966989070010257
8.585858585858587,5.974683544303797,0.019085760457479745,0.017056443108165963,3.4155977158221045e-05,-0.010842661069693713,0.01815645384472529
8.686868686868687,5.974683544303797,0.018975701320519525,0.017080163680336522,3.876752523732661e-05,-0.010816759500256812,0.018102642243938896
8.787878787878787,5.974683544303797,0.01929498036838691,0.017234500615285808,-2.2121948215228585e-06,-0.010958844295101815,0.01835170135233377
8.88888888888889,5.974683544303797,0.01932418265330964,0.01761732976909138,1.3623932088382946e-05,-0.011082453726720306,0.01852982465984101
8.98989898989899,5.974683544303797,0.019599738655173008,0.01752351719111936,1.5588072438715996e-05,-0.011136976753887709,0.018648532966353545
9.09090909090909,5.974683544303797,0.019763106665067167,0.017799101480552883,-2.661912844187937e-05,-0.011268662443686015,0.018858021720247267
9.191919191919192,5.974683544303797,0.019705764682408696,0.01788665100989844,-1.0311582968622015e-05,-0.011277724707692139,0.01886212154814962
9.292929292929292,5.974683544303797,0.019966677361455264,0.018002974165900243,-8.226905190420573e-05,-0.011390895458206651,0.01906137485985943
9.393939393939394,5.974683544303797,0.020137753411245178,0.01814830266329626,6.188286162897822e-06,-0.011485816822362433,0.01922040772276373
9.494949494949495,5.974683544303797,0.020393719656936263,0.01844551649780465,-3.705965753127999e-05,-0.011651770846422273,0.019492878396674004
9.595959595959595,5.974683544303797,0.020574201980799886,0.018390673477030276,-4.567775088110382e-06,-0.011689462637349048,0.019573995248794822
9.696969696969697,5.974683544303797,0.020697445210256293,0.018600358172125665,5.514155433757661e-05,-0.011789341014714587,0.01973288600223631
9.797979797979798,5.974683544303797,0.021122736882760246,0.018750237748135976,-1.603128903988861e-05,-0.011961892389268867,0.020042102224905274
9.8989898989899,5.974683544303797,0.02143292960104669,0.019217886950077066,-6.599099284244146e-05,-0.012195244965337127,0.020416049972041585
10.0,5.974683544303797,0.021551395128694185,0.019324187907426908,-4.019174230422385e-05,-0.012262674910836328,0.020528723956179176
0.0,6.075949367088607,0.021566807663455635,0.01936861959700144,-4.324895855185837e-05,-0.012280628178137123,0.02055618971862044
0.10101010101010101,6.075949367088607,0.02135161437321839,0.019235149845035597,2.0843367405635087e-05,-0.012176029265476196,0.020376020890724027
0.20202020202020202,6.075949367088607,0.02117446995878515,0.01883005024028701,5.908798743749354e-05,-0.012001356059721649,0.020105300572800036
0.30303030303030304,6.075949367088607,0.02073794371050202,0.018616250113552706,-4.6040249476811076e-05,-0.011806258147216416,0.019762861376545003
0.40404040404040403,6.075949367088607,0.02077880253802429,0.018688510699956463,2.7376459372893078e-05,-0.011840193971394224,0.01981656988340883
0.5050505050505051,6.075949367088607,0.020582939913367525,0.0183947898720437,-2.0330677671746084e-05,-0.011693318935623366,0.019580809361923888
0.6060606060606061,6.075949367088607,0.020181613833447864,0.018103079453735682,9.895043082829422e-05,-0.011485407986155065,0.019227559321516773
0.7070707070707071,6.075949367088607,0.020096592118955803,0.018014889203267288,-2.1260016982139378e-05,-0.011433444396666928,0.019140865272510427
0.8080808080808081,6.075949367088607,0.019879420806914298,0.0179394996372187,3.1025227597602426e-06,-0.011345676133239899,0.018983945463873744
0.9090909090909091,6.075949367088607,0.01980064652586874,0.017661781460393617,-1.8540360069933812e-05,-0.011238728395878706,0.018822605205378987
1.0101010101010102,6.075949367088607,0.01947710001739908,0.017571177169644982,-0.00013552064549675948,-0.01111448315611322,0.01859901111872008
1.1111111111111112,6.075949367088607,0.01927296829195614,0.01751635758256881,-2.03036185651125e-05,-0.011036797762357485,0.018457495013531198
1.2121212121212122,6.075949367088607,0.019105133973102796,0.017285493305176803,-0.00013811075910187374,-0.01091718818348388,0.018264993328558417
1.3131313131313131,6.075949367088607,0.019047649384167028,0.017072178070482603,9.871728276889585e-05,-0.01083594823639489,0.018141570613581386
1.4141414141414141,6.075949367088607,0.01875893697724309,0.017286667024559475,3.152894945359184e-05,-0.01081368120054077,0.018067928998582915
1.5151515151515151,6.075949367088607,0.019023342099969788,0.017011104842165982,-8.151245685474212e-05,-0.01081033408264073,0.01810185345578008
1.6161616161616161,6.075949367088607,0.018785323019626845,0.016667741183366547,3.589298923913883e-05,-0.010635919260898017,0.01782124911139416
1.7171717171717171,6.075949367088607,0.018720616144043058,0.016759025695362008,4.700050039599617e-05,-0.01064389255182152,0.017821160209719668
1.8181818181818181,6.075949367088607,0.018504796717989335,0.016704815205344465,1.8053662850630238e-05,-0.010562883577000139,0.017673712706632042
1.9191919191919191,6.075949367088607,0.018404157570789264,0.016716739848646592,2.844355874626098e-05,-0.010536269225830758,0.017621217889847662
2.0202020202020203,6.075949367088607,0.018301027147044048,0.016628304192694298,5.8193306784445934e-05,-0.010478799401921502,0.017524931038514154
2.121212121212121,6.075949367088607,0.018397790910612135,0.01654745282077637,-1.087004652792191e-05,-0.01048357311941655,0.017545959153614094
2.2222222222222223,6.075949367088607,0.018137985542223678,0.016408737792693237,-2.79626110495953e-05,-0.010364017000475075,0.01733822633235924
2.323232323232323,6.075949367088607,0.01802163026492204,0.016178061615665297,-6.669922149798793e-05,-0.010259907564176201,0.01717460731905143
2.4242424242424243,6.075949367088607,0.018123266234514126,0.016282201358818745,7.025960574944661e-05,-0.010321640277999861,0.017276892059133762
2.525252525252525,6.075949367088607,0.018069758181608924,0.01617683311270444,3.42317052796997e-05,-0.01027397738829401,0.01720169012731712
2.6262626262626263,6.075949367088607,0.01805877328377171,0.01597848849374507,1.791860855373895e-05,-0.010211178533255035,0.01711375029510221
2.727272727272727,6.075949367088607,0.01788520539063516,0.016105653749837724,3.6085683631566466e-06,-0.010197257742141865,0.017065162418619485
2.8282828282828283,6.075949367088607,0.017824107879949733,0.016024267213771305,-5.0530390546512765e-05,-0.01015451252811631,0.016996039359219468
2.929292929292929,6.075949367088607,0.017833788113536433,0.01626519757624515,3.0503193673647895e-05,-0.010229695706934475,0.01710360648540871
3.0303030303030303,6.075949367088607,0.01776897802081835,0.015852031401200315,2.9328848601144125e-05,-0.010086302826605598,0.016892355147811587
3.131313131313131,6.075949367088607,0.017757809471355183,0.015963332067756866,6.103014499262596e-05,-0.010116342461733615,0.01693236937274341
3.2323232323232323,6.075949367088607,0.017702164615331015,0.015883588399776247,-9.141812451372455e-06,-0.010075725904532177,0.016866575429084218
3.3333333333333335,6.075949367088607,0.017341963703070184,0.015920827057714124,-8.207597524218337e-05,-0.009978837228235293,0.016677477138933382
3.4343434343434343,6.075949367088607,0.0175204549383631,0.01577231568379408,4.174345218560283e-05,-0.009987831186647153,0.016715243480497615
3.5353535353535355,6.075949367088607,0.01742272207012231,0.015845156355207085,-4.177197400080699e-05,-0.00998036352759882,0.01669010795689222
3.6363636363636362,6.075949367088607,0.01751125718716145,0.01583430663021069,-4.730630953264748e-05,-0.010003669145211641,0.016736113426157738
3.7373737373737375,6.075949367088607,0.017617248632952553,0.015661993690601853,-1.5858565870129637e-05,-0.009983772697066321,0.016725579610494465
3.8383838383838382,6.075949367088607,0.017374547419982123,0.015530843422488666,-2.3961664886277576e-05,-0.009871617252741235,0.016530043630640315
3.9393939393939394,6.075949367088607,0.01742062722613699,0.015512710436854728,1.2155555978126364e-05,-0.009880001298897515,0.01654937266288059
4.040404040404041,6.075949367088607,0.017366291903807965,0.015772014082518326,-6.323583236669318e-06,-0.009941491795897888,0.016626582396949592
4.141414141414141,6.075949367088607,0.017361788162300773,0.015594309378740533,-1.978591769134594e-06,-0.009886829262312392,0.016548990572415136
4.242424242424242,6.075949367088607,0.01739817157725141,0.01573157820780083,-0.00011007108543152791,-0.009938924935515674,0.016628727468778512
4.343434343434343,6.075949367088607,0.01742826147628403,0.01554276820339587,-2.8160329454433405e-05,-0.00989130890390397,0.016566257640415596
4.444444444444445,6.075949367088607,0.017442406495818224,0.015512763714060891,3.52454571797749e-05,-0.009886551062963734,0.01656222142607001
4.545454545454545,6.075949367088607,0.017294696237804764,0.015646778827102702,-0.00010208035845588531,-0.00988244251947224,0.016533395897579507
4.646464646464646,6.075949367088607,0.01753110683024578,0.015548883977559413,2.8786968223632554e-05,-0.009923997242341559,0.016628915767662716
4.747474747474747,6.075949367088607,0.017458627709681186,0.015631964371840782,-2.1701229905307487e-05,-0.009927177624456591,0.01662079294495052
4.848484848484849,6.075949367088607,0.017395380591480575,0.015632468691034632,8.910105324259886e-05,-0.009908354784754561,0.01658506610860362
4.94949494949495,6.075949367088607,0.017258660422375133,0.015617589019182924,8.64133918386769e-06,-0.009862874832467417,0.016499454683925063
5.05050505050505,6.075949367088607,0.017207589505078134,0.015520754045539892,-9.026628115539476e-05,-0.009818503065185408,0.016429991548903112
5.151515151515151,6.075949367088607,0.017199741836412603,0.015639064613684635,-4.570472215576212e-05,-0.00985164193502917,0.01647512834780887
5.252525252525253,6.075949367088607,0.017136942916578794,0.01563420188169242,-4.159745558897705e-06,-0.009831343439481364,0.016437174566245032
5.353535353535354,6.075949367088607,0.017308200143651444,0.015594082860603587,3.0682530514149045e-05,-0.00987068490127651,0.016518066761007207
5.454545454545454,6.075949367088607,0.01728728496136637,0.015548670503043711,-1.4354497320587579e-05,-0.009850786639323024,0.01648689467868273
5.555555555555555,6.075949367088607,0.01736082238046857,0.015632048250805306,-4.5197987906550945e-05,-0.009897861189382162,0.016564419751107215
5.656565656565657,6.075949367088607,0.01739848405386161,0.015518680746763148,8.485283888140632e-06,-0.009875149440187428,0.016538905525548965
5.757575757575758,6.075949367088607,0.01754258521116827,0.01570708712683311,4.554390021269225e-05,-0.009974901701400415,0.016700843999626243
5.858585858585858,6.075949367088607,0.017554123523707433,0.015556734467481442,-9.730987837154335e-05,-0.009933257397356662,0.01664640529204139
5.959595959595959,6.075949367088607,0.01747585733344946,0.01571421839425684,-6.750785814405018e-05,-0.009957022718311889,0.01666542776077209
6.0606060606060606,6.075949367088607,0.017378045441016808,0.015599696321965102,-5.2728251209218284e-05,-0.009893322528894574,0.0165608906144516
6.161616161616162,6.075949367088607,0.017595246757446968,0.015836982272962877,-1.371027356828814e-05,-0.010029668709122955,0.01678534089312151
6.262626262626262,6.075949367088607,0.017224942123885017,0.015785137666868856,5.259695113550824e-05,-0.009903023937226163,0.01655232367136479
6.363636363636363,6.075949367088607,0.017727592373103708,0.015723547364427874,6.667212262352126e-05,-0.010035341921259475,0.016815771473481983
6.4646464646464645,6.075949367088607,0.01746923432259886,0.015978616927051312,1.603099528701306e-06,-0.010034355374895053,0.01677367434939039
6.565656565656566,6.075949367088607,0.01766411656658845,0.015875296204017265,-4.842964541640584e-05,-0.010061823831181715,0.01684131815678615
6.666666666666667,6.075949367088607,0.01780288988854714,0.01591414938153419,-7.348153115474312e-05,-0.0101151117810244,0.01693816366724675
6.767676767676767,6.075949367088607,0.017633311117307402,0.015878285720644016,-2.817520501877201e-05,-0.010053479051385426,0.016824661892325878
6.8686868686868685,6.075949367088607,0.017607050382941934,0.015906471456955826,7.087230916041471e-05,-0.010054056551969328,0.016821803758621558
6.96969696969697,6.075949367088607,0.01782721572614857,0.015980070156021736,4.5608431316780205e-06,-0.01014218576465109,0.016979168623684066
7.070707070707071,6.075949367088607,0.017964566002537853,0.016068915010018694,3.122253842742574e-05,-0.010210044303766963,0.01709583286981972
7.171717171717171,6.075949367088607,0.01791671692423429,0.016026351281016316,-5.920617491681304e-05,-0.01018292046157518,0.017050618686980618
7.2727272727272725,6.075949367088607,0.017781632793776665,0.01608890640990821,1.204933876563817e-05,-0.010161161761105464,0.016998611237532487
7.373737373737374,6.075949367088607,0.018068472220863246,0.01610617416001716,8.753249487412851e-05,-0.010252393914264121,0.01717229046712268
7.474747474747475,6.075949367088607,0.018055781387383063,0.0163220468053214,-1.7825218545640223e-05,-0.01031334845781134,0.017254393577515334
7.575757575757575,6.075949367088607,0.018048826067022895,0.016067633456684334,3.8477228124782103e-05,-0.010234937857112169,0.01714443020980534
7.6767676767676765,6.075949367088607,0.018140615273073948,0.016404440836660972,-5.783961838161277e-05,-0.010363516832920475,0.017338136806640658
7.777777777777778,6.075949367088607,0.018180039852041974,0.016413279804611127,-3.1144009770917384e-05,-0.010377995896995932,0.017364286102911852
7.878787878787879,6.075949367088607,0.018364080142270794,0.016531462734118173,-1.563473853276425e-05,-0.010468662862916688,0.01751982666632636
7.979797979797979,6.075949367088607,0.01830569965751271,0.016379624753147783,4.6729488493630453e-05,-0.010405597323198148,0.01742288169925954
8.080808080808081,6.075949367088607,0.018388700197285834,0.016693540214786452,-1.2150648705783013e-05,-0.010524672123621686,0.017602457684144618
8.181818181818182,6.075949367088607,0.018460091196779417,0.016718884965567622,-3.3195000035300453e-07,-0.010553692848704112,0.017654006362382048
8.282828282828282,6.075949367088607,0.018531138904266265,0.01680028020734279,-6.754405787144557e-05,-0.010599425733482716,0.017729576548266495
8.383838383838384,6.075949367088607,0.018756943995160424,0.016885201150336253,5.164530869974905e-05,-0.010692643543649002,0.017894865054388035
8.484848484848484,6.075949367088607,0.019119767095827606,0.016968299031108913,2.1720043994444903e-05,-0.010826419838080956,0.018140015314260276
8.585858585858587,6.075949367088607,0.019150427545837564,0.016966576161037653,-4.7593976379355957e-05,-0.010835101112062566,0.018157455490886976
8.686868686868687,6.075949367088607,0.019130624669212604,0.017291203628615547,-8.313214628551357e-05,-0.010926548489348447,0.018281021014259578
8.787878787878787,6.075949367088607,0.01918346527772905,0.017396199701029194,-5.011564926121775e-07,-0.010973899493627471,0.01835520939472671
8.88888888888889,6.075949367088607,0.01935440936013546,0.01732909490919569,8.022406749292304e-05,-0.011005051280799344,0.018425949176132383
8.98989898989899,6.075949367088607,0.019636543810707886,0.01766462637631956,-1.0711904743976201e-06,-0.011190351056108232,0.01872860570220797
9.09090909090909,6.075949367088607,0.019560907764745523,0.017817200664502958,4.069932249053071e-05,-0.011213432528774542,0.01875009606856175
9.191919191919192,6.075949367088607,0.01994298653544613,0.01779975180078378,-8.593975301718415e-05,-0.011322821500868973,0.018963011958774457
9.292929292929292,6.075949367088607,0.020040905016828,0.018117099140081947,-1.9031067510667173e-05,-0.011447401247072983,0.019151636448168936
9.393939393939394,6.075949367088607,0.019999114629341303,0.01815760090381146,3.264281837895897e-05,-0.011447014659945829,0.01914498136147556
9.494949494949495,6.075949367088607,0.020191115271305144,0.018396727101177936,-5.9506117697684385e-05,-0.011576352711744925,0.01935667557598282
9.595959595959595,6.075949367088607,0.020512312215393045,0.01849732966226005,1.9763595121754218e-05,-0.011702892563295928,0.019582755875306102
9.696969696969697,6.075949367088607,0.020721772398565257,0.018652529934033053,2.096272021828404e-05,-0.011812290699779493,0.019768575129088046
9.797979797979798,6.075949367088607,0.021030720209527433,0.018987065610959725,3.0440342535893824e-05,-0.012005335746146147,0.02008708461737646
9.8989898989899,6.075949367088607,0.02124660224515199,0.01905527115442934,9.368938054829167e-05,-0.012090562019874398,0.020240751763235688
10.0,6.075949367088607,0.021456765275159488,0.019190801187843092,-4.2503133210570195e-05,-0.012194269938900772,0.02041843601561606
0.0,6.177215189873418,0.02137721787571233,0.01932365627167538,-9.327649727411953e-05,-0.012210262244216313,0.02042863742522701
0.10101010101010101,6.177215189873418,0.021299335608853696,0.01915674037792119,-3.9707607539018664e-05,-0.012136822796032466,0.02031308166888831
0.20202020202020202,6.177215189873418,0.020862708548432578,0.018770864284581155,3.256875893254708e-05,-0.01189007184990412,0.019899499123540332
0.30303030303030304,6.177215189873418,0.020779042534416082,0.018771659203858773,-4.8808287019603665e-05,-0.011865210521482455,0.019851796886453107
0.40404040404040403,6.177215189873418,0.020418351631563393,0.018487543654424017,3.598641873628662e-05,-0.011671768585796223,0.019524780962958163
0.5050505050505051,6.177215189873418,0.020410702527411614,0.018153859316081378,-6.722864858274368e-06,-0.011569368553047897,0.019381086117560082
0.6060606060606061,6.177215189873418,0.020164531820019056,0.018126053292206765,7.449626522205906e-05,-0.011487175533667746,0.019226945211629754
0.7070707070707071,6.177215189873418,0.019937278006238245,0.01809018945796476,9.058408760808111e-05,-0.011408240239260901,0.019081548389606913
0.8080808080808081,6.177215189873418,0.020035717828023457,0.01789783988308142,-5.557030240103296e-05,-0.011380067313331462,0.019057173345267134
0.9090909090909091,6.177215189873418,0.01970815068211604,0.01791093613210475,2.3055350317272568e-05,-0.011285726044266238,0.018873870904919956
1.0101010101010102,6.177215189873418,0.019463909436021068,0.017523000117851493,-7.791226011308598e-06,-0.011096072866161768,0.018569690316001874
1.1111111111111112,6.177215189873418,0.019432750989107142,0.017326222704150965,-1.8553443100456719e-06,-0.011027692107977431,0.018469803548868846
1.2121212121212122,6.177215189873418,0.019137749756472512,0.017268486379438987,7.232916309419035e-06,-0.01092187084077345,0.01827496302378506
1.3131313131313131,6.177215189873418,0.01908503392942085,0.01717891588997071,9.427956720976362e-05,-0.010879184945817468,0.018207694651477847
1.4141414141414141,6.177215189873418,0.01896041317591863,0.017211772609017014,4.6307928612887956e-05,-0.010851655735480692,0.018149559147866177
1.5151515151515151,6.177215189873418,0.018975772276304755,0.01712219899983418,4.467582399031522e-05,-0.010829391382841681,0.018120393780749356
1.6161616161616161,6.177215189873418,0.01878258892487602,0.01679424376168492,1.7314635432167015e-05,-0.01067304980596828,0.01787159178018783
1.7171717171717171,6.177215189873418,0.01860531395881913,0.016806161988811547,-2.798938504246946e-05,-0.010623442784289203,0.017774229048620315
1.8181818181818181,6.177215189873418,0.018549807996434187,0.016636280437205407,-4.4531921890882986e-05,-0.010555826530091877,0.01767108782393219
1.9191919191919191,6.177215189873418,0.018370316827521202,0.016636064030744354,-2.708625482861451e-05,-0.010501914257479667,0.017567572420981604
2.0202020202020203,6.177215189873418,0.01836113893418866,0.016400679389349512,-6.030276708859597e-05,-0.01042854549706145,0.01746394754289641
2.121212121212121,6.177215189873418,0.018343001098465615,0.016564718389586394,1.8233242517599237e-05,-0.010472315846415602,0.017521698957636892
2.2222222222222223,6.177215189873418,0.01835528767185689,0.016492586188982677,4.2541699129930094e-05,-0.01045436215825187,0.017498607091836406
2.323232323232323,6.177215189873418,0.018119457624220573,0.016290517418797834,-1.1607955816094313e-05,-0.010322992512905521,0.017277753515878763
2.4242424242424243,6.177215189873418,0.018002747943213708,0.016313149302052417,4.553675748871731e-05,-0.010294769173579837,0.017220408804727142
2.525252525252525,6.177215189873418,0.017902990802847876,0.01623038005693057,-5.3107033946140513e-05,-0.010240011257933534,0.017128293337763553
2.6262626262626263,6.177215189873418,0.018135869657334134,0.01614601693793335,4.953853099776184e-05,-0.010284565978580245,0.01722756322625273
2.727272727272727,6.177215189873418,0.017931080467115362,0.016094790990146806,3.818916990809687e-05,-0.010207761437178652,0.017087227002268272
2.8282828282828283,6.177215189873418,0.017832987025274326,0.016142147173749333,2.5150368324936412e-05,-0.010192540259707098,0.01705061694297676
2.929292929292929,6.177215189873418,0.017756394579865022,0.01590967318602167,-6.452476155548168e-05,-0.010099820329766009,0.01690920769784141
3.0303030303030303,6.177215189873418,0.01761918888460044,0.015958076252349785,1.9678010860054576e-05,-0.010073179541085067,0.0168501874343986
3.131313131313131,6.177215189873418,0.01770393952031904,0.015788806048304443,8.084866836848315e-05,-0.010047823670587045,0.01682888627076643
3.2323232323232323,6.177215189873418,0.017584821895508702,0.015968856401963806,1.7330998170461934e-06,-0.010066103489241753,0.016835107638227924
3.3333333333333335,6.177215189873418,0.017586935911513307,0.016098217714615632,3.4900535162404044e-05,-0.01010554608783868,0.016891958419566734
3.4343434343434343,6.177215189873418,0.017694382838323013,0.015826252654412194,-3.810245286105645e-05,-0.010056190647820562,0.016838350249890156
3.5353535353535355,6.177215189873418,0.01752094901756203,0.015850169202047865,-1.6001064432277125e-05,-0.010011335465882967,0.016748202285706098
3.6363636363636362,6.177215189873418,0.017412803139386795,0.015757459792980166,-4.5166465158131984e-05,-0.009951078879710088,0.016647156723452315
3.7373737373737375,6.177215189873418,0.017415040897438235,0.015591671623729778,5.879080801116208e-07,-0.009902013756350404,0.016578729611520092
3.8383838383838382,6.177215189873418,0.017544057083968775,0.015703483044238357,-4.4588935226436727e-05,-0.009974262038462139,0.016700194018645916
3.9393939393939394,6.177215189873418,0.017463942737901868,0.015820244328106144,2.637335722798223e-05,-0.009985256119802404,0.016702924060473422
4.040404040404041,6.177215189873418,0.017502164735383036,0.015743477198701637,6.216974282803837e-05,-0.009973692580225403,0.016692798103429846
4.141414141414141,6.177215189873418,0.01744392638151934,0.015876158847813293,-1.0975893725368017e-05,-0.00999602556879979,0.01671528649509287
4.242424242424242,6.177215189873418,0.01738760611942645,0.015727960390354304,4.978149895591562e-05,-0.009934669952934226,0.016620271925223234
4.343434343434343,6.177215189873418,0.017492114342883378,0.01555633384996206,2.425689550790328e-05,-0.009914534457853631,0.01660909936653151
4.444444444444445,6.177215189873418,0.017416005512249883,0.01568318776019458,-7.35717049236661e-05,-0.009929757981733338,0.016617983639128205
4.545454545454545,6.177215189873418,0.017324160883390203,0.015569888228961177,2.7253717901263892e-05,-0.009868214733705414,0.016517110808383605
4.646464646464646,6.177215189873418,0.017369404999247853,0.015465348381864285,3.383367630282182e-05,-0.00985042601433364,0.016500083795369706
4.747474747474747,6.177215189873418,0.01729723966817803,0.015626602434219716,5.093379564273619e-05,-0.009877152630719322,0.016525613423595997
4.848484848484849,6.177215189873418,0.01739262399516109,0.015626998527758392,3.347694681547095e-05,-0.009905886756875844,0.01658057010404898
4.94949494949495,6.177215189873418,0.017331920236554176,0.015734001418040787,2.0550510832211294e-05,-0.009919776496378487,0.016590812792035198
5.05050505050505,6.177215189873418,0.017270832918379494,0.0156648044072695,-0.00012102385476684046,-0.0098806911976947,0.016527779267518437
5.151515151515151,6.177215189873418,0.017347085556973094,0.01574333746928533,-4.221040998999148e-05,-0.009927126907877526,0.016603565132732475
5.252525252525253,6.177215189873418,0.017492944894765456,0.01549968890873486,-9.779445183423059e-05,-0.009897790141050094,0.01658725307749242
5.353535353535354,6.177215189873418,0.017281875285756164,0.015428168718383884,6.142012041905204e-05,-0.009813013201242015,0.016433965833304233
5.454545454545454,6.177215189873418,0.017184908190156323,0.015574294758734904,4.050357032102835e-05,-0.009827760884667368,0.016439033511687767
5.555555555555555,6.177215189873418,0.017269844024726106,0.015842461720597254,-2.6014562370779744e-05,-0.009933691723597008,0.016602297834845476
5.656565656565657,6.177215189873418,0.017342204884813996,0.01570155304941889,3.695783508013231e-06,-0.009913127380269865,0.01658286252171895
5.757575757575758,6.177215189873418,0.01755838839638314,0.015571257135358818,1.6662566757568208e-05,-0.009938893659522587,0.016653999644965632
5.858585858585858,6.177215189873418,0.017363944134952347,0.015669255573780207,-1.2190022731940527e-06,-0.009909959912619767,0.01658167820809093
5.959595959595959,6.177215189873418,0.017320815361756163,0.015715278265801273,3.819398953939503e-07,-0.009910828088267232,0.01657646473180228
6.0606060606060606,6.177215189873418,0.017519838068573646,0.01572661528757625,-2.805846236032897e-06,-0.009973936006844968,0.016695610943170004
6.161616161616162,6.177215189873418,0.01742245051037604,0.01568210157782751,-7.400732465901557e-05,-0.009931365626461065,0.01662124797654262
6.262626262626262,6.177215189873418,0.01750163606672022,0.015729256396057593,-6.696946533898916e-05,-0.009969267738833344,0.016686596581351538
6.363636363636363,6.177215189873418,0.017539506973120633,0.015889151301972007,-4.795592327779276e-05,-0.010028597482527792,0.01677553138386178
6.4646464646464645,6.177215189873418,0.017669154703027053,0.01596351234583252,5.1960905063664636e-05,-0.010089800114657871,0.016881323552962853
6.565656565656566,6.177215189873418,0.017648244238530487,0.015824329086550622,-1.4770039192040732e-05,-0.010041771997524332,0.016810679509589206
6.666666666666667,6.177215189873418,0.017508885683299207,0.015843736138229328,-7.115628226590879e-05,-0.010005786546458562,0.016738998700566825
6.767676767676767,6.177215189873418,0.017542479033144095,0.01585390027989739,3.250931127770237e-05,-0.010018913793912445,0.016762195024087174
6.8686868686868685,6.177215189873418,0.017843097547615996,0.01566795009913114,5.002852837634787e-05,-0.01005331429402414,0.016861302944125682
6.96969696969697,6.177215189873418,0.01788287879244129,0.01596412471016976,-3.149556657917484e-05,-0.010154101050783315,0.01700497281267332
7.070707070707071,6.177215189873418,0.017778074903806382,0.015824555492808753,3.510449496221805e-05,-0.01008078911898454,0.016886387059890547
7.171717171717171,6.177215189873418,0.01786455137510008,0.01619870718453442,3.131244247805751e-05,-0.010218977567890348,0.01709270648501053
7.2727272727272725,6.177215189873418,0.017775890822743133,0.016012570948959595,5.48380770184486e-05,-0.010136538531510818,0.016963373237699142
7.373737373737374,6.177215189873418,0.017809582592746464,0.01624872055386297,-3.9070859918036514e-05,-0.010217490943982829,0.017082851068577265
7.474747474747475,6.177215189873418,0.018056194111792254,0.016238691685038907,7.141858491334783e-05,-0.010288465739049348,0.01721997636759925
7.575757575757575,6.177215189873418,0.01809215362243763,0.01613501358268741,-3.548097044860689e-05,-0.010268150161537511,0.017197421849541393
7.6767676767676765,6.177215189873418,0.01791837391678294,0.01622932247872769,-3.2814942744182356e-05,-0.010244308918653189,0.017136487207467334
7.777777777777778,6.177215189873418,0.01799875598580063,0.016277220958491673,-6.290602569694355e-05,-0.010282793083287691,0.017203060265932633
7.878787878787879,6.177215189873418,0.01823768276575862,0.016481413488415926,2.8141186087751576e-05,-0.010415728876252363,0.017426119713999037
7.979797979797979,6.177215189873418,0.018453766090865107,0.016541041923431775,-1.4353350097880697e-05,-0.010498442404289066,0.017575655047561218
8.080808080808081,6.177215189873418,0.01839908303443471,0.01658315451750578,8.984838479880331e-06,-0.010494671265582147,0.017561682023684782
8.181818181818182,6.177215189873418,0.0182961435755737,0.016630854591394503,-3.722782042182646e-05,-0.01047809945009046,0.017523066184926415
8.282828282828282,6.177215189873418,0.01887536443723206,0.0168588726812027,5.612532032918922e-05,-0.010720271135530429,0.017952522246622533
8.383838383838384,6.177215189873418,0.01862281603356207,0.016846437983081736,9.051018870374908e-05,-0.01064077620499314,0.01780191592612294
8.484848484848484,6.177215189873418,0.018868196716693146,0.01697690642806412,-2.4908373197792066e-05,-0.010753530943427179,0.01799729008386081
8.585858585858587,6.177215189873418,0.01915828726765023,0.01730606791637655,9.82089259155118e-06,-0.010939306555208035,0.01830261255915214
8.686868686868687,6.177215189873418,0.019204302954275873,0.01725532529654992,3.83365827671072e-05,-0.010937888475247737,0.018307905875893468
8.787878787878787,6.177215189873418,0.0192482227217621,0.017264248686616707,-4.856274577838571e-05,-0.010953741422513642,0.0183371026020157
8.88888888888889,6.177215189873418,0.019174442310406162,0.01752755814276979,9.224225192303957e-05,-0.011010600135952786,0.01840703413946853
8.98989898989899,6.177215189873418,0.01957057660044201,0.017590302996293744,6.788841559635018e-06,-0.011148263879020725,0.01865942105281798
9.09090909090909,6.177215189873418,0.019779298182253508,0.017625950306712768,-3.6141754219251566e-05,-0.01122157454668988,0.018795471598615034
9.191919191919192,6.177215189873418,0.019888336531658987,0.017710922307486852,-3.543004043543156e-05,-0.011279777651743752,0.01889406472160736
9.292929292929292,6.177215189873418,0.01987020430715639,0.017957981408808776,-6.241229641156372e-05,-0.011348455714789549,0.01898675964545666
9.393939393939394,6.177215189873418,0.020294105135355834,0.01830343715218141,-1.589060634887321e-05,-0.011579262686261173,0.019375639201277817
9.494949494949495,6.177215189873418,0.020286189549230126,0.018598619433132114,8.049642301525477e-07,-0.011665442694708672,0.019497256576635653
9.595959595959595,6.177215189873418,0.020432553078248813,0.01848766656732154,-9.34958464328621e-05,-0.011676065893671105,0.019533536197781774
9.696969696969697,6.177215189873418,0.020837778096506394,0.01867865023455941,-0.00013456758769761915,-0.01185492849931974,0.019847864549145285
9.797979797979798,6.177215189873418,0.020866686300758747,0.018804238176502806,-6.709305672424868e-06,-0.011901277343178465,0.019915721590327336
9.8989898989899,6.177215189873418,0.021216312641744086,0.019091335850671787,1.561921692031788e-05,-0.012092294547724761,0.020237687822446455
10.0,6.177215189873418,0.021414084169919214,0.01937666779042817,-1.1462065505321978e-05,-0.012237225588104216,0.02047156698049875
0.0,6.2784810126582276,0.021525216802684877,0.019334961902710602,3.3736922496501636e-05,-0.012258053611618643,0.02051803786657433
0.10101010101010101,6.2784810126582276,0.02100780828016818,0.0191381681714306,-1.3509502063806193e-05,-0.012043792935479634,0.020138199259992665
0.20202020202020202,6.2784810126582276,0.020932348275247196,0.018952201650465943,6.802623306687543e-06,-0.01196536497771394,0.020015873825865112
0.30303030303030304,6.2784810126582276,0.02078145311046976,0.018710883030738982,-2.347082736466812e-05,-0.011847700842362622,0.019827462052745794
0.40404040404040403,6.2784810126582276,0.02053749476361486,0.018588906873374247,-0.00013829222662765705,-0.011737920491096732,0.019637310064239376
0.5050505050505051,6.2784810126582276,0.020192278434362068,0.018172501293582097,-7.428501582743683e-05,-0.011509433918383249,0.019262405365321363
0.6060606060606061,6.2784810126582276,0.020155757618092553,0.01813498065737233,3.4702305806210894e-05,-0.011487221482639464,0.019225280929387113
0.7070707070707071,6.2784810126582276,0.020201064610595957,0.018005041793930643,1.0992767455434483e-05,-0.011461831921357978,0.019197497006896422
0.8080808080808081,6.2784810126582276,0.019789486198063543,0.017793072209212342,3.882359817581532e-05,-0.011274767522182764,0.018870769659331925
0.9090909090909091,6.2784810126582276,0.019657876718920813,0.017688562435335436,-1.0519866596345169e-05,-0.011203931746276874,0.018750949587662772
1.0101010101010102,6.2784810126582276,0.019495377942027527,0.01755300463666192,5.25608638719642e-05,-0.011114514773606834,0.018600633360198127
1.1111111111111112,6.2784810126582276,0.019459759033589718,0.017461532144085915,-7.546483306075361e-05,-0.01107638735330269,0.018542038814710095
1.2121212121212122,6.2784810126582276,0.019150159284618797,0.017340518487184407,-3.368785286776456e-05,-0.01094720333154096,0.01831261574809808
1.3131313131313131,6.2784810126582276,0.019257182290429546,0.017116710066950664,1.0099446667968152e-05,-0.010912167707214064,0.018281179756997442
1.4141414141414141,6.2784810126582276,0.01900354727675236,0.01707545502989576,-0.00010191365457173323,-0.010823700691994436,0.01811747542634006
1.5151515151515151,6.2784810126582276,0.0189252991314575,0.016937425426186897,-8.291690000474914e-06,-0.01075881736729332,0.01801381944041342
1.6161616161616161,6.2784810126582276,0.018758050272180738,0.017013188647541828,-3.345997912381653e-05,-0.010731371675916769,0.017949433103594963
1.7171717171717171,6.2784810126582276,0.01872405075469894,0.01688115741950436,-0.00010386140441541092,-0.010681562452260991,0.017874906034431294
1.8181818181818181,6.2784810126582276,0.018601199539198556,0.01672562904677822,5.966200581229862e-05,-0.010598048575793032,0.017738241363071693
1.9191919191919191,6.2784810126582276,0.018547244573365883,0.016754824065342868,-1.7262073095398968e-05,-0.010590620591612625,0.01771918409348226
2.0202020202020203,6.2784810126582276,0.018514270473473305,0.016592607480473243,3.781500104460357e-05,-0.010532063386183965,0.017632274423205762
2.121212121212121,6.2784810126582276,0.018299204870139026,0.016424872142641864,-3.2963447014145564e-05,-0.010417223103834267,0.01743784629029419
2.2222222222222223,6.2784810126582276,0.01812094987984979,0.016357981853682407,1.8613290584542464e-05,-0.010343679520059658,0.017306971570182895
2.323232323232323,6.2784810126582276,0.018133626649991488,0.01630625863295635,6.350448161119891e-05,-0.01033196558488435,0.01729285917468445
2.4242424242424243,6.2784810126582276,0.018222100290740915,0.016294135419870986,-4.0060779300380994e-05,-0.01035487071318357,0.0173388359734218
2.525252525252525,6.2784810126582276,0.018117051728860148,0.015988946822919757,-2.217482499043538e-05,-0.010231799565533972,0.017152343348362315
2.6262626262626263,6.2784810126582276,0.018091573762754318,0.016250972702768252,-6.623277737659021e-07,-0.01030276393965677,0.017245100317095717
2.727272727272727,6.2784810126582276,0.0178061194759872,0.016005467414299358,-3.536790623859499e-05,-0.010143476067085967,0.016977672560208896
2.8282828282828283,6.2784810126582276,0.017990901652848622,0.015883910955917995,-1.7802836748178294e-05,-0.010162443782629985,0.01703544071899716
2.929292929292929,6.2784810126582276,0.017775465837904344,0.01608505947775016,2.0221335334722648e-05,-0.01015815759469635,0.016993473029874303
3.0303030303030303,6.2784810126582276,0.01757148487648257,0.016160533061744777,-7.656614643807899e-05,-0.010119605381468203,0.01691073429624503
3.131313131313131,6.2784810126582276,0.017599214285396056,0.016084917025368753,-7.262947844259674e-05,-0.010105239393229442,0.01689351422313968
3.2323232323232323,6.2784810126582276,0.017722219567966588,0.015858955074383684,-5.759233228296185e-05,-0.010074352392705082,0.01686824202903212
3.3333333333333335,6.2784810126582276,0.01767654446705577,0.01585090458144359,4.091000939946116e-05,-0.010058234714549807,0.016838265990163324
3.4343434343434343,6.2784810126582276,0.017540746477102746,0.01583462896845233,4.022993051215746e-05,-0.010012612633666523,0.016753116265037372
3.5353535353535355,6.2784810126582276,0.017651281808084483,0.015586070921547379,2.1049243154256965e-06,-0.009971205818889557,0.016714641468335907
3.6363636363636362,6.2784810126582276,0.017502899725978224,0.01567487074252965,3.220989495765194e-05,-0.009953331140552362,0.016664347968657338
3.7373737373737375,6.2784810126582276,0.017366252014002423,0.01570741183829583,2.135736487855328e-05,-0.009922099155689474,0.016599156352393705
3.8383838383838382,6.2784810126582276,0.01735764140273659,0.015685764018696403,5.1469580126608696e-05,-0.009913021626429899,0.016585264191588293
3.9393939393939394,6.2784810126582276,0.01745547032968391,0.01585187078000371,-1.6912859279234345e-05,-0.009992202332906286,0.016711500522708894
4.040404040404041,6.2784810126582276,0.017519828588506633,0.01554862055714505,-2.3330945482060213e-05,-0.009920534743695504,0.016622167760279267
4.141414141414141,6.2784810126582276,0.017487826802830564,0.01567502030793718,3.993739261422572e-06,-0.009948854133230323,0.01665558031153057
4.242424242424242,6.2784810126582276,0.0172755962968365,0.015612373389353068,8.327924769557133e-06,-0.00986639090585687,0.016506955455592262
4.343434343434343,6.2784810126582276,0.01732093303525288,0.01541850874673429,0.0001227120313621175,-0.009821832534596151,0.01645379440758617
4.444444444444445,6.2784810126582276,0.017498671282571664,0.015637150144047422,-9.607021909516288e-06,-0.009940746427985725,0.016646167366714974
4.545454545454545,6.2784810126582276,0.017343301606378973,0.015605530501214578,-4.172881911417472e-05,-0.009884649632278064,0.016543170630416926
4.646464646464646,6.2784810126582276,0.017253065077725043,0.015565954557459297,1.0656321764120186e-05,-0.009845705890555301,0.016474438064951653
4.747474747474747,6.2784810126582276,0.017337268364982124,0.01570358380405051,-5.446178348204869e-05,-0.009912255650709788,0.01658116612922677
4.848484848484849,6.2784810126582276,0.017174020098041212,0.01582680324930403,4.211462182455545e-05,-0.009900247004203572,0.016541769894812555
4.94949494949495,6.2784810126582276,0.01726472136861159,0.015573648478448533,-1.1979239057736405e-05,-0.009851510954118037,0.016484382296569847
5.05050505050505,6.2784810126582276,0.01726738828675941,0.015672102858108217,3.1449053411069204e-05,-0.009881847343460287,0.016527679451415273
5.151515151515151,6.2784810126582276,0.017201674829499435,0.015615883330639116,3.947393450606722e-05,-0.009845267448041565,0.01646629152181597
5.252525252525253,6.2784810126582276,0.017279906287287452,0.015684015504308507,3.91510496727941e-05,-0.009889176537478788,0.016539945100515995
5.353535353535354,6.2784810126582276,0.01739360383067875,0.015539582762195683,9.217923687501742e-06,-0.00987995597786233,0.016544696893337353
5.454545454545454,6.2784810126582276,0.017213257123470202,0.015601555353300099,6.508157001849799e-05,-0.009844443743031091,0.016467054176465358
5.555555555555555,6.2784810126582276,0.017343157658645546,0.015548639337328512,-1.0145769597173904e-05,-0.009867539098792216,0.01651917395695593
5.656565656565657,6.2784810126582276,0.017317240555305775,0.015623338302405386,-8.904072930491956e-05,-0.009882173657313349,0.016536208672379624
5.757575757575758,6.2784810126582276,0.01726535565434336,0.01572537406389721,2.4718990838353106e-06,-0.009897218915472171,0.01654919144975187
5.858585858585858,6.2784810126582276,0.017246645571736118,0.01561905492287601,-4.32578872690517e-05,-0.009859710148383638,0.01649336137586916
5.959595959595959,6.2784810126582276,0.01746702526234075,0.015552406750070235,1.0168703585439955e-05,-0.009905829603723295,0.016592780232643423
6.0606060606060606,6.2784810126582276,0.017512197881031494,0.015863067885761077,8.791495614626715e-05,-0.010012579730037772,0.01674932836490846
6.161616161616162,6.2784810126582276,0.01742592999709501,0.01557152417909569,-4.298564886648613e-06,-0.009899236252857208,0.016576705543135038
6.262626262626262,6.2784810126582276,0.017451815998676484,0.01565368541871902,-2.2347054583385166e-05,-0.00993165042521865,0.01662588371737795
6.363636363636363,6.2784810126582276,0.017487130033371386,0.015870058832340866,-6.20854370266451e-06,-0.010007156659713674,0.01673728823153995
6.4646464646464645,6.2784810126582276,0.017430421602398778,0.01595011899366029,6.456642866840476e-05,-0.01001416217881772,0.0167398058815656
6.565656565656566,6.2784810126582276,0.017544969166931813,0.015845651368758845,-1.2142148363907682e-05,-0.010017186160707197,0.016760059306855476
6.666666666666667,6.2784810126582276,0.017567821724334826,0.015727786881078794,-2.2231224554486094e-05,-0.009988682581624086,0.016723939935061837
6.767676767676767,6.2784810126582276,0.017765501984206605,0.015916808259926484,-2.146804833874135e-05,-0.010104693073239926,0.01691712563769186
6.8686868686868685,6.2784810126582276,0.017627739982334148,0.015941237076842432,-5.6634561309152424e-05,-0.010070693117752974,0.016848201585277847
6.96969696969697,6.2784810126582276,0.017742960631946976,0.015997550308938818,-4.0211441783436045e-05,-0.010122153282265739,0.016937981385481183
7.070707070707071,6.2784810126582276,0.018011364745035358,0.01589921548374755,-3.987069994315207e-05,-0.01017317406863487,0.017053812264646032
7.171717171717171,6.2784810126582276,0.017730220062370797,0.01619785315509461,3.0051855261767038e-05,-0.010178421965239623,0.0170159442482139
7.2727272727272725,6.2784810126582276,0.017948644653744565,0.016213333242195618,-1.9839832171915718e-05,-0.010248593368782054,0.01714700683993528
7.373737373737374,6.2784810126582276,0.017906653621616926,0.01610366863861852,-5.6588133177948264e-05,-0.010203096678070634,0.017076978006907564
7.474747474747475,6.2784810126582276,0.018059976818321687,0.01642901355630011,-5.9437511667872744e-05,-0.010346697112386538,0.01730255020481422
7.575757575757575,6.2784810126582276,0.018058205569207234,0.016281775750181447,0.00011752651288862306,-0.010301994395816604,0.01723997662046353
7.6767676767676765,6.2784810126582276,0.01811311544717443,0.016346871640013617,-1.7930114287524973e-05,-0.010337996126156414,0.017297784680965284
7.777777777777778,6.2784810126582276,0.017991789506096804,0.01663017911756261,9.553484646707399e-05,-0.010386590587097825,0.01735188882233591
7.878787878787879,6.2784810126582276,0.018442185224997156,0.016634774654450058,-1.3998276462096656e-05,-0.010523087963834164,0.017608205933007857
7.979797979797979,6.2784810126582276,0.018508577392637535,0.01660477190391334,9.902207959148474e-05,-0.010534004788965263,0.017634755380393278
8.080808080808081,6.2784810126582276,0.018496245641698852,0.01670792187449929,3.1867495848573476e-05,-0.010561250254859442,0.017670171919403
8.181818181818182,6.2784810126582276,0.018495479684548094,0.01667218662713443,-9.132263822327876e-05,-0.010550299893504757,0.01765529682857607
8.282828282828282,6.2784810126582276,0.018534968485628498,0.01669526836885193,-0.00010977756022198935,-0.010569071056344128,0.017688044632848295
8.383838383838384,6.2784810126582276,0.018793376574464598,0.01697257634713899,2.1922914697489085e-05,-0.010729785876481076,0.017952403015781184
8.484848484848484,6.2784810126582276,0.018829386564457706,0.017029474220921447,-2.3287224815691134e-05,-0.010757658235613747,0.01799710711264814
8.585858585858587,6.2784810126582276,0.0189763048022398,0.017235246433854916,-9.761372118719157e-05,-0.010863465370828414,0.01816923661655499
8.686868686868687,6.2784810126582276,0.019092156936706805,0.01735380998694146,-2.661491682201056e-05,-0.010933790077094479,0.018285120696884313
8.787878787878787,6.2784810126582276,0.019272647172863852,0.017371804267455906,-2.502415793610291e-05,-0.010993335432095928,0.018396079386086842
8.88888888888889,6.2784810126582276,0.019366636902017766,0.017444650975113697,1.5000652037218743e-05,-0.01104338636313944,0.01848077179880102
8.98989898989899,6.2784810126582276,0.019564001385337104,0.017463539025481995,-8.034796244696359e-06,-0.011108262123245729,0.018602925508812814
9.09090909090909,6.2784810126582276,0.019593003834782182,0.017710525755664706,-5.716338854603192e-05,-0.011191058877134065,0.01872313877863632
9.191919191919192,6.2784810126582276,0.01988162771522009,0.017874972668016537,-9.995626095023489e-06,-0.011326980114970986,0.01895812533509919
9.292929292929292,6.2784810126582276,0.020110206800462493,0.018017957446616707,-3.419195562088221e-06,-0.011438449274123758,0.019149997201168414
9.393939393939394,6.2784810126582276,0.020190475865724655,0.018383288853062764,8.613375952505793e-05,-0.011572129415636224,0.01935085351845578
9.494949494949495,6.2784810126582276,0.020522337360030295,0.018520646102413663,4.2512183556280834e-05,-0.011712895038733188,0.019598447315732296
9.595959595959595,6.2784810126582276,0.020640977301785046,0.018450553959957046,0.0001733748168368319,-0.011727459378522627,0.019639898074852582
9.696969696969697,6.2784810126582276,0.02077547385879206,0.018709269858588482,4.18323424063777e-05,-0.011845423115214164,0.019823430471774105
9.797979797979798,6.2784810126582276,0.021116722376129656,0.018900450185665652,0.00011117687464884621,-0.012005151768538593,0.020101355742067843
9.8989898989899,6.2784810126582276,0.021103704123196464,0.019182705123297467,-7.086783610763404e-05,-0.012085922773948179,0.020212160624554498
10.0,6.2784810126582276,0.021484997809667228,0.01953930624041866,-6.163017296802863e-05,-0.012307291215025768,0.020581522351252768
0.0,6.379746835443038,0.02155994193728349,0.019268734204652957,2.046615937821945e-05,-0.012248602842580933,0.020510574836468412
0.10101010101010101,6.379746835443038,0.021190915601890264,0.019103781560421824,2.1910375156529045e-06,-0.012088409148693625,0.02022826650093475
0.20202020202020202,6.379746835443038,0.021171267252482147,0.01869702668231116,-6.14505692093179e-05,-0.011960488180437993,0.02004926291997907
0.30303030303030304,6.379746835443038,0.020705123374101526,0.018648179747610696,-4.114468023518814e-05,-0.011805990936513666,0.019757250773156602
0.40404040404040403,6.379746835443038,0.020623395665893218,0.01858549903684762,-1.4491250335479554e-06,-0.011762668410822252,0.01968372752441852
0.5050505050505051,6.379746835443038,0.020516731755873898,0.018329820731350865,4.457301982117548e-05,-0.01165396574616743,0.019515546499389923
0.6060606060606061,6.379746835443038,0.020076298896752876,0.018046982426750582,-4.02825062198054e-05,-0.011436984397051037,0.019142612328526005
0.7070707070707071,6.379746835443038,0.020169269772137267,0.018000704665841947,-6.824141727818123e-05,-0.011450992331393765,0.019177531483151693
0.8080808080808081,6.379746835443038,0.019742604475829355,0.0178318573043113,-1.910366674696665e-05,-0.011272338534042197,0.018859993516227955
0.9090909090909091,6.379746835443038,0.01966728069816979,0.017779315498899207,-1.5933313000469742e-05,-0.011233978859120699,0.018794572693818228
1.0101010101010102,6.379746835443038,0.01942562735995382,0.017589978272345732,-3.142615798325502e-05,-0.011104681689689866,0.018576031157686124
1.1111111111111112,6.379746835443038,0.01941102661891979,0.0173893870106498,6.918614451544774e-05,-0.011040124088870876,0.018483702037847452
1.2121212121212122,6.379746835443038,0.019350788052725193,0.01746486542092179,-6.47056479180717e-05,-0.011044696042094095,0.018480480885664
1.3131313131313131,6.379746835443038,0.019013524768393044,0.01724784927609833,7.354129569422555e-05,-0.010878412213347411,0.01819550066151555
1.4141414141414141,6.379746835443038,0.018870539942320463,0.01706555913530234,-4.2624017167594925e-05,-0.01078082972328684,0.01803606723859104
1.5151515151515151,6.379746835443038,0.01875067129412667,0.016989070224162,3.65668333807725e-05,-0.0107219224554866,0.0179349859519239
1.6161616161616161,6.379746835443038,0.0186430359735004,0.016947967454982733,6.156854826957986e-05,-0.01067730102854494,0.017856264902880302
1.7171717171717171,6.379746835443038,0.01866429611780712,0.016751236785779996,-1.642775570590498e-05,-0.010624659871076135,0.017785124383333115
1.8181818181818181,6.379746835443038,0.018531613509209323,0.016561086728274842,5.354249298180981e-05,-0.010527810071245248,0.01762938554604015
1.9191919191919191,6.379746835443038,0.018605943294454193,0.016541237645291355,-3.9074515378753806e-05,-0.010544154281923663,0.017664453558469424
2.0202020202020203,6.379746835443038,0.018505245641518526,0.016477507586470073,-2.8785860903963877e-06,-0.01049482596839658,0.01757930806164677
2.121212121212121,6.379746835443038,0.01834544874323908,0.016723248665541573,4.314719070123433e-05,-0.010520609222634198,0.017590696954538562
2.2222222222222223,6.379746835443038,0.01823906681450476,0.016376348415596195,3.0479491949475836e-05,-0.010384624569030287,0.01738280241392593
2.323232323232323,6.379746835443038,0.01813593910095532,0.016472641507759157,0.00013463074272011653,-0.010382574182614344,0.0173657063896283
2.4242424242424243,6.379746835443038,0.018129209353522146,0.01632890389670125,-8.038077845900543e-05,-0.010337433975067018,0.017300017346908548
2.525252525252525,6.379746835443038,0.017871691056122428,0.01612296599972007,-1.5763464456395366e-05,-0.010198397116752748,0.017064684352155114
2.6262626262626263,6.379746835443038,0.018024307625163896,0.016369870489339158,3.7808615662070615e-05,-0.010318253434350918,0.017256796695638274
2.727272727272727,6.379746835443038,0.01802526866672154,0.016138226368506873,0.00010126758628805382,-0.010249048510568523,0.017160639851242592
2.8282828282828283,6.379746835443038,0.017628273729376517,0.016145021896202937,-2.2849620848449553e-05,-0.010131988687673838,0.016935479552382757
2.929292929292929,6.379746835443038,0.017782585308935416,0.015978157552728415,-1.8938493086599916e-05,-0.01012822285849915,0.016952580490531083
3.0303030303030303,6.379746835443038,0.017799677771999103,0.016058583871905747,1.649902327112496e-05,-0.010157478493171454,0.016996171422317234
3.131313131313131,6.379746835443038,0.017653839021581883,0.015858940038166805,4.58043946606564e-05,-0.010053833717924605,0.01682852135438796
3.2323232323232323,6.379746835443038,0.017616241896632433,0.016043207032950042,5.008762244952486e-05,-0.010097834678874743,0.01688499277116608
3.3333333333333335,6.379746835443038,0.0175987923319431,0.01586570384555239,2.4810843469843074e-05,-0.010039348853248645,0.01679948420676982
3.4343434343434343,6.379746835443038,0.017532670005292003,0.01582789638480715,5.053199049599074e-05,-0.010008169917029746,0.016745721774115013
3.5353535353535355,6.379746835443038,0.017665371208672596,0.015728194245006422,-4.608371871358647e-05,-0.010018069636103705,0.016781043337531096
3.6363636363636362,6.379746835443038,0.017703339070022125,0.015968005634578984,0.00013030257723776266,-0.010101403411380331,0.016904121877164953
3.7373737373737375,6.379746835443038,0.017467094285832464,0.015670787448674114,3.671329678553553e-05,-0.009941364520351973,0.016641931490993918
3.8383838383838382,6.379746835443038,0.01754534611981165,0.015859476496664148,1.0446758069873398e-05,-0.01002144678494274,0.01676611130237135
3.9393939393939394,6.379746835443038,0.017473466459457323,0.01554702670479455,1.4745103912624172e-05,-0.009906147949275561,0.01659434458040233
4.040404040404041,6.379746835443038,0.01738911637929254,0.01572978464082085,5.657004970534453e-06,-0.009935670306034016,0.01662168864958844
4.141414141414141,6.379746835443038,0.017441110627439575,0.01575817946791549,-1.8034023901548867e-06,-0.00995978702860652,0.016663505586503657
4.242424242424242,6.379746835443038,0.017463878295346107,0.01567516082273671,4.0919909319047264e-05,-0.009941711735424845,0.016641923998805108
4.343434343434343,6.379746835443038,0.01735507808350507,0.015772665103382173,-1.6219930805003897e-05,-0.009938322956066172,0.016620488998591487
4.444444444444445,6.379746835443038,0.017264227475069935,0.01563747351914647,2.150398369794044e-05,-0.009870510298264922,0.016511105828108073
4.545454545454545,6.379746835443038,0.01721010576834209,0.015551831443984993,-9.194364676885368e-06,-0.009828581163698126,0.016443807083101454
4.646464646464646,6.379746835443038,0.01726789520079544,0.015656618088464407,8.493013167934194e-05,-0.009877353986777955,0.016521945819575997
4.747474747474747,6.379746835443038,0.017396920968465054,0.015572658181914438,-0.000142373862894401,-0.009890873745113847,0.016562157145872818
4.848484848484849,6.379746835443038,0.017121835344993605,0.01568835211986145,-2.801206110789837e-05,-0.009843056239456516,0.016452070082940536
4.94949494949495,6.379746835443038,0.0174681178987815,0.01561091212302006,-2.5943450639777737e-05,-0.009923709006540467,0.016617595673076375
5.05050505050505,6.379746835443038,0.01726526890046944,0.015406877078305176,-2.7384262741648165e-05,-0.009801643793632384,0.016415229073383122
5.151515151515151,6.379746835443038,0.017270778125402328,0.015510638419354388,4.439711721017226e-05,-0.009834424963427015,0.016461615954117836
5.252525252525253,6.379746835443038,0.017231978247105012,0.015677758459805742,-7.707229661573134e-05,-0.009872921012073226,0.016510366813208256
5.353535353535354,6.379746835443038,0.017227087711080353,0.01562024279368892,-2.5972631449659167e-05,-0.009854199151430782,0.016482574647079556
5.454545454545454,6.379746835443038,0.017480456847935255,0.015532885641822501,-3.449865873698377e-05,-0.009904002746927326,0.01659272555251351
5.555555555555555,6.379746835443038,0.017302063001749232,0.015577108292253759,-9.427367231682114e-06,-0.009863751388200896,0.016507326992375667
5.656565656565657,6.379746835443038,0.01741442483298235,0.01558871616477478,1.5597297215645595e-05,-0.009900942299327137,0.016577167063837443
5.757575757575758,6.379746835443038,0.01723649023216981,0.015646904282363587,-2.1697475276184496e-05,-0.009865018354360018,0.016499269943236198
5.858585858585858,6.379746835443038,0.017458108586971215,0.015749762679865047,-8.618559352785382e-05,-0.009962361380050877,0.016670386818908325
5.959595959595959,6.379746835443038,0.01732130153468351,0.015674530158623124,-3.394274455213021e-05,-0.00989874950799199,0.016559546358120344
6.0606060606060606,6.379746835443038,0.017589646227971142,0.01568564308340893,4.131291144938327e-05,-0.009982586793414022,0.01671930802814057
6.161616161616162,6.379746835443038,0.01733038058189635,0.015680541875856865,1.2794304596646508e-05,-0.009903276737325965,0.016567203061398108
6.262626262626262,6.379746835443038,0.017455521103480153,0.015662792383232146,-6.396171308606582e-05,-0.009935494046013689,0.01663214816406954
6.363636363636363,6.379746835443038,0.0176361452226479,0.015594731090938148,2.978294992577441e-05,-0.009969262894075813,0.016709308033470167
6.4646464646464645,6.379746835443038,0.017414964291436623,0.015863739471878694,9.017582689806884e-07,-0.009983611128994596,0.016693494460769367
6.565656565656566,6.379746835443038,0.017532563805864255,0.015757586273770732,-8.245983320083065e-05,-0.009987045023890495,0.016716513717967854
6.666666666666667,6.379746835443038,0.0176559243539109,0.01591290720902208,-5.713055477689965e-06,-0.010070649468879896,0.016852159879899145
6.767676767676767,6.379746835443038,0.01766879688146434,0.01592376996897334,6.566868871226682e-05,-0.010077770055131304,0.016864516394616866
6.8686868686868685,6.379746835443038,0.01773705120116709,0.016028303252328506,-3.154775057630922e-05,-0.01012960633604868,0.01694749659356045
6.96969696969697,6.379746835443038,0.017781376873741882,0.015747459390404697,1.0386012555667906e-05,-0.010058650879243973,0.016856709470164294
7.070707070707071,6.379746835443038,0.0178784211008046,0.016057430572452434,3.543042256269536e-05,-0.01018075550197711,0.01704116422138217
7.171717171717171,6.379746835443038,0.017869085905836142,0.015951389847058885,8.78068214887376e-05,-0.010146142725868508,0.016992276003588436
7.2727272727272725,6.379746835443038,0.017855268420009895,0.016184691971541442,8.84645661515878e-05,-0.010211988117465402,0.01708204680521694
7.373737373737374,6.379746835443038,0.017951718971865573,0.01624690939888311,-9.044590553868575e-06,-0.010259588511224604,0.017162941845269376
7.474747474747475,6.379746835443038,0.018119035109390023,0.01622678205004154,3.0456981256350044e-05,-0.010303745147829469,0.017251001078223197
7.575757575757575,6.379746835443038,0.01823759384185968,0.016358857487013965,-0.000100394656755489,-0.010378935398662094,0.017375444918544106
7.6767676767676765,6.379746835443038,0.018126055865537453,0.016292642588827445,3.107250713171695e-05,-0.010325609536309469,0.017282524425200035
7.777777777777778,6.379746835443038,0.018069226778550943,0.016471210445828652,6.887817820511157e-05,-0.010362131167313876,0.017325989890129248
7.878787878787879,6.379746835443038,0.01818450325598268,0.016624531547610642,2.7817518485608027e-06,-0.010442710441077996,0.01745687208528675
7.979797979797979,6.379746835443038,0.0181159017183153,0.016380105631377557,-7.367855493591857e-05,-0.010348802204907855,0.017313857380649167
8.080808080808081,6.379746835443038,0.018615331167872107,0.016687394593284603,-1.3632754009614363e-05,-0.010590817728347014,0.01773016846153835
8.181818181818182,6.379746835443038,0.018742840359766942,0.016809089846237003,1.6134287403098704e-05,-0.010665579061801184,0.01785469852938623
8.282828282828282,6.379746835443038,0.018689684867665986,0.01689368881229436,2.0534602872833685e-06,-0.010675012103988104,0.017859544636837858
8.383838383838384,6.379746835443038,0.01870445936500263,0.016954293741769835,9.293136615499912e-06,-0.01069762593203174,0.01789369266392945
8.484848484848484,6.379746835443038,0.018892239727003258,0.017106567131923406,-0.00013576885246440964,-0.010799642057677998,0.018067243655939588
8.585858585858587,6.379746835443038,0.019012944103297857,0.017112744862908306,3.894953576310827e-05,-0.010837706689861847,0.01813777742405774
8.686868686868687,6.379746835443038,0.01915662752133478,0.01718314340491648,-5.177316548613683e-05,-0.010901931277875379,0.018250308457486795
8.787878787878787,6.379746835443038,0.019313962639119147,0.017499682228818102,-2.3124435206144716e-05,-0.011044093460381174,0.018473803787784557
8.88888888888889,6.379746835443038,0.019337774380200567,0.017426283126627886,6.734806424735569e-06,-0.011029217252048537,0.018456420733001397
8.98989898989899,6.379746835443038,0.01959503332480555,0.017708831684754855,5.84011745276926e-05,-0.01119115950286812,0.018723598364754363
9.09090909090909,6.379746835443038,0.019621822875806116,0.01795675195114354,3.050991623534995e-06,-0.011273572448084895,0.01884454019921767
9.191919191919192,6.379746835443038,0.02004604559798395,0.018165064493705436,1.9100475523804385e-05,-0.011463333027506815,0.01917490275152098
9.292929292929292,6.379746835443038,0.020170243101440184,0.018115072339857336,-4.032072336241614e-05,-0.011485594632389256,0.019225348294284808
9.393939393939394,6.379746835443038,0.02015327339175623,0.018175827749436328,6.467483461121868e-05,-0.011498730342357768,0.01924123866924595
9.494949494949495,6.379746835443038,0.02035899377759487,0.01822032497465498,-2.1206065066446744e-05,-0.011573795625674954,0.01937840901944771
9.595959595959595,6.379746835443038,0.020681300257297464,0.018395684017217785,6.422778007743823e-05,-0.011723095282354575,0.01963881569287125
9.696969696969697,6.379746835443038,0.02075139096192804,0.018630642793728676,0.0001013837220589409,-0.011814610126697014,0.0197772637453948
9.797979797979798,6.379746835443038,0.02099560744278557,0.019026868948190057,2.0992598903312944e-05,-0.012006742917292689,0.020083772669228585
9.8989898989899,6.379746835443038,0.021201074710133303,0.01913452613780992,-9.649370010560215e-05,-0.012100680254382967,0.020247742449343794
10.0,6.379746835443038,0.02158102121056912,0.01931460282029037,4.6599456207538854e-05,-0.012268687209257846,0.020541957550003723
0.0,6.481012658227848,0.021565355552727986,0.019294041281696095,2.586290481513139e-05,-0.012257819050327223,0.020524223139405724
0.10101010101010101,6.481012658227848,0.02108252818746028,0.019287994976839327,1.672857502941812e-05,-0.012111156949289882,0.020245021283231503
0.20202020202020202,6.481012658227848,0.021095132819043322,0.01897809657667268,6.44961890782146e-05,-0.0120219688187148,0.02012063094597854
0.30303030303030304,6.481012658227848,0.020772052506390474,0.01881043813679516,6.245828476919154e-06,-0.01187474719295569,0.01986402417970341
0.40404040404040403,6.481012658227848,0.02045333798101089,0.018469068526982567,-3.1524261215855205e-05,-0.011676721952398038,0.019537000982242664
0.5050505050505051,6.481012658227848,0.020294976876292593,0.01834561344952604,-3.865436757630307e-05,-0.011592177097745592,0.01939402745665651
0.6060606060606061,6.481012658227848,0.01999206970489954,0.018212946202416553,-5.280941499872396e-05,-0.011461504772194828,0.01916476289835911
0.7070707070707071,6.481012658227848,0.020025545387326923,0.01793035130643403,5.6436071374978525e-05,-0.011386769008128286,0.01906474382793476
0.8080808080808081,6.481012658227848,0.019805120416659078,0.01791716640311276,1.591803301688769e-05,-0.011316686045931551,0.01893189817867077
0.9090909090909091,6.481012658227848,0.019666595025996266,0.017625394024603818,-6.529721837769032e-05,-0.011187596715180026,0.018729943383891123
1.0101010101010102,6.481012658227848,0.019567462341824163,0.01750485137867104,-5.679077976106762e-05,-0.01112169411614856,0.018622286640332098
1.1111111111111112,6.481012658227848,0.01946875282285199,0.017550094769614055,-1.3392730577888762e-05,-0.011105654277739812,0.018583870530871533
1.2121212121212122,6.481012658227848,0.01916914905326632,0.01738801886641883,2.8319388379252023e-06,-0.010967150375905545,0.01834355402296735
1.3131313131313131,6.481012658227848,0.019008454611449094,0.017294252358678663,-2.0736729717963787e-06,-0.010890812091038328,0.018211960719885484
1.4141414141414141,6.481012658227848,0.01902772960416649,0.01712673962427127,2.079062260294964e-06,-0.010846340768531328,0.018152045241315355
1.5151515151515151,6.481012658227848,0.018885843075020333,0.016906975605373534,-1.297308939707067e-05,-0.010737845604118161,0.01797828994987714
1.6161616161616161,6.481012658227848,0.018549522846607852,0.016820850388139384,-1.6893416493641413e-05,-0.01061111197042417,0.01774846227720571
1.7171717171717171,6.481012658227848,0.018551176045733385,0.01684148583704479,-1.762533526654821e-05,-0.010617798564833452,0.01775819082006269
1.8181818181818181,6.481012658227848,0.018560903513244627,0.0167556682152882,5.5523467076254786e-05,-0.010594971518559846,0.01772761868077832
1.9191919191919191,6.481012658227848,0.018610167096288956,0.016662645404280148,-7.013877755480689e-05,-0.01058184375017073,0.01771728574937652
2.0202020202020203,6.481012658227848,0.018304114590559247,0.016509468531711237,4.3511846601090255e-05,-0.010444074936681143,0.017476202051721564
2.121212121212121,6.481012658227848,0.018254274828668975,0.01640958142479745,-7.313003137392058e-05,-0.010399156876039926,0.01740585955678223
2.2222222222222223,6.481012658227848,0.018202655727050644,0.01613009265575414,-5.9625251498009185e-06,-0.010299824514841434,0.01725995793151713
2.323232323232323,6.481012658227848,0.01809469169964922,0.0163627401190127,6.271995754080916e-05,-0.010337229545598575,0.017294224338544575
2.4242424242424243,6.481012658227848,0.017883484738407326,0.01620269191028258,8.073673726743321e-05,-0.01022585299460697,0.01710570703864543
2.525252525252525,6.481012658227848,0.018018273552215597,0.016257499815502372,-7.415461789809251e-05,-0.01028273201031539,0.017206071597688482
2.6262626262626263,6.481012658227848,0.017739139709436247,0.0164275004449894,1.6152925534302096e-05,-0.010249992046327695,0.01712106614032963
2.727272727272727,6.481012658227848,0.017780777075266853,0.016196722385826975,-4.612519599927927e-05,-0.010193249838328146,0.017044234272991794
2.8282828282828283,6.481012658227848,0.01790192863864407,0.01597979586881226,4.882349575136778e-05,-0.010164517352236899,0.01702265874913933
2.929292929292929,6.481012658227848,0.017760938340202856,0.015996439733374612,0.00012552729830329738,-0.01012721342207324,0.01694911521019886
3.0303030303030303,6.481012658227848,0.01763096774452598,0.01593113224509252,-4.8592154592401216e-05,-0.010068629996885549,0.01684570577519986
3.131313131313131,6.481012658227848,0.017628470992662404,0.01577487380814225,-6.005692206790581e-05,-0.010021003440241396,0.016778961480493106
3.2323232323232323,6.481012658227848,0.017567979946424016,0.015871546057162865,4.8413171523213776e-05,-0.010031857801076063,0.01678439520200674
3.3333333333333335,6.481012658227848,0.01776986027793766,0.01597019814365551,-7.609173336001562e-06,-0.01012201752647795,0.016941875549060775
3.4343434343434343,6.481012658227848,0.017721765392365387,0.015726689891715922,9.308264965932066e-05,-0.010034536585224392,0.016814012847972026
3.5353535353535355,6.481012658227848,0.01746048583027494,0.015628380263732006,-7.365902010258567e-05,-0.009926659828202084,0.016620830301333513
3.6363636363636362,6.481012658227848,0.01748206611154619,0.015784916907056083,-8.542860161049331e-05,-0.009980094905580682,0.01669895716787843
3.7373737373737375,6.481012658227848,0.017480830120142964,0.015803231129834214,-7.966377971733715e-07,-0.009985218374993153,0.0167053266656527
3.8383838383838382,6.481012658227848,0.01762010015951685,0.015776125904682158,3.874352738009212e-05,-0.010018867819259702,0.01677443479837347
3.9393939393939394,6.481012658227848,0.017347715500132515,0.01582676788368747,-2.7670073648672384e-05,-0.009952345015145993,0.01663952658833002
4.040404040404041,6.481012658227848,0.017502995757361983,0.015486954753699078,-1.931288582533126e-05,-0.009896985153318317,0.016587152969680448
4.141414141414141,6.481012658227848,0.017531971114590355,0.015834969030832587,-8.901671288539688e-05,-0.010010082043626882,0.016748785258841513
4.242424242424242,6.481012658227848,0.017416959855964295,0.015534139593228823,2.0672152578945112e-05,-0.009885329834757935,0.016556079845411954
4.343434343434343,6.481012658227848,0.017570141449775607,0.01583976846484161,-5.8907588971728956e-05,-0.010022972974385164,0.016772345496026096
4.444444444444445,6.481012658227848,0.01746443375542833,0.015387088916346915,-1.2784731229975759e-05,-0.009855456801532572,0.016524002148297554
4.545454545454545,6.481012658227848,0.0174690710705968,0.015755303388765247,5.940464434365769e-05,-0.009967312337808615,0.016678672040655807
4.646464646464646,6.481012658227848,0.017275791574038392,0.015523731235590005,-2.3641465942580793e-05,-0.009839856842888519,0.01646985541720819
4.747474747474747,6.481012658227848,0.01731554305181005,0.01552605974266267,-7.107257375186685e-06,-0.009852480838341816,0.016493773308497047
4.848484848484849,6.481012658227848,0.017300577270083536,0.015629915746507666,3.272139871916286e-05,-0.009879147904977362,0.016528789643936743
4.94949494949495,6.481012658227848,0.017320662058719558,0.015401374829123515,-3.745857033255537e-05,-0.00981661106635292,0.016445360487325374
5.05050505050505,6.481012658227848,0.017276905969699365,0.015542734406053655,-2.4767481494950568e-05,-0.009845892112725907,0.01647845721364644
5.151515151515151,6.481012658227848,0.01734927845967372,0.015672957576987823,4.459694975608861e-05,-0.009906670810998464,0.016574996942845158
5.252525252525253,6.481012658227848,0.017270982238034808,0.015582533328732311,4.7345680946737956e-05,-0.009856054670030135,0.016491914409914904
5.353535353535354,6.481012658227848,0.01752608250711488,0.015544995657175724,-0.00010570155509630509,-0.009921323449287181,0.016625315035320547
5.454545454545454,6.481012658227848,0.01743737492394637,0.015601119055060352,-6.381012966562526e-05,-0.009911548193702017,0.016595981833268363
5.555555555555555,6.481012658227848,0.017395191097526762,0.015504148435608274,2.3702113992367033e-05,-0.00986980185994051,0.016531042089403966
5.656565656565657,6.481012658227848,0.017353820624498483,0.015684341691711606,-3.709729108320518e-05,-0.009911448694863026,0.016582356312217595
5.757575757575758,6.481012658227848,0.017254819283304537,0.01570223385146861,-5.982624192429208e-05,-0.009887115940431944,0.0165336162563456
5.858585858585858,6.481012658227848,0.017425387896732928,0.015946278032518097,4.539177660897791e-05,-0.010011499778775306,0.016735113607512432
5.959595959595959,6.481012658227848,0.017362094156421,0.015632702696809893,2.6080400564112984e-05,-0.009898439055969268,0.0165653038464076
6.0606060606060606,6.481012658227848,0.01754412115721673,0.015775780242849567,4.048541269770337e-06,-0.009995970420019889,0.016730190635245695
6.161616161616162,6.481012658227848,0.0172482471415356,0.015666847976706665,-4.45371849862667e-05,-0.00987452853547268,0.016514612918023985
6.262626262626262,6.481012658227848,0.017565226866084457,0.01567447693193375,2.1528659792579907e-05,-0.009971911139405461,0.016700361345782073
6.363636363636363,6.481012658227848,0.017315116917422217,0.015701986998332706,-2.3297462155327453e-05,-0.009905131174726476,0.016567605655708514
6.4646464646464645,6.481012658227848,0.01751174492810797,0.015972264873442273,-2.219017894100251e-05,-0.010045202940465073,0.01679504999810175
6.565656565656566,6.481012658227848,0.017773991595840626,0.015771767398286406,3.494228321270932e-05,-0.01006372769823811,0.016862379008177813
6.666666666666667,6.481012658227848,0.01748461894921314,0.015933336361918685,2.876828229320418e-05,-0.010025386593339548,0.016762973345610006
6.767676767676767,6.481012658227848,0.017786852194196234,0.015963827864499347,2.13076605572195e-05,-0.010125204017608674,0.016949071550834374
6.8686868686868685,6.481012658227848,0.017782791346295266,0.01589874730909507,1.2683953007373934e-05,-0.0101044615966171,0.01691963979070513
6.96969696969697,6.481012658227848,0.017683834941257737,0.01614049999194374,2.853785710710632e-05,-0.010147300479960443,0.016964971668722108
7.070707070707071,6.481012658227848,0.017773291886018117,0.015981720633401697,-3.857838559921329e-05,-0.010126503755825944,0.01694880462118065
7.171717171717171,6.481012658227848,0.017920371012168056,0.01614044905226817,9.079215154326247e-06,-0.010218246019330867,0.017100035228016904
7.2727272727272725,6.481012658227848,0.017917200482228356,0.016301966130620505,-4.0576337806129585e-05,-0.010265749983854659,0.017166814402940555
7.373737373737374,6.481012658227848,0.01790729913754935,0.016079295465419457,-9.030712697603727e-06,-0.010195978380890642,0.01706688594638585
7.474747474747475,6.481012658227848,0.018063697465530715,0.01628416262361706,4.306054194503758e-05,-0.010304358026744332,0.01724309989523125
7.575757575757575,6.481012658227848,0.017954435289517665,0.01622541805594562,-2.759731610146672e-05,-0.010253956003638985,0.017155465716803035
7.6767676767676765,6.481012658227848,0.018341939234898384,0.016174958918971746,3.1004695693266446e-05,-0.010355069446161038,0.017360265008974834
7.777777777777778,6.481012658227848,0.018177732087813616,0.01624150517045505,1.016891915196727e-05,-0.010325771177480599,0.017291125312935116
7.878787878787879,6.481012658227848,0.018205203840942336,0.016319802207592413,-3.77275056494707e-05,-0.010357501814560424,0.017339675177066232
7.979797979797979,6.481012658227848,0.01842115358186246,0.016373086927305644,5.307675645638823e-05,-0.01043827215275043,0.01748754349086278
8.080808080808081,6.481012658227848,0.01834883395210916,0.016547759053974043,2.3514073891546584e-05,-0.010468977901824961,0.017517922613271987
8.181818181818182,6.481012658227848,0.018598923510653398,0.016554298520818227,-4.835917514556985e-05,-0.010545966609441489,0.01766577592804068
8.282828282828282,6.481012658227848,0.018741598303080653,0.016811531034617137,-3.6487866782995e-05,-0.010665938801309336,0.017855086537584455
8.383838383838384,6.481012658227848,0.018778302910670185,0.016937254884378652,-5.407105779640087e-05,-0.010714667338514653,0.017929058301179013
8.484848484848484,6.481012658227848,0.01895024065460982,0.017036459268740645,-1.5139908386626945e-06,-0.010796009977005139,0.018069520445061552
8.585858585858587,6.481012658227848,0.01911682192889036,0.0171678050101499,-4.884992778908743e-05,-0.010885388081712079,0.018220858848715635
8.686868686868687,6.481012658227848,0.019097365866765713,0.017177207137349736,-3.681369963418382e-05,-0.010882371901234634,0.018213469866084877
8.787878787878787,6.481012658227848,0.019245287058814807,0.01750391543090175,-4.639030727748336e-05,-0.011024760746914965,0.018436559018679455
8.88888888888889,6.481012658227848,0.019431211891401422,0.017554816351503976,4.446267533017238e-05,-0.011095808472871617,0.018564432316969772
8.98989898989899,6.481012658227848,0.019569607404429226,0.017562866737285448,4.571522303362126e-05,-0.011139742242514402,0.018647565114379
9.09090909090909,6.481012658227848,0.01965103256861626,0.017939225272193125,-2.1459789574588958e-05,-0.011277077352242815,0.01885353987630451
9.191919191919192,6.481012658227848,0.01993182960319525,0.017968934771402066,-1.918436659152573e-05,-0.011370229312379194,0.019026502733160425
9.292929292929292,6.481012658227848,0.020133918210781646,0.018029778203673213,8.571528711228643e-05,-0.011449108924336456,0.019169233845204626
9.393939393939394,6.481012658227848,0.02013993616999066,0.018223635306877962,6.855683875315398e-05,-0.011509071443060587,0.01925380899936676
9.494949494949495,6.481012658227848,0.020241918466205284,0.018343203153319894,-9.838136415621116e-05,-0.011575536485857555,0.01936325848498558
9.595959595959595,6.481012658227848,0.020672223792663192,0.018551788914363435,2.970984069790644e-06,-0.011767203812107987,0.019697791824093334
9.696969696969697,6.481012658227848,0.020861352007168606,0.01871493548858582,3.956833899548654e-05,-0.011872886248726327,0.01987537818131867
9.797979797979798,6.481012658227848,0.021062854412663597,0.018939424146961384,3.4617228621122404e-05,-0.012000683567887494,0.020085588978618115
9.8989898989899,6.481012658227848,0.021203434003667795,0.01916890719883378,-4.6854903223059844e-05,-0.012111702360750473,0.0202630832840997
10.0,6.481012658227848,0.021631525086498765,0.019389310780421075,4.78914477903253e-05,-0.012306250760075951,0.020602300073615402
0.0,6.582278481012658,0.02146164743906877,0.019411978736905856,-1.245168732019693e-05,-0.012262087852792388,0.020513767344599348
0.10101010101010101,6.582278481012658,0.021315113154598622,0.01919062381508482,4.670565479739803e-06,-0.012151721090905033,0.020336269041348796
0.20202020202020202,6.582278481012658,0.020992970784497963,0.018784149313813527,4.021156891431231e-05,-0.011933136029493446,0.01998046148007385
0.30303030303030304,6.582278481012658,0.020870678439822262,0.018679570041680218,-2.8566793215137898e-05,-0.011865074544450743,0.01986601882440157
0.40404040404040403,6.582278481012658,0.02065449471928301,0.01849955954036818,-3.84394875084645e-05,-0.011746216277895356,0.01966589009537887
0.5050505050505051,6.582278481012658,0.02038533600910375,0.018453444896029726,4.036522965413676e-05,-0.011651634271540041,0.01949145366716182
0.6060606060606061,6.582278481012658,0.020017625176108066,0.01809223291989668,2.1779983307196873e-05,-0.011432957428801422,0.01912778334341521
0.7070707070707071,6.582278481012658,0.020123088309016202,0.018236503014196458,-1.6274883734246982e-05,-0.011507877396963798,0.019249279448656446
0.8080808080808081,6.582278481012658,0.019866030680959358,0.017940237699547144,3.402906597430447e-05,-0.01134188051415195,0.018976655793425695
0.9090909090909091,6.582278481012658,0.0196192577477237,0.017628362340439168,-1.886820399674666e-05,-0.01117428602644886,0.018703478739995262
1.0101010101010102,6.582278481012658,0.0195804383581454,0.017531349038395722,3.048876015064424e-05,-0.011133536218962337,0.018640629144834085
1.1111111111111112,6.582278481012658,0.01938832098141009,0.01751537769612297,4.256735037113352e-05,-0.011071109603259917,0.018523150848894963
1.2121212121212122,6.582278481012658,0.019315576980284296,0.017498415665973613,1.0923349896864771e-05,-0.011044197793877374,0.01847415567840848
1.3131313131313131,6.582278481012658,0.019187010022049825,0.017261883837919205,-6.542140158921893e-05,-0.010934668157990709,0.018300898581812823
1.4141414141414141,6.582278481012658,0.01901873236573137,0.01719352609920881,-4.3436814401967234e-06,-0.010863677539482053,0.018174996721378747
1.5151515151515151,6.582278481012658,0.01875733119841285,0.017010109545655655,9.70201988373895e-06,-0.01073023222322055,0.01794762726269353
1.6161616161616161,6.582278481012658,0.01885694573812204,0.01685765938275471,-7.984890614673839e-06,-0.010714381536263024,0.017941050845993997
1.7171717171717171,6.582278481012658,0.018690317982859504,0.016937013780257082,5.5692866880794105e-05,-0.010688199528934975,0.017878522140999397
1.8181818181818181,6.582278481012658,0.018604108095211586,0.016622464594447488,-3.467577156055604e-06,-0.010567971806897723,0.01769669673019016
1.9191919191919191,6.582278481012658,0.01833556234119676,0.016477683740057154,-4.657557619540862e-05,-0.010443973824376174,0.017481013077159126
2.0202020202020203,6.582278481012658,0.018413001296537248,0.016530577925147068,-1.5601759878270433e-05,-0.010483073766505294,0.017547700725796894
2.121212121212121,6.582278481012658,0.018205115550640978,0.016632668877048618,1.7831791124426446e-05,-0.010451335328306879,0.01747206917573977
2.2222222222222223,6.582278481012658,0.018188508410971183,0.0164431616953937,4.4690860188368e-05,-0.010389501031909464,0.017381852944267986
2.323232323232323,6.582278481012658,0.01814333187552113,0.0160864509931128,3.987876597972233e-05,-0.010268934860590178,0.01720747944876579
2.4242424242424243,6.582278481012658,0.018196422884882525,0.016331161057492775,-3.597676461830637e-05,-0.01035827518271259,0.017339313638975402
2.525252525252525,6.582278481012658,0.018026854149725494,0.016217975266581995,8.49671787251032e-06,-0.010273448824892248,0.017193933061724283
2.6262626262626263,6.582278481012658,0.017968396307753588,0.016263963494705817,2.9693620786261072e-05,-0.010269707940737822,0.017179786900752038
2.727272727272727,6.582278481012658,0.01783106352410348,0.01592698075776451,-1.107999953688743e-05,-0.010127413284560396,0.016959389880508997
2.8282828282828283,6.582278481012658,0.01763647799336998,0.016008713580514172,2.427979837282476e-06,-0.010093557472165246,0.01688155678348177
2.929292929292929,6.582278481012658,0.01754299646122736,0.016056681119948693,-4.430676189072398e-05,-0.010079903274352816,0.016849252880394554
3.0303030303030303,6.582278481012658,0.017774003915398514,0.015884537557932978,-6.1262351122771e-05,-0.010097562441999447,0.01690896729821147
3.131313131313131,6.582278481012658,0.01765952528275595,0.015966653082182838,-3.954245005034224e-05,-0.010087853509481636,0.016877026423198552
3.2323232323232323,6.582278481012658,0.01762193139103935,0.015860482624018735,7.60236470671797e-06,-0.010044724204517423,0.01681056845487135
3.3333333333333335,6.582278481012658,0.017547431459203778,0.01586103267851702,-2.051034727256732e-05,-0.01002253924131624,0.016767992923096258
3.4343434343434343,6.582278481012658,0.01759819782138327,0.015835696179962798,4.313410453532126e-05,-0.01003016820040382,0.016786652665234984
3.5353535353535355,6.582278481012658,0.017676564000373794,0.015853905599727214,-8.355305519772583e-06,-0.010059140880030302,0.016839384491967074
3.6363636363636362,6.582278481012658,0.01757083050269557,0.015930597376528542,-1.7004226918046548e-07,-0.010050428363767233,0.016810835526665187
3.7373737373737375,6.582278481012658,0.017414731750488847,0.01568683025450767,8.95854188298826e-05,-0.009930468601498954,0.01661901504660606
3.8383838383838382,6.582278481012658,0.01750466817154876,0.015684876604574877,-3.429230366861818e-06,-0.00995686343283709,0.016669440209583032
3.9393939393939394,6.582278481012658,0.017371706898057428,0.015525056289247968,-4.9402674944389636e-05,-0.009869028956191619,0.01652616615481492
4.040404040404041,6.582278481012658,0.01750314197969131,0.015897790476642776,4.633948782799228e-05,-0.010020279736900227,0.016758427115000966
4.141414141414141,6.582278481012658,0.017403763129757627,0.015590615025389084,1.3433489368007299e-05,-0.009898313446544014,0.016571765698723744
4.242424242424242,6.582278481012658,0.01738766516060432,0.015529494919304188,6.60749879963305e-05,-0.009875148023972553,0.016537459058995032
4.343434343434343,6.582278481012658,0.017219612178344987,0.015639425367665154,2.03984398351548e-05,-0.009857711263803042,0.016486451351611545
4.444444444444445,6.582278481012658,0.017232805680348347,0.015394175867026521,2.5067449872146072e-05,-0.009788094464212459,0.016391073364704984
4.545454545454545,6.582278481012658,0.017343032935350302,0.01567473748819758,2.4987267137740413e-06,-0.009905331127064364,0.01657198590817277
4.646464646464646,6.582278481012658,0.017155116316401226,0.015556722985388356,-7.803823261377221e-05,-0.009813551790536876,0.01641494817092776
4.747474747474747,6.582278481012658,0.017376837196720583,0.01553734893743434,5.717412999864557e-05,-0.009874255840246477,0.016534313008223573
4.848484848484849,6.582278481012658,0.017329859650362673,0.015427534526219592,-8.525683254791175e-05,-0.00982721825297468,0.016462006413282194
4.94949494949495,6.582278481012658,0.017424527086499546,0.015593363887369436,-1.218739629214991e-05,-0.009905367292160693,0.01658495087978394
5.05050505050505,6.582278481012658,0.017287655891039474,0.015359318803755838,3.4860812600773415e-05,-0.009794092408438594,0.01640880092971641
5.151515151515151,6.582278481012658,0.01736805178138896,0.015700754975066348,3.721615446748248e-05,-0.009920642026936592,0.01659745640695243
5.252525252525253,6.582278481012658,0.017361005320789928,0.015602847975139677,-5.4635765950804404e-05,-0.00988915598877888,0.01655237744762677
5.353535353535354,6.582278481012658,0.01738614602225824,0.015426831171191379,7.733179264808235e-05,-0.009843893158034885,0.016494544392226543
5.454545454545454,6.582278481012658,0.01733042023018501,0.015669842455613637,-1.3949026913326207e-05,-0.009900078805739593,0.016562700775176565
5.555555555555555,6.582278481012658,0.017196254116768634,0.015681322576439477,-2.9525246200398e-05,-0.009863273007962432,0.016491138247672534
5.656565656565657,6.582278481012658,0.01733456327760528,0.015611971232744753,4.500767734383748e-05,-0.00988396035310501,0.016540861635605433
5.757575757575758,6.582278481012658,0.0174307417518819,0.015716937155705133,-3.402773696855e-05,-0.00994430367227611,0.016640266600814413
5.858585858585858,6.582278481012658,0.017518352484175975,0.015601793288486309,-5.511511568396973e-05,-0.009936043731798684,0.016643317769948016
5.959595959595959,6.582278481012658,0.017367119377178362,0.01571459328268332,3.087748602320597e-05,-0.009924513797958502,0.016602738336027066
6.0606060606060606,6.582278481012658,0.017462636147365925,0.015681830547404726,-1.5475147309991327e-05,-0.009943340008431197,0.01664386036949911
6.161616161616162,6.582278481012658,0.017649610284905522,0.015878223619321372,-5.970393931913769e-06,-0.010058350171268068,0.016833964968284352
6.262626262626262,6.582278481012658,0.0174246460769483,0.01574107820649122,4.255427325180926e-05,-0.009949717285031854,0.016646998227627254
6.363636363636363,6.582278481012658,0.017477139485645766,0.015601071745368063,-1.6331042759263063e-05,-0.009923463369304148,0.016618740544768976
6.4646464646464645,6.582278481012658,0.01758563496792313,0.01580426398516106,-1.54325064837876e-05,-0.010016969685925256,0.01676609717390223
6.565656565656566,6.582278481012658,0.017846936333513908,0.015779251761634666,-8.884673440603861e-05,-0.01008785642854457,0.01690888234910316
6.666666666666667,6.582278481012658,0.0175654475821432,0.015725490941276666,9.704052009231159e-05,-0.00998728155702596,0.016722409451402367
6.767676767676767,6.582278481012658,0.017637068894905673,0.015937428667341488,6.767413595940048e-05,-0.010072349268674148,0.016852063484414436
6.8686868686868685,6.582278481012658,0.017680526580470736,0.015831626760391956,7.990471754832119e-05,-0.010053646002258805,0.016832976046604137
6.96969696969697,6.582278481012658,0.017739052948279006,0.01611535868304044,4.864541997312021e-05,-0.010156323489395833,0.016985719977574806
7.070707070707071,6.582278481012658,0.017711210257488036,0.015955919048750503,5.9114054472923165e-05,-0.010100138791871561,0.016902371660972866
7.171717171717171,6.582278481012658,0.017844992833178742,0.016041434319863216,-1.4966869410981137e-05,-0.010165928145912587,0.017015074957353535
7.2727272727272725,6.582278481012658,0.017845611053979412,0.01592082276510152,-0.00010141460684212976,-0.01012993014572428,0.016966215707982353
7.373737373737374,6.582278481012658,0.017966221046655205,0.0162060773741685,-1.791871752865966e-05,-0.010251689526247111,0.017154038515539642
7.474747474747475,6.582278481012658,0.018026783916277378,0.016273555450608417,6.133759890424111e-07,-0.01029010181006574,0.017217249456263278
7.575757575757575,6.582278481012658,0.018057903664522538,0.016322938673425186,-8.863013855090561e-05,-0.010314252701384316,0.01725664288068028
7.6767676767676765,6.582278481012658,0.018261542643236192,0.016321354173620448,5.808179182136969e-05,-0.010374869045056991,0.01737318499925055
7.777777777777778,6.582278481012658,0.01829532820614804,0.01638835770438999,-7.178330594677972e-06,-0.010405105773161408,0.01742030637048142
7.878787878787879,6.582278481012658,0.01826668998604169,0.01644120627040629,-5.1994315164285813e-05,-0.010412368876934393,0.01742604140246874
7.979797979797979,6.582278481012658,0.018271192404022366,0.016544083820576844,-4.160240357016472e-05,-0.010444582867379761,0.017471927053790966
8.080808080808081,6.582278481012658,0.018513993026838774,0.01662757432939054,-6.284697973308322e-05,-0.010542470206868793,0.017646903975435658
8.181818181818182,6.582278481012658,0.018531806479660212,0.016568099740799525,-4.99526345217137e-05,-0.01052997186613792,0.01763236932705129
8.282828282828282,6.582278481012658,0.018765891246217307,0.016930489434037566,-4.200563489313009e-05,-0.010708914204076462,0.017918976441097887
8.383838383838384,6.582278481012658,0.019002946703866288,0.01689864650045372,5.374413095823707e-06,-0.010770477961296002,0.018043066391681576
8.484848484848484,6.582278481012658,0.018843828063263176,0.01687546994697994,8.514097455802638e-05,-0.010715789403072934,0.017941422318150786
8.585858585858587,6.582278481012658,0.01893002699088268,0.017089629940971376,3.224098392633206e-05,-0.010805897079556216,0.018080302425325767
8.686868686868687,6.582278481012658,0.019189125725023168,0.01729884616633371,0.000131981369459161,-0.010946391567407064,0.018318710326856114
8.787878787878787,6.582278481012658,0.019086541483966702,0.017221444675768822,3.728411423536859e-05,-0.010892395847920656,0.018225821645055453
8.88888888888889,6.582278481012658,0.019505186773909482,0.01753637441487668,-0.0001044355715410934,-0.011112468356635848,0.018599978515317344
8.98989898989899,6.582278481012658,0.01953139241861812,0.017667310157401195,1.2971410897634389e-05,-0.011159610772805794,0.01866929230353219
9.09090909090909,6.582278481012658,0.019602267398818925,0.017718608735704643,-3.654792108359194e-05,-0.01119626284035707,0.01873171331146896
9.191919191919192,6.582278481012658,0.01986988875479013,0.017851780467037316,7.757012817812342e-05,-0.011316500766548233,0.018942114570195696
9.292929292929292,6.582278481012658,0.019982681923891726,0.018072318844457744,-2.753605918488536e-05,-0.011416500230504842,0.019099349750577487
9.393939393939394,6.582278481012658,0.020148681215813258,0.018109389308232946,4.9297258913224064e-05,-0.01147742115721386,0.01921057818828403
9.494949494949495,6.582278481012658,0.020309028887826243,0.018357986839311752,1.7217849735001477e-05,-0.011600104718141399,0.019407223899363772
9.595959595959595,6.582278481012658,0.02065990099440647,0.018611241184692887,3.890438286665438e-05,-0.011781342653729807,0.01971567771920939
9.696969696969697,6.582278481012658,0.02072099242741571,0.01876981157533605,-2.8902447793714732e-05,-0.011847241200825528,0.01981763700062512
9.797979797979798,6.582278481012658,0.02101116092732668,0.018862003084935332,-5.661492342756096e-05,-0.011961949203678603,0.020023513113574375
9.8989898989899,6.582278481012658,0.02124005222309398,0.019085592854209844,-3.2023530161326754e-05,-0.012097693523191146,0.020249043449599068
10.0,6.582278481012658,0.02138726899977214,0.019234374740648857,1.1333962648579543e-05,-0.0121864931221263,0.02039622724152125
0.0,6.6835443037974684,0.021364202117503776,0.01930053808754406,0.00011160131557142568,-0.01219942206151435,0.020411679756167363
0.10101010101010101,6.6835443037974684,0.02106765570466343,0.01908830052464206,-2.788502736597217e-05,-0.012046786868791647,0.02015107746730274
0.20202020202020202,6.6835443037974684,0.02107775538031433,0.019121983242722976,-0.00014771783623750495,-0.01205992158691119,0.020172728905832032
0.30303030303030304,6.6835443037974684,0.020912039835049717,0.01846850633529676,-2.3069202144745132e-05,-0.011814163851103942,0.019803701490031397
0.40404040404040403,6.6835443037974684,0.020670793549955605,0.018612661592841518,0.000115980574130564,-0.011785036542839137,0.0197234567668661
0.5050505050505051,6.6835443037974684,0.02021891499688265,0.018505652761719966,5.787995761889736e-05,-0.011617370327580784,0.019419308378671965
0.6060606060606061,6.6835443037974684,0.020115688703750315,0.018230015846169775,-1.5057473952466009e-05,-0.011503711364976027,0.019242291083297957
0.7070707070707071,6.6835443037974684,0.019968423952707266,0.018068660455098383,-1.3499485374227793e-05,-0.011411125322341694,0.01908958669746635
0.8080808080808081,6.6835443037974684,0.019910119577762543,0.017868517101052868,-1.935529235778686e-06,-0.011333591003644623,0.018971886149536762
0.9090909090909091,6.6835443037974684,0.019756576334797937,0.01784033502187682,-2.2577418132001212e-05,-0.011279073407002427,0.018871604348514003
1.0101010101010102,6.6835443037974684,0.01957402351615433,0.017672024102684394,4.2698997421831946e-05,-0.011173814285651616,0.018695873521875704
1.1111111111111112,6.6835443037974684,0.019302934781669463,0.017452311587942377,-2.74807785735336e-06,-0.011026573910883552,0.01844737545648113
1.2121212121212122,6.6835443037974684,0.01928569162000751,0.017313908426026897,1.3054532655150657e-06,-0.010979880013810322,0.018379299026842492
1.3131313131313131,6.6835443037974684,0.019179955810954694,0.0170916232893051,3.011619288131976e-05,-0.01088147373007794,0.018225817762244755
1.4141414141414141,6.6835443037974684,0.019119120035870386,0.016970426402719355,9.946574333217582e-06,-0.010826863931576922,0.018140474100355318
1.5151515151515151,6.6835443037974684,0.018595343114043997,0.01713040454813857,9.744832161163035e-05,-0.01071772429865477,0.017908665047486047
1.6161616161616161,6.6835443037974684,0.01868702067473234,0.016969546133635303,-6.488177548050279e-05,-0.010696970042510292,0.017890573137095193
1.7171717171717171,6.6835443037974684,0.01880669741797268,0.016837655798925513,5.468940126032879e-05,-0.010693305965069459,0.017903820696369133
1.8181818181818181,6.6835443037974684,0.018499761467066,0.016482693909099674,7.813128645311266e-06,-0.010494736612849703,0.017578243664295463
1.9191919191919191,6.6835443037974684,0.018501880604460928,0.01672576788133989,-5.3665462656615915e-05,-0.010568294545740245,0.017681102248144967
2.0202020202020203,6.6835443037974684,0.018333523060959787,0.016490404737274773,6.000305667305083e-05,-0.010447178339470368,0.017485282433833356
2.121212121212121,6.6835443037974684,0.0183102650105854,0.016212055830449438,-7.920945124924279e-06,-0.01035669625231045,0.01735654656346294
2.2222222222222223,6.6835443037974684,0.01815617669433619,0.016303040198079585,-5.4311174661180954e-05,-0.010337765067724733,0.01730444574310417
2.323232323232323,6.6835443037974684,0.01810687846283657,0.016503482384850287,-6.320238558314042e-05,-0.010383108254306057,0.017361146631590333
2.4242424242424243,6.6835443037974684,0.017976990779234602,0.01627604826403015,2.7782998991549824e-06,-0.010275911712979426,0.017189752707986478
2.525252525252525,6.6835443037974684,0.018158776882673634,0.01599333143642535,-8.269422876233154e-06,-0.010245632495729694,0.017178728017389403
2.6262626262626263,6.6835443037974684,0.01801793763737375,0.016075756235599915,1.0345931984396528e-05,-0.010228108161892098,0.017129634060276462
2.727272727272727,6.6835443037974684,0.01784853575531845,0.01611605907525845,-0.00010262665693326205,-0.01018937844917307,0.017049373266447846
2.8282828282828283,6.6835443037974684,0.017826777538543767,0.01606534015280368,1.0808947350823902e-05,-0.010167635307404235,0.017014589538069304
2.929292929292929,6.6835443037974684,0.017870373793765014,0.016164867437860934,8.079303657129349e-05,-0.010210572369487783,0.017082170761221767
3.0303030303030303,6.6835443037974684,0.017527191630615974,0.01585786707717394,4.143123408935752e-06,-0.010015517612336973,0.016755016295891892
3.131313131313131,6.6835443037974684,0.01777532127783792,0.015945440207183404,3.422563699686323e-05,-0.010116228445506397,0.01693479558526358
3.2323232323232323,6.6835443037974684,0.01767240391557487,0.01568012677916904,-1.6160138762689796e-05,-0.010005759208423172,0.016765306007568044
3.3333333333333335,6.6835443037974684,0.017617370887160443,0.015718469823313017,9.176729229530233e-05,-0.010000752213142039,0.016749603028550594
3.4343434343434343,6.6835443037974684,0.017527063004864764,0.01577604216652042,2.149561119834352e-07,-0.009990931551415555,0.016720459297966103
3.5353535353535355,6.6835443037974684,0.01733546870119225,0.015647493356796126,-2.8117431225618523e-06,-0.009894888617396512,0.01655614435247048
3.6363636363636362,6.6835443037974684,0.01739070785875308,0.01584252966841562,-3.605957939819441e-05,-0.009969971258150608,0.01667073968952428
3.7373737373737375,6.6835443037974684,0.0174171736463541,0.015716998329525854,5.8959960738144086e-05,-0.009940251592763984,0.016632700142901385
3.8383838383838382,6.6835443037974684,0.01735201827882222,0.015552822064471039,4.531847298664413e-05,-0.009871452102987977,0.016526225251390234
3.9393939393939394,6.6835443037974684,0.017364307411660822,0.015606983808943686,9.827381636026414e-05,-0.009891387366181352,0.016556618739975985
4.040404040404041,6.6835443037974684,0.017412150588111748,0.015764856865627515,-7.36643312983038e-05,-0.009953102236121779,0.016650222750869928
4.141414141414141,6.6835443037974684,0.017536533227235442,0.01567297115092499,4.903575275605027e-05,-0.00996285131344813,0.01668321481265245
4.242424242424242,6.6835443037974684,0.017240716360777297,0.015388699298949439,1.4064930579675986e-05,-0.00978882469791802,0.016393375504715247
4.343434343434343,6.6835443037974684,0.017340495794338533,0.01541159730932591,-1.7405689314994563e-05,-0.009825627931099331,0.016461053932417286
4.444444444444445,6.6835443037974684,0.01720971397044863,0.0156256168021781,-1.193216227052539e-05,-0.00985059923178802,0.01647489565203171
4.545454545454545,6.6835443037974684,0.01718331258392593,0.015539742272750023,5.9594276972504724e-05,-0.009816916457002786,0.016423648399415815
4.646464646464646,6.6835443037974684,0.01735377667664077,0.01555424620917568,4.0536891397262664e-05,-0.009872406865744934,0.016527799451516483
4.747474747474747,6.6835443037974684,0.017236662379557018,0.01564988729652151,3.966893629412613e-05,-0.009865964902823559,0.016500739366644212
4.848484848484849,6.6835443037974684,0.01723201868987857,0.015681344797884612,-4.322417464721741e-05,-0.009874009046328952,0.016511554171146678
4.94949494949495,6.6835443037974684,0.01736610303687602,0.01564547059529431,-2.4463760504493634e-06,-0.009903472089651099,0.01657291309250084
5.05050505050505,6.6835443037974684,0.017411360517979785,0.015482030505115459,4.0215422600643404e-05,-0.009868017306928573,0.01653149662958892
5.151515151515151,6.6835443037974684,0.017308390789203543,0.015370667411608413,-2.1802714683000693e-05,-0.009803717460243586,0.016425520272252424
5.252525252525253,6.6835443037974684,0.017273381965794855,0.015582466872086953,-1.2203445972958778e-05,-0.009856754651364541,0.016493075603940963
5.353535353535354,6.6835443037974684,0.01726724050242577,0.015494766983118984,-9.712767659584776e-06,-0.009828602245663426,0.0164527752496888
5.454545454545454,6.6835443037974684,0.017187290251538246,0.015526934967839526,-5.4697896480719434e-05,-0.009814267565813332,0.01642046568330999
5.555555555555555,6.6835443037974684,0.017241127656902635,0.015632750630979388,-5.438433243246741e-06,-0.009862163486364605,0.016495854468454398
5.656565656565657,6.6835443037974684,0.01721607519066852,0.015563698819510311,-7.082647784551538e-05,-0.009833932203053649,0.016452696008966507
5.757575757575758,6.6835443037974684,0.017346637385509053,0.015564738785268364,-9.477760395351237e-05,-0.009873412851233226,0.01652870202745492
5.858585858585858,6.6835443037974684,0.017420677902089943,0.015850103666537132,-3.361723352129078e-05,-0.009981234470588123,0.016691004897070438
5.959595959595959,6.6835443037974684,0.01738653758369385,0.015582231628392276,5.371646414529618e-05,-0.009890630763625839,0.016558539555189124
6.0606060606060606,6.6835443037974684,0.017472782751244482,0.015521350444266883,2.3063389877538578e-05,-0.00989823995865341,0.016583451634903424
6.161616161616162,6.6835443037974684,0.017551110882519354,0.015467183247818275,4.982433397631124e-05,-0.00990548823910129,0.016607722601312432
6.262626262626262,6.6835443037974684,0.017515258543701128,0.01570384921783311,5.137735909869415e-05,-0.00996573232846027,0.016683707676250242
6.363636363636363,6.6835443037974684,0.01758373394339867,0.01575261134197143,-1.6551935041898595e-05,-0.010000903585611029,0.01674346316124918
6.4646464646464645,6.6835443037974684,0.017538647622541682,0.015719830868182624,-5.7284805568789894e-06,-0.00997754354721729,0.016703675257721404
6.565656565656566,6.6835443037974684,0.01769735853749265,0.015892088934842643,9.273031752206832e-05,-0.010076834241700586,0.016868099800014386
6.666666666666667,6.6835443037974684,0.017425799967174527,0.01596821263326786,8.423022884802538e-05,-0.010018203780132717,0.016745289612633028
6.767676767676767,6.6835443037974684,0.01770501236616013,0.015876127033961827,-7.496697128593162e-06,-0.010074341820036588,0.016865112380970278
6.8686868686868685,6.6835443037974684,0.017639783956571512,0.015802896286165484,-3.6120464894593206e-05,-0.0100328040728211,0.016796956472936032
6.96969696969697,6.6835443037974684,0.017690684955221372,0.015856711944830307,-6.804817204714129e-05,-0.010064219070015503,0.016849137785230686
7.070707070707071,6.6835443037974684,0.01777488875259786,0.015975886810927417,1.7829921119864057e-05,-0.010125232669057583,0.01694718184515425
7.171717171717171,6.6835443037974684,0.017685457302101793,0.016029665154795463,4.7542477989680605e-05,-0.010114536737069177,0.016918640227832894
7.2727272727272725,6.6835443037974684,0.017789220381887894,0.015924606008621327,-4.1364208726257767e-05,-0.010114147917152767,0.016934232947978006
7.373737373737374,6.6835443037974684,0.017944916048740944,0.016178660805268415,5.2334231069848325e-05,-0.010237073056202807,0.017130457791078336
7.474747474747475,6.6835443037974684,0.018216118989623595,0.016355790329303663,8.128790272013082e-05,-0.010371572795678177,0.01736144201101176
7.575757575757575,6.6835443037974684,0.018054823371208104,0.016352621193028962,-7.983126348296427e-06,-0.01032223336927112,0.01726677070973982
7.6767676767676765,6.6835443037974684,0.0181173018341019,0.016407364767818785,-6.802109755506298e-05,-0.010357399980576207,0.017326134744384533
7.777777777777778,6.6835443037974684,0.01819355246665352,0.016637055549976975,-3.1036036799106194e-05,-0.010449182404989148,0.01746747593092658
7.878787878787879,6.6835443037974684,0.018338280910154315,0.016427693742364198,-2.0971750149518735e-05,-0.010429792395755555,0.017461595726682485
7.979797979797979,6.6835443037974684,0.01853766314319465,0.016642888644531277,-2.240314646217455e-05,-0.01055416553631778,0.017666690112347574
8.080808080808081,6.6835443037974684,0.018350511629379004,0.016615643591970042,-8.726143032750456e-06,-0.010489846566404714,0.017547522802606724
8.181818181818182,6.6835443037974684,0.018434594622371524,0.016636340778915397,-2.2506183640635285e-05,-0.010521280620386075,0.017604528813045375
8.282828282828282,6.6835443037974684,0.018706479295600324,0.016766899468650735,-5.2779970109019196e-05,-0.010642013629275316,0.017816284260265127
8.383838383838384,6.6835443037974684,0.01886289311015268,0.016989814807864743,-1.7496714142504193e-05,-0.010755812375405226,0.017999622257524214
8.484848484848484,6.6835443037974684,0.018808189412222582,0.016848775098288003,4.134599368268803e-05,-0.010697089353153175,0.017909198372338512
8.585858585858587,6.6835443037974684,0.01895854492436518,0.016970168984422846,6.396657789841025e-05,-0.010778614172636408,0.018047039233986685
8.686868686868687,6.6835443037974684,0.019169735759576825,0.017175405634607843,5.462709773128015e-05,-0.0109035424182554,0.018254706039423307
8.787878787878787,6.6835443037974684,0.019262551869655295,0.0172377610163834,-4.0962406292721206e-05,-0.010950093865811607,0.018334341478506627
8.88888888888889,6.6835443037974684,0.019552868572050037,0.017415570647873926,-5.9634103554447276e-05,-0.011090531765977187,0.018576950101691588
8.98989898989899,6.6835443037974684,0.01950732457702387,0.01756341040655117,-2.7729510195292824e-05,-0.01112122049507251,0.018611723632147668
9.09090909090909,6.6835443037974684,0.019665972959838834,0.017650034946776565,-4.161555990491598e-05,-0.011194802371984619,0.01873964545130207
9.191919191919192,6.6835443037974684,0.019747679105104023,0.017865247614037072,-1.4511166321140842e-05,-0.01128387801574233,0.01887700604056782
9.292929292929292,6.6835443037974684,0.020076283317391988,0.018041329012608964,-7.037838164995652e-05,-0.011435283699000286,0.019140499759718592
9.393939393939394,6.6835443037974684,0.02019210715139133,0.018257678989561005,2.3014062987470197e-05,-0.0115349358422857,0.019297787742316212
9.494949494949495,6.6835443037974684,0.020333153607480593,0.018377657151264274,8.807815082843834e-06,-0.01161324322762346,0.019429357295735878
9.595959595959595,6.6835443037974684,0.020585909355414246,0.0186674067919317,-4.795474335057122e-06,-0.011775994844203783,0.01969685927236019
9.696969696969697,6.6835443037974684,0.020637421375512503,0.018633074083509095,-5.2247089784733484e-05,-0.01178114863770648,0.019712031826391033
9.797979797979798,6.6835443037974684,0.02095808558763775,0.018933548444928536,2.8416589740778283e-05,-0.011967490209769885,0.02002278956430458
9.8989898989899,6.6835443037974684,0.021133974453856032,0.01912124385824502,-2.5590559169966634e-05,-0.012076565493630315,0.020202993053178193
10.0,6.6835443037974684,0.0214816049351136,0.0193333053181172,9.048053191410587e-05,-0.01224447307596924,0.020492685972270146
0.0,6.784810126582278,0.02146648102408498,0.01927234641444518,-2.1381069090499605e-05,-0.012221648231559048,0.020457884952527355
0.10101010101010101,6.784810126582278,0.021291822139896006,0.019085885939487384,-3.6881485637961724e-06,-0.012113312423815015,0.02027904051313819
0.20202020202020202,6.784810126582278,0.021081832607885834,0.018927561310576047,1.250758024746108e-05,-0.012002818175538563,0.020091516452626572
0.30303030303030304,6.784810126582278,0.020734603903518212,0.018849893359112718,4.1576320562324504e-05,-0.011875349178789277,0.01985956676345807
0.40404040404040403,6.784810126582278,0.020624741047028793,0.018527674537606988,-4.7960306136742165e-05,-0.011745724675390734,0.019660444503103326
0.5050505050505051,6.784810126582278,0.02036311070274063,0.01836716104091117,-7.812818186352066e-07,-0.01161908152309554,0.019442128238824574
0.6060606060606061,6.784810126582278,0.020118448802141378,0.018215707978867155,-6.953054704052318e-05,-0.011500247034302559,0.01923815777300588
0.7070707070707071,6.784810126582278,0.02012353746845994,0.017959200124929686,-1.154228242124226e-05,-0.011424821278016887,0.01913341037105103
0.8080808080808081,6.784810126582278,0.01983782171146424,0.01785587880975943,7.389670128933572e-06,-0.011308110156367101,0.018924851434471333
0.9090909090909091,6.784810126582278,0.019744915072486074,0.01756156562743552,-3.857914248776094e-05,-0.011191944209976478,0.018748949349323894
1.0101010101010102,6.784810126582278,0.01970474894857137,0.017519402726376296,2.916309800786481e-05,-0.011167245502484298,0.0187081191470944
1.1111111111111112,6.784810126582278,0.019440704377075,0.01746906328675414,-3.439522345073022e-05,-0.011072930299148742,0.018533801897760528
1.2121212121212122,6.784810126582278,0.019411245470740506,0.017294299455762357,-4.300838336174685e-05,-0.011011663477950859,0.018444264733888067
1.3131313131313131,6.784810126582278,0.0191830552485184,0.01729976203143188,8.280897071959815e-06,-0.010944845183985086,0.018314182752622945
1.4141414141414141,6.784810126582278,0.01890733916708044,0.01695539187720742,-4.769524987394429e-05,-0.010758819313286358,0.018011059593098504
1.5151515151515151,6.784810126582278,0.018920336010727644,0.016913048843245456,-1.972107598057238e-05,-0.010750015456191928,0.018000859302136234
1.6161616161616161,6.784810126582278,0.01883161480413242,0.016710365427399055,4.819230916163735e-05,-0.010662594069459443,0.01786588456750321
1.7171717171717171,6.784810126582278,0.01864520053746763,0.016874482675275217,5.049230649412189e-05,-0.010655904963822854,0.01782613821367551
1.8181818181818181,6.784810126582278,0.01853933116756546,0.0166928304844721,4.441056728295062e-05,-0.010569648495611268,0.017688679830439123
1.9191919191919191,6.784810126582278,0.0186219197662944,0.01676236250136553,1.7587082204059446e-05,-0.010615284680297977,0.017765310319043177
2.0202020202020203,6.784810126582278,0.01823103756380839,0.0165439224946123,-1.7147408571969592e-05,-0.010432488017526208,0.017448785396398863
2.121212121212121,6.784810126582278,0.018392012407723497,0.016503070707817497,8.103516531516502e-06,-0.010468524934662297,0.017524068562131963
2.2222222222222223,6.784810126582278,0.01844532736613971,0.016573168214150537,3.132892575372139e-05,-0.010505548674087073,0.017584238328663855
2.323232323232323,6.784810126582278,0.01819158425521337,0.016548837833247888,6.902370700286406e-05,-0.010422126626538377,0.01742878327344331
2.4242424242424243,6.784810126582278,0.01799251573528751,0.01635231036374097,-3.162997087659579e-05,-0.010303447829708542,0.017231148439785942
2.525252525252525,6.784810126582278,0.01791596607157245,0.01622639861642692,-6.272883005550916e-05,-0.010242709406399812,0.017134119469046614
2.6262626262626263,6.784810126582278,0.0179746968812753,0.016134793322583073,-3.566701350301502e-05,-0.010232847061157511,0.017129129596342614
2.727272727272727,6.784810126582278,0.01805021401755209,0.01612089778806316,5.7280426696372226e-05,-0.010251333541684574,0.01716734573208215
2.8282828282828283,6.784810126582278,0.01790376457335052,0.01608770121463844,-7.377381401771409e-05,-0.010197439736396688,0.01706882623155595
2.929292929292929,6.784810126582278,0.01781612223244648,0.015984883714324178,-3.6477331774663396e-05,-0.010140301784031197,0.01697486578513355
3.0303030303030303,6.784810126582278,0.017788337006195632,0.01601067278331616,-1.912745612163316e-06,-0.010139702936853538,0.01696948273314909
3.131313131313131,6.784810126582278,0.017631638081095996,0.015845847997859017,5.2507394623645234e-05,-0.010043245823686502,0.016810281802729178
3.2323232323232323,6.784810126582278,0.017755211405701167,0.01589416205109815,-7.732087030249554e-05,-0.010094812037039795,0.016902237946051456
3.3333333333333335,6.784810126582278,0.01758644395479645,0.01574508037873587,1.7927066484126638e-05,-0.009999457300059696,0.01674191021367587
3.4343434343434343,6.784810126582278,0.017483390631090945,0.015831204101266805,-2.8583234055770297e-05,-0.009994378419707324,0.016718710978903734
3.5353535353535355,6.784810126582278,0.01750357543388004,0.01580603988420434,-9.204490851439075e-05,-0.009992884595425314,0.016720324612938896
3.6363636363636362,6.784810126582278,0.017532652381337003,0.015993848651700046,-7.665857403257204e-05,-0.010057950309911114,0.016816662426868037
3.7373737373737375,6.784810126582278,0.0174300388306766,0.015747019345161078,-2.2363469557480462e-05,-0.009953117452751301,0.016652483707138406
3.8383838383838382,6.784810126582278,0.017410141648360498,0.015706283071412253,2.8059907733529017e-06,-0.009934927415931823,0.01662383140896005
3.9393939393939394,6.784810126582278,0.017347415206279332,0.015684879932308285,-2.9295102052045044e-05,-0.009909688541576285,0.016578863736474853
4.040404040404041,6.784810126582278,0.017453320386119138,0.0155813799159497,-5.212663927955539e-06,-0.00991041009062065,0.016596718301229493
4.141414141414141,6.784810126582278,0.01733225648859042,0.015505826150222599,-4.238995445555271e-05,-0.009851424791643906,0.016495217319234604
4.242424242424242,6.784810126582278,0.017521697605586785,0.015774488436565186,-2.7266146194354863e-05,-0.00998885581264559,0.016716781582494244
4.343434343434343,6.784810126582278,0.01756639730257247,0.015438653557355898,8.290467853764882e-05,-0.009901515257978511,0.016605704899454468
4.444444444444445,6.784810126582278,0.017367755605331547,0.01548723628483288,-4.258505606605435e-05,-0.009856497567049328,0.016508189730335958
4.545454545454545,6.784810126582278,0.017269698075829884,0.01555906380522474,4.5693405588128205e-05,-0.009848628564316387,0.016481288406205254
4.646464646464646,6.784810126582278,0.017301488573762454,0.015602337153103094,7.668022279421713e-05,-0.009871147718059666,0.016518123776580518
4.747474747474747,6.784810126582278,0.017361358543887064,0.01566617048355507,-9.16534039926967e-05,-0.009908258708232639,0.016579652178919276
4.848484848484849,6.784810126582278,0.017271423742583194,0.015442292019622548,1.6383915491809547e-05,-0.009814114728661722,0.01643340796017714
4.94949494949495,6.784810126582278,0.017489580041823966,0.015618526075785328,7.040952729911025e-08,-0.009932431835282788,0.016633168817049373
5.05050505050505,6.784810126582278,0.017272921719687934,0.01573966763773557,-6.792492805760649e-06,-0.00990377680722705,0.016559621176047815
5.151515151515151,6.784810126582278,0.017261377500163093,0.015609540223388764,-8.960279110008591e-06,-0.009861275317065557,0.016497605088273873
5.252525252525253,6.784810126582278,0.01736502884947866,0.015641418241339022,4.468299099503285e-05,-0.009901934127245304,0.016570772530125386
5.353535353535354,6.784810126582278,0.017261299185621748,0.015495431411939051,-8.751197713095694e-05,-0.009827019179268238,0.016450305214320993
5.454545454545454,6.784810126582278,0.017266056971206003,0.015552111861917831,5.172700909608708e-05,-0.00984545064993715,0.01647632496397497
5.555555555555555,6.784810126582278,0.01726850268745007,0.01567495385778261,5.5004582386273854e-05,-0.009883036963569803,0.016529714371505633
5.656565656565657,6.784810126582278,0.017426631487377085,0.015824232427306854,6.830524255149013e-05,-0.009975259174405181,0.01668366706235392
5.757575757575758,6.784810126582278,0.017589060937885308,0.015794612565813087,3.84850404499916e-05,-0.010015102051109517,0.016764154949338285
5.858585858585858,6.784810126582278,0.01729095199426367,0.01566400547395068,8.627887715116074e-05,-0.009886487240464304,0.016538284487873898
5.959595959595959,6.784810126582278,0.017448622206472177,0.01574134547441824,-4.327267095171446e-06,-0.009956990304267124,0.01666072147958241
6.0606060606060606,6.784810126582278,0.01739736262407511,0.015765319238616123,-3.9073562708982665e-05,-0.00994880455880737,0.016641608141055395
6.161616161616162,6.784810126582278,0.017454147079906446,0.015466224370934338,1.901023324567612e-05,-0.009876111435252235,0.016550005311324605
6.262626262626262,6.784810126582278,0.017593359792892314,0.015540274355158777,5.899582046749508e-05,-0.009940090244415329,0.01666226993376645
6.363636363636363,6.784810126582278,0.01742079923193646,0.01566831774318172,-4.978949484785363e-05,-0.009926735092535454,0.01661424828440866
6.4646464646464645,6.784810126582278,0.017410518588075942,0.015828101723498782,0.00010326421021511103,-0.009971586093472417,0.016676675115129058
6.565656565656566,6.784810126582278,0.01737048960778676,0.015864094800192383,-9.12471423707997e-06,-0.009970375322393744,0.016668430308858204
6.666666666666667,6.784810126582278,0.017616497076035773,0.01568532586794244,-5.819782011459322e-05,-0.009990546883193462,0.016734995682193745
6.767676767676767,6.784810126582278,0.01746378755739482,0.01597032980713111,4.511839125220934e-05,-0.010030235209357778,0.016767199230425404
6.8686868686868685,6.784810126582278,0.017668665039113705,0.01587476032493545,-8.50542847253068e-06,-0.010063027609214745,0.01684351904763336
6.96969696969697,6.784810126582278,0.017711460099804153,0.015919592264998596,-1.2686279295992032e-06,-0.010089315709440825,0.016886977774970117
7.070707070707071,6.784810126582278,0.017597281344011954,0.015921270580709832,0.00012505420293133597,-0.010055565577416535,0.016823406477363866
7.171717171717171,6.784810126582278,0.018008080027475108,0.015992357079446722,-2.4920499552694443e-05,-0.010200131132076547,0.017089664953173794
7.2727272727272725,6.784810126582278,0.017890267240602418,0.01606998829784917,-6.716014677967377e-05,-0.010188076661535475,0.017053543094830835
7.373737373737374,6.784810126582278,0.017871890713033217,0.016057166075020543,-1.6546885240389405e-06,-0.010178717036416127,0.01703716968805512
7.474747474747475,6.784810126582278,0.01795201997916494,0.016161364475318834,-1.739232019227599e-05,-0.010234015336345131,0.017127069000951376
7.575757575757575,6.784810126582278,0.018173571249533792,0.016231155007331972,0.00010111745429960713,-0.010321417877059728,0.01728530321008678
7.6767676767676765,6.784810126582278,0.018192479425470264,0.016463299466902656,0.00012157184808535903,-0.010396733667711877,0.01739375288138919
7.777777777777778,6.784810126582278,0.01807906232280146,0.01623449480814225,5.211793464307676e-05,-0.010294067139283112,0.017231222288888008
7.878787878787879,6.784810126582278,0.018341679984355035,0.016517435332313063,4.575613352790052e-05,-0.010457734595000429,0.01750119031521385
7.979797979797979,6.784810126582278,0.018401789362605777,0.016393753368869207,-6.152475881409254e-05,-0.010438662819442494,0.017484792272040955
8.080808080808081,6.784810126582278,0.018494950586489,0.016472828965368884,2.8830817657976628e-05,-0.010490333865557365,0.01757144351591309
8.181818181818182,6.784810126582278,0.018600508134089092,0.016696118035383376,9.282864835076268e-05,-0.01058898785084174,0.017725936715637124
8.282828282828282,6.784810126582278,0.01858383657342862,0.016682488575064984,-3.582810271671013e-05,-0.010579897544548082,0.01770998634914245
8.383838383838384,6.784810126582278,0.0186640020545909,0.016905552273009838,4.5691247325723446e-05,-0.010670866298280223,0.01785003280282808
8.484848484848484,6.784810126582278,0.018828555235040536,0.016839958198494296,2.6292479910633028e-05,-0.01070055403006045,0.017917273094792734
8.585858585858587,6.784810126582278,0.01898547067806797,0.016845737098097464,1.6961316647301836e-05,-0.01074936233284963,0.018011206805164718
8.686868686868687,6.784810126582278,0.019176055324411675,0.01716896329871565,-1.5581959544009335e-05,-0.010903505586938195,0.018255468683957887
8.787878787878787,6.784810126582278,0.019272075981541036,0.017284685272070978,-0.00010706017825415298,-0.010967028376083604,0.0183601708967473
8.88888888888889,6.784810126582278,0.019251115557145124,0.01738007457585828,3.7191434859864274e-05,-0.010989357039901022,0.01838724470968349
8.98989898989899,6.784810126582278,0.019615459098383213,0.01769310516691761,4.5521386646923015e-05,-0.011192569279590248,0.018728588893795844
9.09090909090909,6.784810126582278,0.01956461064931643,0.017804322338822377,-1.62742457141328e-05,-0.011210679896441643,0.018746574191656176
9.191919191919192,6.784810126582278,0.019943568155422097,0.017925062133067195,1.3550082966659488e-05,-0.011360589086546786,0.019014852503175764
9.292929292929292,6.784810126582278,0.020083908231651657,0.017808223800061636,-5.003968134374014e-05,-0.011367639609513988,0.019048490336781576
9.393939393939394,6.784810126582278,0.02010978024201504,0.018234266834283138,4.398946538259576e-05,-0.011503214122889455,0.019240853792736778
9.494949494949495,6.784810126582278,0.02031375625756339,0.01842128945529133,-1.4581184427365735e-05,-0.011620513713856414,0.019436760336417447
9.595959595959595,6.784810126582278,0.02046144565625648,0.01858313337990041,-6.105046722787945e-05,-0.011713373710847068,0.019590227468356623
9.696969696969697,6.784810126582278,0.02067235439956552,0.018733192860285415,8.789693479248676e-05,-0.01182166417795528,0.019774800300688032
9.797979797979798,6.784810126582278,0.021074931004826207,0.018957538549780054,-1.5091290246804169e-05,-0.012009740866381879,0.020100070920465878
9.8989898989899,6.784810126582278,0.021374345251408272,0.01911388793566986,-1.489674707482065e-06,-0.012146469956123439,0.020338547484208463
10.0,6.784810126582278,0.021408030310961175,0.019408919540381712,3.033339251735391e-05,-0.012245084955402866,0.020481844205067327
0.0,6.886075949367089,0.021501362363534372,0.019274490261716667,6.293936767282243e-06,-0.012232755787575312,0.0204789374159979
0.10101010101010101,6.886075949367089,0.021289318996185,0.018989522343885342,2.040280720829402e-05,-0.012083652402021102,0.020237695329007016
0.20202020202020202,6.886075949367089,0.02100355996515714,0.019019422688686578,-6.385911390139576e-05,-0.012006894796153115,0.020085433020865236
0.30303030303030304,6.886075949367089,0.020738452893281197,0.0186084727775539,-3.076980112877125e-05,-0.01180407770125053,0.019759822664907323
0.40404040404040403,6.886075949367089,0.020597916673466943,0.018540006489412994,3.676732508282288e-05,-0.01174137694886398,0.019650052382339328
0.5050505050505051,6.886075949367089,0.02030691695950022,0.018183071032461775,-4.6055947730624866e-05,-0.011546996397588598,0.019332852828738367
0.6060606060606061,6.886075949367089,0.02019540333952339,0.018227958828326115,-3.5940243229014964e-05,-0.01152700865035485,0.019287189883499423
0.7070707070707071,6.886075949367089,0.019916695293480464,0.018004531058777837,-8.108464566766144e-05,-0.01137636790567749,0.019033309097985257
0.8080808080808081,6.886075949367089,0.019834632150161968,0.01783577445464289,5.397339160652704e-06,-0.011301121981441458,0.01891458550700605
0.9090909090909091,6.886075949367089,0.019691182687628074,0.017664993238493118,6.382880027804549e-05,-0.011206852777836358,0.018760657639483303
1.0101010101010102,6.886075949367089,0.019594857725975363,0.01753857083528843,0.00010156584462521294,-0.011140028568379139,0.018652749472225585
1.1111111111111112,6.886075949367089,0.019547917771165657,0.01750486780049909,4.281206279183526e-05,-0.011115835671499425,0.018610837384709047
1.2121212121212122,6.886075949367089,0.01921453727728994,0.017244881097975052,-1.073957178873863e-05,-0.010937825512579498,0.018309350129903416
1.3131313131313131,6.886075949367089,0.019226774797673908,0.01745053239198292,-3.0516445315997843e-05,-0.011003192156897048,0.018403132538898054
1.4141414141414141,6.886075949367089,0.019091385750392594,0.01716112448372172,-1.1176021310135559e-05,-0.010875753070234294,0.018203184630641012
1.5151515151515151,6.886075949367089,0.018710461662390813,0.01697795652728206,-3.7727770258040225e-05,-0.010706525456901862,0.017907295968587023
1.6161616161616161,6.886075949367089,0.01877151700607375,0.016902647912717825,7.787544265749244e-05,-0.010702249475637473,0.01791086843743396
1.7171717171717171,6.886075949367089,0.01876078926302641,0.016930205596414127,-2.10941714493783e-05,-0.01070729845783216,0.01791581398727702
1.8181818181818181,6.886075949367089,0.018405856947706224,0.016754687664069588,-3.974282885412107e-05,-0.010548163383532743,0.01763846599988004
1.9191919191919191,6.886075949367089,0.018597927606654116,0.01653921488229904,5.988205024314986e-05,-0.010541142746685946,0.01765911030355548
2.0202020202020203,6.886075949367089,0.01839226522594177,0.016559315018685673,-9.20289023287225e-06,-0.010485474073388231,0.01754774271310797
2.121212121212121,6.886075949367089,0.018211783492708442,0.016402802771513004,-6.843138837720008e-05,-0.010384375879266433,0.01737845656445921
2.2222222222222223,6.886075949367089,0.018242478909230156,0.016437569332862206,-7.720560216134256e-05,-0.01040401447262771,0.017410846980191033
2.323232323232323,6.886075949367089,0.0182457224882019,0.016237748305508996,4.0273611194771876e-05,-0.01034504123811327,0.017329347235981656
2.4242424242424243,6.886075949367089,0.0180747601887827,0.01623389700054476,-4.2339527030352196e-05,-0.010292597156798238,0.017228405335337982
2.525252525252525,6.886075949367089,0.018115665275905735,0.016288932217764836,-1.5786699979497743e-05,-0.010321379248101172,0.017274910856046065
2.6262626262626263,6.886075949367089,0.017927546557757357,0.016124436713841832,8.00278739488428e-05,-0.010215594981479757,0.01709801182582533
2.727272727272727,6.886075949367089,0.017912181285677335,0.01612804607769887,-2.822944143305241e-05,-0.010212068209012862,0.017090173032241036
2.8282828282828283,6.886075949367089,0.017753575183354426,0.015963560844250498,8.287537442973033e-06,-0.010115140808281478,0.016929696837996906
2.929292929292929,6.886075949367089,0.017932864986605682,0.0158211094563937,7.13908953352335e-05,-0.010126192332899813,0.016976236956964576
3.0303030303030303,6.886075949367089,0.017768979486131847,0.015849511422185034,9.864604899882803e-05,-0.010085547272495063,0.01689210449007107
3.131313131313131,6.886075949367089,0.0177956032940077,0.015875723300314407,1.7861942772183252e-05,-0.010101397978296631,0.016917593510751238
3.2323232323232323,6.886075949367089,0.017600950242655074,0.015887530845539306,3.606253853047926e-05,-0.010046544326458315,0.016809977615733263
3.3333333333333335,6.886075949367089,0.017390197873032472,0.015789367744500866,9.613627473067574e-06,-0.00995386968526,0.016647617359035513
3.4343434343434343,6.886075949367089,0.01746134666637512,0.015882292283224696,-3.451771448864111e-05,-0.010003091684879945,0.016727916743482077
3.5353535353535355,6.886075949367089,0.017362874377672224,0.015775911916508286,2.3228615650516537e-05,-0.009941635888254153,0.01662634191151061
3.6363636363636362,6.886075949367089,0.01761242555350767,0.015732411344310655,5.563346576993049e-05,-0.010003451069345496,0.0167520047234101
3.7373737373737375,6.886075949367089,0.017290680132187784,0.01562488775349971,-2.9806668505380452e-05,-0.009874670365706249,0.01652097048627771
3.8383838383838382,6.886075949367089,0.01747362729205114,0.015669954398157694,0.00010253739112654865,-0.00994307450706265,0.01664619237227385
3.9393939393939394,6.886075949367089,0.017330143077049352,0.01567022743944669,2.6039429665127356e-05,-0.009900111154948812,0.016562748493386164
4.040404040404041,6.886075949367089,0.017416917951506822,0.015608154211313082,-9.680371721099579e-06,-0.00990752164884597,0.016586676842259125
4.141414141414141,6.886075949367089,0.01734067911820241,0.015475102754658772,2.2000437024890055e-05,-0.009844734561858354,0.01648728656922201
4.242424242424242,6.886075949367089,0.017316571869818873,0.01578152583212486,6.689255452481992e-05,-0.00992942931058312,0.01660276231434956
4.343434343434343,6.886075949367089,0.01740290416331947,0.015887350608825283,-4.9553011362403665e-05,-0.009987076431643427,0.016697014976749195
4.444444444444445,6.886075949367089,0.017355387512453954,0.015730552022604646,5.2981508828388725e-05,-0.00992578186051758,0.016602961712508614
4.545454545454545,6.886075949367089,0.017356156428538373,0.015616215133887298,7.18336992864543e-06,-0.0098917114687277,0.016554909338220455
4.646464646464646,6.886075949367089,0.017225669303918775,0.015550891835346047,-3.452003479771962e-06,-0.009832968341779444,0.016452338297485387
4.747474747474747,6.886075949367089,0.01725904655071882,0.01557682690944188,1.8038846697764272e-06,-0.009850762038048211,0.016482446827641963
4.848484848484849,6.886075949367089,0.017414211328165608,0.015696741838939706,-5.947691469317181e-06,-0.009933285950131593,0.016622159520305366
4.94949494949495,6.886075949367089,0.017395474290455095,0.015409546830599068,-3.5690647989051514e-05,-0.009841506336316249,0.016492546954977018
5.05050505050505,6.886075949367089,0.017219139340054077,0.015597887102251783,3.0955343416314163e-06,-0.009845107932691758,0.016468475308591357
5.151515151515151,6.886075949367089,0.01716882148288985,0.015698628896640594,-4.765610663168467e-05,-0.009860235113859132,0.016483180415402802
5.252525252525253,6.886075949367089,0.017420705948498365,0.015737074853391254,-1.5268306827291834e-06,-0.009947334240566886,0.016642883589344862
5.353535353535354,6.886075949367089,0.01731623895474165,0.015611192869519706,-3.121847986044632e-05,-0.009878229547278407,0.016529889655722062
5.454545454545454,6.886075949367089,0.017399322301180364,0.015606197511073826,0.0001283373799187431,-0.009901655943676257,0.016577151997650263
5.555555555555555,6.886075949367089,0.01743773198385086,0.015440861206768026,6.408838053643717e-05,-0.009863577957185666,0.016530378525169576
5.656565656565657,6.886075949367089,0.017406237558561084,0.015673925115792155,7.451963054770881e-05,-0.009924048802305971,0.016608480663984834
5.757575757575758,6.886075949367089,0.01731278182364483,0.015846203326259405,0.00013354378302596838,-0.009947695544971269,0.01662967874721553
5.858585858585858,6.886075949367089,0.017399371789800444,0.01563100212878604,8.243326925917395e-05,-0.009909112175575946,0.01658665531309881
5.959595959595959,6.886075949367089,0.01752673017471235,0.015635315375054516,-3.036892322025231e-05,-0.00994861366493006,0.016661817743990878
6.0606060606060606,6.886075949367089,0.01747352639516904,0.01560077289863812,2.5499751375724095e-05,-0.009922289788142148,0.016616548179454134
6.161616161616162,6.886075949367089,0.017512622839911243,0.015475622335276343,-4.960522576769807e-05,-0.009896473552556276,0.01658841433837949
6.262626262626262,6.886075949367089,0.01772193363960337,0.01579662042597792,6.296354251648871e-05,-0.010055566219674386,0.016842368690680155
6.363636363636363,6.886075949367089,0.017441292842774504,0.015837957224251308,5.368050699062378e-05,-0.009983775020107744,0.016697717804407302
6.4646464646464645,6.886075949367089,0.017679712794515853,0.015678255550415493,0.00010770170334304215,-0.010007390503479404,0.01676984452286427
6.565656565656566,6.886075949367089,0.017581525044657088,0.015936286700011904,-4.219582966543492e-05,-0.010055343523400696,0.016819523608292513
6.666666666666667,6.886075949367089,0.017606418888867076,0.01602306951466814,8.922785065323345e-05,-0.010088846521060565,0.016871270071617494
6.767676767676767,6.886075949367089,0.017634180713066317,0.0158584785443238,-7.123431943317802e-05,-0.010047797777217034,0.016817241678163602
6.8686868686868685,6.886075949367089,0.017619377790693114,0.01574183622253221,6.67142457059801e-05,-0.010008364203967597,0.01676006784699647
6.96969696969697,6.886075949367089,0.017706751008928323,0.01600950304937168,1.1384524889772336e-05,-0.010114876217490002,0.016922095725126457
7.070707070707071,6.886075949367089,0.01785603709980723,0.01602034050370298,-5.976046220929609e-05,-0.010162913281053064,0.017012944786754115
7.171717171717171,6.886075949367089,0.017755558441471336,0.016022988517144364,3.998589342342656e-05,-0.01013356408758471,0.01695593418779637
7.2727272727272725,6.886075949367089,0.01787872954605967,0.016151878609963373,1.613041780602682e-05,-0.010209182446806913,0.017080921054057764
7.373737373737374,6.886075949367089,0.017922684104243986,0.016013946664638158,-2.7195988501625653e-05,-0.010180989230664643,0.0170487068369201
7.474747474747475,6.886075949367089,0.01820079688385578,0.016225529088349573,-3.836711761372709e-05,-0.010327897791661605,0.017298082501862745
7.575757575757575,6.886075949367089,0.018143832215378426,0.016360039588529947,0.00013221300962018592,-0.010351161541172512,0.017322475871149986
7.6767676767676765,6.886075949367089,0.01809435998769516,0.016464625757347445,0.00010805896151506638,-0.01036769572351278,0.01733804860401484
7.777777777777778,6.886075949367089,0.018179363528149313,0.016420844207171048,6.645273727043995e-07,-0.010380062320596108,0.017367005723736926
7.878787878787879,6.886075949367089,0.018229035279722985,0.016509060315022365,4.721653822928933e-05,-0.010421428678423604,0.01743299300181301
7.979797979797979,6.886075949367089,0.018486504484301565,0.016659081609879507,1.6815024361221703e-05,-0.010543675828254322,0.017643936904287463
8.080808080808081,6.886075949367089,0.0184624406440842,0.016650007563294655,8.370222833706374e-05,-0.010533734462213656,0.017626846235850206
8.181818181818182,6.886075949367089,0.018369579942107285,0.01661980711993708,-5.969774288963852e-05,-0.01049681611861331,0.017560503179089484
8.282828282828282,6.886075949367089,0.018691805104107558,0.01686757277423083,-2.614630154345608e-05,-0.010667813363501517,0.017849797123662057
8.383838383838384,6.886075949367089,0.018822367854161543,0.016774444477753486,2.737394628313211e-05,-0.010679043699574509,0.017886615181859557
8.484848484848484,6.886075949367089,0.018843617182296737,0.016962333918264478,1.6256173832911604e-06,-0.010741785330168363,0.017976956403170333
8.585858585858587,6.886075949367089,0.018990650362747018,0.016946621925484486,8.42927983024961e-05,-0.01078118168646945,0.018056210563028263
8.686868686868687,6.886075949367089,0.019102212436273712,0.017211027885698896,-5.052704281856895e-05,-0.010893972096591783,0.01823054987842528
8.787878787878787,6.886075949367089,0.01925228644823161,0.01738403376352716,-1.8824457575484076e-05,-0.01099089606352763,0.01838950322373253
8.88888888888889,6.886075949367089,0.01942028546858649,0.017319611692313375,5.053852782319781e-05,-0.01102196914826996,0.01846001885189989
8.98989898989899,6.886075949367089,0.01973501115522989,0.01749305515393403,5.076551859515735e-05,-0.011168419892749176,0.018715227402500912
9.09090909090909,6.886075949367089,0.019769858422623104,0.017642760663239315,5.855610905868307e-05,-0.011223785725758726,0.01879706657508467
9.191919191919192,6.886075949367089,0.019734675572157228,0.017958380077388397,3.133627677713326e-05,-0.011307916694863689,0.018909282805019724
9.292929292929292,6.886075949367089,0.019866271158373645,0.017967765276520366,-5.003576054259244e-06,-0.011350210930468204,0.01898833580870413
9.393939393939394,6.886075949367089,0.020375505323753856,0.01812703790733899,-4.263678712709372e-05,-0.011550762969327853,0.01934964125751179
9.494949494949495,6.886075949367089,0.020261217825394244,0.018292841157747087,2.8527148417052506e-05,-0.0115662176949424,0.019352317366216867
9.595959595959595,6.886075949367089,0.020564071794207574,0.018474564634395944,-8.986999133274398e-05,-0.011711590928581055,0.019603635977169565
9.696969696969697,6.886075949367089,0.02083333831026604,0.018550788944775597,-6.885676622601913e-06,-0.011815238176512489,0.01979103422897302
9.797979797979798,6.886075949367089,0.02110366396603797,0.018985779966327786,-0.00010180670948011913,-0.012026833179709727,0.020129233641572923
9.8989898989899,6.886075949367089,0.021112854919822642,0.019032284327518738,3.365196126447965e-05,-0.012043541774202414,0.020153362725678515
10.0,6.886075949367089,0.02154233371255241,0.019311483188750703,-3.4322011082088454e-05,-0.012256145070390934,0.020518153995847038
0.0,6.987341772151899,0.02141183820087452,0.019402083067824413,-3.650376016043823e-05,-0.01224417638060968,0.02048114685940517
0.10101010101010101,6.987341772151899,0.021186844137603533,0.019233798125046022,1.448226006989708e-05,-0.012126192678794867,0.020280988658944073
0.20202020202020202,6.987341772151899,0.021172973258686948,0.018907482064707513,4.331109075437658e-05,-0.012024136597018339,0.020136178635652313
0.30303030303030304,6.987341772151899,0.020792615219992885,0.018762353247694208,-4.569959746504857e-05,-0.011866490540306128,0.019855644556062063
0.40404040404040403,6.987341772151899,0.020654308998535386,0.018721464138422402,-4.2113433905440706e-05,-0.011812731941087336,0.019759051472608355
0.5050505050505051,6.987341772151899,0.020326242938978268,0.018606855074532937,1.6893355814500177e-05,-0.01167992940405336,0.019523437385873702
0.6060606060606061,6.987341772151899,0.01993515729730986,0.018210830406383084,9.007378013257359e-07,-0.011443796311107883,0.01913136362956491
0.7070707070707071,6.987341772151899,0.0199224390896242,0.01796394360281335,6.406129079035658e-05,-0.011365914807731263,0.019019295159266154
0.8080808080808081,6.987341772151899,0.019820971298812693,0.01772928064854075,-2.129446889574466e-05,-0.011265075584206032,0.0188623459045521
0.9090909090909091,6.987341772151899,0.01980727864990019,0.01772702931639263,-2.5674981605108207e-06,-0.011260292389887846,0.01885342585236003
1.0101010101010102,6.987341772151899,0.019421313978578512,0.017517092795934622,-9.045018090831912e-06,-0.01108152203235394,0.01854268758651853
1.1111111111111112,6.987341772151899,0.01948836624799714,0.017523136329820423,-2.1929010145577164e-05,-0.011103450773345267,0.01858388737279904
1.2121212121212122,6.987341772151899,0.019272595726556242,0.01724344448257512,-1.4844063727835924e-05,-0.010954812062739409,0.0183424112443163
1.3131313131313131,6.987341772151899,0.01900055823831175,0.017259005691544774,5.001277523203022e-06,-0.010877869178956955,0.01819241114006144
1.4141414141414141,6.987341772151899,0.01915078981970283,0.017040197425095622,9.508079045452358e-05,-0.010857296173439536,0.018188319347882637
1.5151515151515151,6.987341772151899,0.018919439814942207,0.016787439967886245,3.498860379317108e-05,-0.010712063934848534,0.017948761964949336
1.6161616161616161,6.987341772151899,0.01866018662136861,0.016928020489891973,2.0463411951331436e-05,-0.010676462133378174,0.017857258390706475
1.7171717171717171,6.987341772151899,0.018600946790085816,0.016856203004722244,5.509374296967489e-05,-0.010637144938442417,0.017793104619819193
1.8181818181818181,6.987341772151899,0.018442427271917916,0.0166865285556801,-2.4169984229473304e-05,-0.010538686748279406,0.01763023034945971
1.9191919191919191,6.987341772151899,0.01843611574152441,0.016620311914568156,-1.2939458070497048e-05,-0.01051692829682777,0.017598626081144236
2.0202020202020203,6.987341772151899,0.018310017634603732,0.01644613923862655,-2.221105992329676e-05,-0.010426847061969084,0.01745292589077659
2.121212121212121,6.987341772151899,0.018378039419059536,0.016574630954519044,-8.08800502106276e-07,-0.010485801112073572,0.017545982591207782
2.2222222222222223,6.987341772151899,0.018409428641748684,0.016613229602736375,-0.0001344930817319511,-0.010506797473345516,0.017581827579504133
2.323232323232323,6.987341772151899,0.018329246286911814,0.016316470484302917,-5.2539104184571695e-05,-0.01039371503136442,0.01741057591074715
2.4242424242424243,6.987341772151899,0.01825757026767741,0.0161066457813363,-1.6574850127648742e-05,-0.010309264814704113,0.01728280988300946
2.525252525252525,6.987341772151899,0.018170940449909273,0.016349641553787778,5.388769762844628e-05,-0.010356174601109115,0.01733246100160391
2.6262626262626263,6.987341772151899,0.017823648888557732,0.01615796847076866,-4.084308486198051e-05,-0.010194485207797917,0.017052080591596904
2.727272727272727,6.987341772151899,0.017820255613964674,0.01611854712063803,3.1117323098226566e-05,-0.01018164082038081,0.01703335981170933
2.8282828282828283,6.987341772151899,0.017902598427913224,0.01603822614827662,-3.9421501053397755e-05,-0.010182247372856952,0.01704718359113807
2.929292929292929,6.987341772151899,0.017808775035940007,0.015966296841720417,6.454833682627146e-05,-0.010132521563298125,0.01696311922880854
3.0303030303030303,6.987341772151899,0.0177241147308596,0.016035341547649906,-4.6101980620731994e-05,-0.010127836883552852,0.016943156859961086
3.131313131313131,6.987341772151899,0.01762859669507635,0.016005054959490377,-5.022505545367053e-05,-0.010090095496370018,0.016875725596227346
3.2323232323232323,6.987341772151899,0.017707390654533542,0.015924619896207987,-6.134501067883721e-06,-0.010089603165222458,0.016886735919062715
3.3333333333333335,6.987341772151899,0.017561845109151982,0.015846337121238358,-3.0386395277185102e-05,-0.010022454669117102,0.016770111977152766
3.4343434343434343,6.987341772151899,0.01732439798169576,0.01581250390778832,-1.7780606660033382e-05,-0.009941070566845223,0.016620134864864376
3.5353535353535355,6.987341772151899,0.01750938893286982,0.015828765379831793,-1.7431704605409554e-05,-0.010001446293810482,0.016732525705422423
3.6363636363636362,6.987341772151899,0.017494621716399712,0.01583703939711513,-3.379622007101295e-05,-0.009999498334054452,0.01672764236403105
3.7373737373737375,6.987341772151899,0.017453337477198034,0.01581005830275588,5.2560508717644966e-05,-0.009979018733986175,0.016692721089102292
3.8383838383838382,6.987341772151899,0.01747340116985194,0.01549382362635609,-5.189258518651636e-05,-0.00989016743886241,0.01657276686767044
3.9393939393939394,6.987341772151899,0.017399343408397404,0.015494267071481164,8.781808134171374e-05,-0.009868083143963572,0.01653004916912937
4.040404040404041,6.987341772151899,0.01728733937996325,0.015608783603853859,7.890608336470238e-05,-0.009868836895145132,0.016512739550774536
4.141414141414141,6.987341772151899,0.017429679106622357,0.015695012330643816,-3.34788323064175e-05,-0.009937407431179851,0.01663043775184298
4.242424242424242,6.987341772151899,0.017316379525855966,0.015663949586345687,-2.018246926314404e-05,-0.009894098733660496,0.016552179391615567
4.343434343434343,6.987341772151899,0.01726053682968932,0.015683186293808445,2.1234281369085993e-05,-0.009883116937049328,0.016528448264380984
4.444444444444445,6.987341772151899,0.017389515431684273,0.015751631630125888,2.2425922749746665e-05,-0.00994234411854305,0.01663121803776624
4.545454545454545,6.987341772151899,0.01725312612100737,0.01563049257631717,3.1936701188039855e-05,-0.009865085609197362,0.01650184411608811
4.646464646464646,6.987341772151899,0.017264437344924527,0.0156929458294238,4.099894083863328e-05,-0.009887214952304497,0.01653494809039697
4.747474747474747,6.987341772151899,0.017236177728922795,0.01576688223310614,-7.4734622031011305e-06,-0.009900917988608681,0.016550522082784926
4.848484848484849,6.987341772151899,0.017385209816021183,0.01552791179491512,6.057363378943809e-05,-0.00987393648328089,0.016535312757665194
4.94949494949495,6.987341772151899,0.017362554352743125,0.015670925522911106,4.210969607820767e-05,-0.00991004396269627,0.016581743693796613
5.05050505050505,6.987341772151899,0.01740435295622528,0.015473198486481,-4.390805107156316e-05,-0.009863265432811883,0.016523805528912104
5.151515151515151,6.987341772151899,0.017384464127070686,0.015495726724802886,-5.872656840402621e-06,-0.009864057255562072,0.016521269255394596
5.252525252525253,6.987341772151899,0.017426716582344685,0.01555942556911294,-4.142558944615751e-05,-0.009895842645437287,0.016572314972371764
5.353535353535354,6.987341772151899,0.01752614523186224,0.015545317962373502,-3.865358741923832e-05,-0.009921438958270723,0.016624610048210035
5.454545454545454,6.987341772151899,0.01729876839299608,0.015588542633155435,5.701747606760176e-05,-0.009866193307845455,0.01651051827541022
5.555555555555555,6.987341772151899,0.01717151432772292,0.01561514354959282,4.0310130054133355e-05,-0.009835997363194723,0.01644879405640594
5.656565656565657,6.987341772151899,0.017625191264894823,0.015644436536917727,-3.310325932655672e-05,-0.009980888340543765,0.016723123600703948
5.757575757575758,6.987341772151899,0.017355562972287766,0.015567135228062934,1.4812034614451157e-05,-0.00987680946010521,0.01653407172278465
5.858585858585858,6.987341772151899,0.017372639472731943,0.015503405147470013,1.0583679091841878e-05,-0.009862813386060586,0.016517549492349643
5.959595959595959,6.987341772151899,0.01728757576877412,0.01568942990787972,-3.0766965548589585e-05,-0.009893101702996152,0.016546574216814262
6.0606060606060606,6.987341772151899,0.017443912665071334,0.01564629788156619,-3.2610152334723125e-05,-0.009927063163991256,0.01661828098672403
6.161616161616162,6.987341772151899,0.017190522964351102,0.015771189481984377,1.8683676618292577e-05,-0.009888513733900643,0.016526661784482317
6.262626262626262,6.987341772151899,0.01754902239291815,0.01574268926808153,2.847884182615429e-05,-0.009987513498299903,0.016719272680995795
6.363636363636363,6.987341772151899,0.01752556153569902,0.01580545881258103,4.742699438032171e-05,-0.009999306104484013,0.01673215593871008
6.4646464646464645,6.987341772151899,0.017655995273495283,0.015779717152452927,-2.7559914361320798e-05,-0.010030713727784463,0.016796705322620335
6.565656565656566,6.987341772151899,0.017614495052507277,0.015590079944491209,-7.823183372591783e-05,-0.009961372499099544,0.016695149093057582
6.666666666666667,6.987341772151899,0.01755799571816278,0.01602736461853907,7.031663661346203e-05,-0.010075608101010554,0.016845357348451585
6.767676767676767,6.987341772151899,0.017625273164493794,0.015792265455737784,6.969490499800498e-05,-0.010025261586069473,0.016784441663138052
6.8686868686868685,6.987341772151899,0.01777055261703077,0.016106455048056478,-9.378713584901461e-08,-0.010163102299526175,0.01699970081062554
6.96969696969697,6.987341772151899,0.017789198854925702,0.01598022972858616,1.1045844758881933e-05,-0.010130828575053558,0.016957246820204143
7.070707070707071,6.987341772151899,0.017833935092076453,0.015950201055293805,3.472607687815386e-05,-0.010135240844211078,0.016970766687108115
7.171717171717171,6.987341772151899,0.017874443520633224,0.016122904515295352,2.920034928718588e-07,-0.010199204410778573,0.017066219126983785
7.2727272727272725,6.987341772151899,0.017956356570629984,0.016090178432996316,2.4400906077246886e-05,-0.01021396050108789,0.017099865153912073
7.373737373737374,6.987341772151899,0.01800708685133573,0.01610960637239141,-2.808173165413342e-05,-0.010235007967118142,0.017137382501637072
7.474747474747475,6.987341772151899,0.01809374336467207,0.016100375849168132,3.893285102661139e-05,-0.01025823576415206,0.017184124360645956
7.575757575757575,6.987341772151899,0.018227645749574747,0.016293646583193554,-8.128805747416848e-05,-0.01035638769983049,0.01734228917725823
7.6767676767676765,6.987341772151899,0.018033887228924718,0.01629241732388736,-1.952123703035145e-05,-0.010297891365843623,0.017229320281769694
7.777777777777778,6.987341772151899,0.01807651360936064,0.01645978906490453,2.797204742558337e-05,-0.010360890802279551,0.017324888068842192
7.878787878787879,6.987341772151899,0.01843321267506102,0.016378345313441376,-3.6122577598321965e-05,-0.010443467396550719,0.017496625869691005
7.979797979797979,6.987341772151899,0.018486489206834617,0.01655894079476507,4.085273567937257e-05,-0.010513629000479906,0.017602191056739134
8.080808080808081,6.987341772151899,0.01839884004528838,0.016549168823444815,-1.3546976666454597e-05,-0.01048440266061996,0.01754728880071452
8.181818181818182,6.987341772151899,0.018566274419845562,0.01666742146125344,-1.7073205015275245e-05,-0.0105701087643297,0.01769345748468052
8.282828282828282,6.987341772151899,0.018735899224094993,0.01678962016809243,-4.039626951320189e-05,-0.010657655817656228,0.017842688396646357
8.383838383838384,6.987341772151899,0.018627894048806784,0.016933407629514848,-7.064468717126321e-05,-0.010668390503496489,0.01784152402258564
8.484848484848484,6.987341772151899,0.018884040547771496,0.016999064193268833,2.3827025446278986e-05,-0.010764931422312097,0.01801571138030131
8.585858585858587,6.987341772151899,0.019107248274214995,0.017246768394885113,-2.9983477837974305e-05,-0.010906205000730033,0.018248352475146227
8.686868686868687,6.987341772151899,0.019186291699501676,0.01725941272011723,1.627273485030057e-05,-0.010933711325885671,0.018299119760719396
8.787878787878787,6.987341772151899,0.019242605903889026,0.01756399251814569,8.973500862831808e-05,-0.011041979526610414,0.018461280728585713
8.88888888888889,6.987341772151899,0.019351414451070484,0.017517115124741373,7.598472270830222e-06,-0.011060558872743556,0.018502588521471786
8.98989898989899,6.987341772151899,0.019468966314516733,0.017567523972942714,-3.363031965838898e-05,-0.011110947086237834,0.018591406843814117
9.09090909090909,6.987341772151899,0.019597086945073325,0.017844790509127673,-0.00010246409591030594,-0.011232563236260299,0.018783182653540755
9.191919191919192,6.987341772151899,0.019906753047281792,0.01782944820930256,3.771892142941177e-05,-0.011320860376975304,0.018953782894527413
9.292929292929292,6.987341772151899,0.02011252834674027,0.017979757177750494,-0.0001379310866244539,-0.011427685657347227,0.019136984185557027
9.393939393939394,6.987341772151899,0.020216608467645624,0.01809374358419895,-4.505492001603508e-06,-0.011493105615553372,0.019243199992918816
9.494949494949495,6.987341772151899,0.020330346189563475,0.018331070677210855,4.834436338615007e-05,-0.0115984250600323,0.019408274704356358
9.595959595959595,6.987341772151899,0.020580867584309732,0.018557138189777535,-2.2410945950389377e-05,-0.011741401732226181,0.019647366012810405
9.696969696969697,6.987341772151899,0.020786000793373047,0.018794478365093695,-5.7093963862784526e-05,-0.011874143747540021,0.019865497299396722
9.797979797979798,6.987341772151899,0.021076330528953056,0.018854833553336513,6.025446703738084e-05,-0.01197934922468687,0.020058331053544362
9.8989898989899,6.987341772151899,0.02113054908127343,0.019186254131258552,7.000701459254666e-05,-0.012095040963759594,0.020228966122994862
10.0,6.987341772151899,0.021417487122472337,0.019413482597758575,-1.8663838898472956e-05,-0.012249290916069274,0.02048914572869146
0.0,7.0886075949367084,0.021409406414922238,0.019271202810900438,-1.8245852355560107e-05,-0.012204182767746801,0.020424444336838044
0.10101010101010101,7.0886075949367084,0.02127658367901585,0.019006257893249577,-3.512320126195424e-05,-0.012084852471679628,0.020237250716982187
0.20202020202020202,7.0886075949367084,0.0210601188591512,0.019055663518783756,-5.066049722888736e-05,-0.012034734713380487,0.020133059363023877
0.30303030303030304,7.0886075949367084,0.020811026204141443,0.01872357916780173,-1.156062098975678e-05,-0.01186038161158295,0.01984980435092082
0.40404040404040403,7.0886075949367084,0.02068649079569309,0.018628520826713946,-6.7126855773494e-05,-0.011794503486722112,0.019738477222336914
0.5050505050505051,7.0886075949367084,0.020277144031853853,0.018398094572288647,1.16147932504092e-06,-0.01160257158124275,0.01940596930000046
0.6060606060606061,7.0886075949367084,0.020193536394508882,0.018299669007125253,-6.364341679163827e-05,-0.01154796162049024,0.01931667459055383
0.7070707070707071,7.0886075949367084,0.02007871639364311,0.0179426189296389,8.206754673662211e-06,-0.011406400596984605,0.019100467828711
0.8080808080808081,7.0886075949367084,0.02000863481981753,0.0180014360317733,-0.00014326141344086945,-0.01140302125547725,0.019085978577597917
0.9090909090909091,7.0886075949367084,0.019706393608440616,0.017518391686993436,-2.9402041200405244e-05,-0.011167435588630214,0.018708668253487833
1.0101010101010102,7.0886075949367084,0.019585537905131428,0.01757240509096578,-1.3529308823957388e-05,-0.011147382898829161,0.018660607140377213
1.1111111111111112,7.0886075949367084,0.019395382595573833,0.017543145532467906,-8.028220568872154e-06,-0.011081558438412522,0.018538797022109244
1.2121212121212122,7.0886075949367084,0.01939393325819772,0.017408908452940332,-1.6916554779661957e-05,-0.011040852513341417,0.018481568943716952
1.3131313131313131,7.0886075949367084,0.019204834924431747,0.01736548048720441,4.105688086893466e-05,-0.010971094623490848,0.018354548969897057
1.4141414141414141,7.0886075949367084,0.01906719240581092,0.017165525138721174,1.966159035856486e-05,-0.010869815263359629,0.018191093114376264
1.5151515151515151,7.0886075949367084,0.018929927190348896,0.0169151512221946,3.312908182328089e-05,-0.010753523523763048,0.018007365044889947
1.6161616161616161,7.0886075949367084,0.01890213219885552,0.017046007875746342,-7.377249367253945e-05,-0.01078444202238056,0.018046257755429385
1.7171717171717171,7.0886075949367084,0.01868533409120287,0.01682595113891054,1.2618856170321178e-05,-0.010653385569034023,0.017828524927841545
1.8181818181818181,7.0886075949367084,0.018496931249905143,0.016757652808969917,5.2000458388323505e-05,-0.010576375217662519,0.017691759481617882
1.9191919191919191,7.0886075949367084,0.018493184430018097,0.016556509612848266,4.785196467472641e-05,-0.010514908212859908,0.017605117567537
2.0202020202020203,7.0886075949367084,0.018472940944734496,0.016621835582156574,2.498070916139839e-05,-0.010528432958067319,0.017620517877551735
2.121212121212121,7.0886075949367084,0.018280767605610815,0.01666074483153902,-1.7682819851569573e-05,-0.010482453731144951,0.017527025310548602
2.2222222222222223,7.0886075949367084,0.018325307548934446,0.01631922357727341,-1.8490358926124185e-05,-0.010393359337862356,0.017409198419078127
2.323232323232323,7.0886075949367084,0.018028259915312143,0.016422289067376333,-7.920543916343504e-05,-0.010335164694806543,0.01728187659313214
2.4242424242424243,7.0886075949367084,0.018213699902701014,0.016413005987738295,-1.4363931625832105e-05,-0.010388011767131793,0.01738346004410167
2.525252525252525,7.0886075949367084,0.018206885867442058,0.016224891858191533,-1.220192081650669e-05,-0.010329533317690077,0.01730125721405826
2.6262626262626263,7.0886075949367084,0.017948970940835442,0.01610150457010367,-3.457313499769853e-06,-0.010215142653281734,0.017100251620445667
2.727272727272727,7.0886075949367084,0.017854527212625745,0.016012702728781105,3.905332043041501e-05,-0.010160168982422056,0.017008707462165026
2.8282828282828283,7.0886075949367084,0.01776088266364261,0.01595587395559791,9.659406911793372e-06,-0.010115026985772156,0.016930704104371686
2.929292929292929,7.0886075949367084,0.017664454819822522,0.015738362034314213,7.988839556378318e-06,-0.010020845056241021,0.016784505056039425
3.0303030303030303,7.0886075949367084,0.01777259189442322,0.015823099294630456,9.973882038256814e-06,-0.010078707356716102,0.016882485187318202
3.131313131313131,7.0886075949367084,0.01755223959504941,0.015882103920170407,3.961717507413993e-05,-0.010030303054565945,0.016779766238374436
3.2323232323232323,7.0886075949367084,0.017639469094362422,0.015832754214990287,4.956897330222007e-06,-0.010041666992805811,0.016809094890022948
3.3333333333333335,7.0886075949367084,0.017627990869036193,0.015820096895586413,9.862121001425701e-06,-0.01003442632938678,0.016797181192872605
3.4343434343434343,7.0886075949367084,0.017724967881257634,0.015743740174299123,2.8975953729186176e-07,-0.010040612416667026,0.016822085257155825
3.5353535353535355,7.0886075949367084,0.01766468293387793,0.015860885722851558,-4.259468860022051e-05,-0.010057670597018847,0.016835576754172736
3.6363636363636362,7.0886075949367084,0.017481079435505878,0.015849214694373913,-8.273427041167406e-05,-0.009999088238963937,0.016725576177656444
3.7373737373737375,7.0886075949367084,0.01755724930727388,0.015713795457397303,-3.3109444767364754e-05,-0.009981313429401355,0.016712050598644543
3.8383838383838382,7.0886075949367084,0.017423415646428124,0.015640326373438353,8.433942255920039e-05,-0.009919122605959943,0.01660447692702942
3.9393939393939394,7.0886075949367084,0.017389499674442335,0.015692143464086962,-3.9938081315477565e-06,-0.009924492941558788,0.01660601064724411
4.040404040404041,7.0886075949367084,0.01747244128442307,0.01580636409676937,-5.884212650960038e-05,-0.009983641614357731,0.01670215462100002
4.141414141414141,7.0886075949367084,0.01747575109859586,0.015607333420239781,-6.8751965407249e-05,-0.009924925355650692,0.016620921733885363
4.242424242424242,7.0886075949367084,0.017254750374750834,0.015603847967089617,3.7530875544888924e-05,-0.009857579502552134,0.016491519214953294
4.343434343434343,7.0886075949367084,0.017466173587138686,0.015500519146930071,-6.313810454972514e-05,-0.009890007820220627,0.01657137636860915
4.444444444444445,7.0886075949367084,0.01744053273490624,0.015584199836045726,-3.423381061417017e-05,-0.00990741977128559,0.016590546557622366
4.545454545454545,7.0886075949367084,0.017376407745813473,0.015591139029652349,-1.1643868630283995e-05,-0.009890264032639746,0.01655613421450912
4.646464646464646,7.0886075949367084,0.017390191136418015,0.015559800083254378,-3.7370896780658437e-05,-0.009884997365901716,0.016551205957619122
4.747474747474747,7.0886075949367084,0.017325282476154367,0.015461913871521599,8.028509197039288e-05,-0.009836158904302788,0.01647341813622147
4.848484848484849,7.0886075949367084,0.017341069995707163,0.015709281573440387,5.547561395571671e-05,-0.009915105470744265,0.016585768521041697
4.94949494949495,7.0886075949367084,0.01738093845490158,0.0155570166186623,6.845500671427056e-05,-0.009881386522069165,0.016544978015077375
5.05050505050505,7.0886075949367084,0.017291379244929312,0.01552580115383881,-8.68177928420335e-05,-0.009845154119630438,0.016480363886018676
5.151515151515151,7.0886075949367084,0.01738986456261954,0.015687676274214135,-5.7259479016797624e-05,-0.009923262251050101,0.016604633287844693
5.252525252525253,7.0886075949367084,0.01719994385032957,0.01563161907606449,7.689058209922832e-05,-0.009849468877918217,0.01647241176878693
5.353535353535354,7.0886075949367084,0.017241049403487387,0.015540002096607464,1.6678377680779834e-05,-0.009834315450028455,0.016456619954382995
5.454545454545454,7.0886075949367084,0.017242833548953458,0.015481835985858169,2.658242483882904e-05,-0.009817400860443486,0.016433318387638833
5.555555555555555,7.0886075949367084,0.017402594466994544,0.015503214003762714,-1.2767329740029777e-05,-0.009871742541227179,0.016534941227616933
5.656565656565657,7.0886075949367084,0.017266155620131937,0.015617356483929017,0.00012535404228409286,-0.009865053631218286,0.01650507155167433
5.757575757575758,7.0886075949367084,0.017334483592820502,0.015500788418003229,-4.0598210073349815e-05,-0.009850581603247118,0.01649440951188586
5.858585858585858,7.0886075949367084,0.01750331602937798,0.015792653012899747,-2.358112414429547e-05,-0.00998879071268332,0.016713821609413173
5.959595959595959,7.0886075949367084,0.01753409212561782,0.01553379964063923,5.401143279102032e-05,-0.009920367529877114,0.016624710394167335
6.0606060606060606,7.0886075949367084,0.017584163045082188,0.015727643818927058,2.8791113496638533e-05,-0.009993542059202774,0.016733397851265156
6.161616161616162,7.0886075949367084,0.017395197872604625,0.015810874953069157,2.259551744423418e-05,-0.009961821847702135,0.016659679142565668
6.262626262626262,7.0886075949367084,0.017628117588380714,0.01557853055687826,3.115164153802011e-05,-0.009961994443577692,0.01669802044509608
6.363636363636363,7.0886075949367084,0.01751998739130772,0.015607505879889258,-1.35649237332409e-05,-0.009938247981359092,0.016646364281079698
6.4646464646464645,7.0886075949367084,0.01764329174516215,0.015712807555578967,-4.501414945304897e-05,-0.010006829790222334,0.016761816603991685
6.565656565656566,7.0886075949367084,0.01758583436378665,0.015976661799165976,-2.1711587470906136e-05,-0.010068748848885789,0.016839055157822542
6.666666666666667,7.0886075949367084,0.0177739183748367,0.01590289524528542,-9.917821972693586e-05,-0.010103044086036636,0.01691706234907238
6.767676767676767,7.0886075949367084,0.017688351146246825,0.01606977490922495,-4.7195341199285945e-05,-0.010127437816641533,0.016937363805246148
6.8686868686868685,7.0886075949367084,0.017624889506371887,0.01607991880658579,-1.3438862021321202e-05,-0.010111442493887303,0.016905450852010444
6.96969696969697,7.0886075949367084,0.017763094239913884,0.01597635734567101,-6.091623260167925e-05,-0.010121835475675467,0.01694087076372187
7.070707070707071,7.0886075949367084,0.01788614823263214,0.0160700398942362,-6.761737553106359e-05,-0.010186856438060502,0.017051190031133697
7.171717171717171,7.0886075949367084,0.0177587971036659,0.01616103093051551,1.8814543365918476e-05,-0.010175948410254421,0.017016297716785624
7.2727272727272725,7.0886075949367084,0.017941702872015745,0.016179711945857763,-1.3589651494631909e-05,-0.010236424445362052,0.017128828049435548
7.373737373737374,7.0886075949367084,0.018003497427796215,0.016146175697195852,-3.957859168147882e-05,-0.010244901937497618,0.01715056780514657
7.474747474747475,7.0886075949367084,0.018052748400088654,0.016141029425023122,0.00010689717372263117,-0.010258133347533534,0.01717786056484466
7.575757575757575,7.0886075949367084,0.01804643403978667,0.016301611740722654,7.855339588183383e-05,-0.010304413734152798,0.017240907104456197
7.6767676767676765,7.0886075949367084,0.018200090532344265,0.016368545058764,4.236567369863779e-06,-0.010370590677332477,0.017356947157249822
7.777777777777778,7.0886075949367084,0.018240360620391857,0.01655984408538847,2.683891405657516e-05,-0.010440061411734097,0.01746092279180261
7.878787878787879,7.0886075949367084,0.018361738044354526,0.016529998331850586,4.243161191839759e-05,-0.010467520912861534,0.017517995631421184
7.979797979797979,7.0886075949367084,0.018344386971917197,0.01678266145318115,-7.186341068526332e-05,-0.010538114527529504,0.01761596195957208
8.080808080808081,7.0886075949367084,0.018616095350127045,0.01640906686310063,4.587137408024627e-05,-0.0105075486639683,0.017616754542807183
8.181818181818182,7.0886075949367084,0.01877502613186373,0.016645984409911486,9.988875110741973e-05,-0.010626303162532562,0.017807064447243715
8.282828282828282,7.0886075949367084,0.018524291538105225,0.016771459705086367,-1.2445627868185373e-08,-0.010588725372957478,0.017713041199407656
8.383838383838384,7.0886075949367084,0.018834845972444315,0.016959370943340213,-4.272535476574122e-05,-0.010738265074735359,0.01797081028946589
8.484848484848484,7.0886075949367084,0.018824781038340684,0.016863862588849997,2.3259208150669954e-05,-0.010706593088157204,0.01792499218503625
8.585858585858587,7.0886075949367084,0.019104822244967994,0.01733008566478946,-4.8153352688256595e-05,-0.010930472372927236,0.018282364515593157
8.686868686868687,7.0886075949367084,0.019012940501513136,0.017272300239922447,-6.0018591366296515e-05,-0.010885572222430674,0.018205434683086143
8.787878787878787,7.0886075949367084,0.019151809533306332,0.017254560982215315,8.760636238083437e-06,-0.010921911154656494,0.01827719474709031
8.88888888888889,7.0886075949367084,0.0193368042909392,0.017503446672958976,1.3654000511497742e-05,-0.011052075289169452,0.018488441853831125
8.98989898989899,7.0886075949367084,0.01953825582957309,0.017557237686708825,-1.3457273481306167e-06,-0.011128648054884574,0.01862692244840362
9.09090909090909,7.0886075949367084,0.019602855258602787,0.01768226162889591,5.773309828513491e-05,-0.011185535066249608,0.018716877265675915
9.191919191919192,7.0886075949367084,0.019811999048544766,0.017775830151143673,7.0282666265096334e-06,-0.01127634875990653,0.018876463175337976
9.292929292929292,7.0886075949367084,0.01999217411305377,0.018014592766313838,2.1959581282650755e-05,-0.01140203006381028,0.01908043893133775
9.393939393939394,7.0886075949367084,0.020049259287004045,0.018057140074978068,-6.376115341145343e-07,-0.011431919808594633,0.01913114799272525
9.494949494949495,7.0886075949367084,0.020436232777561646,0.018415467080352924,-2.074851856428083e-05,-0.01165550995737437,0.019504552224229584
9.595959595959595,7.0886075949367084,0.020617828565427838,0.01850908507855569,4.639917499676407e-05,-0.011738074093195059,0.019648674275795978
9.696969696969697,7.0886075949367084,0.020689354603560164,0.01866413967633155,3.2365468115066166e-05,-0.011806048283967512,0.0197548384505176
9.797979797979798,7.0886075949367084,0.020966826938512675,0.018823308271809707,-9.344149891336634e-05,-0.011937040563096715,0.019982139854404227
9.8989898989899,7.0886075949367084,0.02123349427617569,0.0191043460289324,5.677521060617923e-05,-0.012101352091532427,0.020253270466464746
10.0,7.0886075949367084,0.02140477689312214,0.01936754114956237,-2.3614575786642514e-05,-0.012231695412805353,0.02046240209980615
0.0,7.189873417721519,0.02158234038660724,0.019280101018819277,-0.00012869458896288015,-0.012258732421627954,0.020529483575448468
0.10101010101010101,7.189873417721519,0.021347240425129733,0.01912067511267433,-3.259466886279549e-06,-0.012140374661341217,0.020325630954143983
0.20202020202020202,7.189873417721519,0.02076066012850726,0.01897813777381933,-1.0821949779585799e-05,-0.011921639370697979,0.019929285122226584
0.30303030303030304,7.189873417721519,0.020732393899364425,0.018629286899405205,5.272835677289513e-06,-0.011808504239630889,0.019764940084007435
0.40404040404040403,7.189873417721519,0.02048210578995718,0.018547723146308693,2.6607724996917743e-05,-0.01170894868087976,0.019586740100656596
0.5050505050505051,7.189873417721519,0.02025514626653953,0.01834701595018617,9.841186366984092e-06,-0.01158064866501771,0.019371699550545084
0.6060606060606061,7.189873417721519,0.020252924047597164,0.01831456805456501,8.803113332226905e-05,-0.011570247630648652,0.019357273262799186
0.7070707070707071,7.189873417721519,0.020004623549689505,0.018114087394123766,7.147036415142289e-05,-0.011435613283143981,0.019129949039659755
0.8080808080808081,7.189873417721519,0.020023639118144324,0.017970420490836688,5.8598320828058995e-05,-0.011398217882694303,0.019080336022485413
0.9090909090909091,7.189873417721519,0.01969271828767249,0.017623921207439483,1.1525067134623155e-05,-0.011194991848533594,0.018744152029444825
1.0101010101010102,7.189873417721519,0.01932836545422164,0.01770205139340493,-1.7901615942610687e-05,-0.011109125054287971,0.018568725789593482
1.1111111111111112,7.189873417721519,0.019410470988601432,0.01733407813998645,-9.057381155715911e-05,-0.011023364738576362,0.0184607323516202
1.2121212121212122,7.189873417721519,0.019409887758863178,0.017382578940561548,9.867468145289053e-05,-0.011037740009827416,0.01848061409474592
1.3131313131313131,7.189873417721519,0.019232168008395306,0.017223698365837647,-3.541848920739366e-05,-0.010936759912269885,0.018310837621772585
1.4141414141414141,7.189873417721519,0.019123528725596528,0.017258871557771376,-7.266036755451788e-05,-0.010914720085010371,0.01826316815196594
1.5151515151515151,7.189873417721519,0.018915580328638222,0.017095334650267163,-1.0114180334796043e-06,-0.010803274493671616,0.01807433188863723
1.6161616161616161,7.189873417721519,0.018686688203617595,0.0168291732805028,2.2352986337682216e-05,-0.010654758445236117,0.01783068631531038
1.7171717171717171,7.189873417721519,0.01860759225093808,0.016912128315178687,3.469481857794639e-05,-0.010655916169835031,0.017820555460847976
1.8181818181818181,7.189873417721519,0.01860268586355763,0.016663888367209626,7.847658271561368e-05,-0.010579972269230176,0.017713568020434008
1.9191919191919191,7.189873417721519,0.01837545834324446,0.016652450700176378,-3.468572946396865e-05,-0.010508372713026251,0.017577507752567754
2.0202020202020203,7.189873417721519,0.018409748198121675,0.016574227255297936,5.379591929794765e-05,-0.010495192636025882,0.01756431522954494
2.121212121212121,7.189873417721519,0.018284719920722673,0.01656244775418636,3.363973883989945e-05,-0.010454150302472709,0.01748740503043871
2.2222222222222223,7.189873417721519,0.01802941723522499,0.016309404617695276,-4.75502614933702e-05,-0.01030164655587608,0.017234102448259347
2.323232323232323,7.189873417721519,0.018216493945444626,0.01634972768944295,1.6608221205811526e-05,-0.010369866490466272,0.017358581716775918
2.4242424242424243,7.189873417721519,0.01817108196930674,0.016289954144086304,-4.2054679140869824e-05,-0.010338310834017914,0.017307513966811402
2.525252525252525,7.189873417721519,0.01801418250671781,0.016217630767534453,4.2427122859447224e-05,-0.010269543982275678,0.01718663314342727
2.6262626262626263,7.189873417721519,0.017814642333608903,0.016115363303364955,9.093371552398569e-05,-0.010179001691092157,0.017029438903560404
2.727272727272727,7.189873417721519,0.018033735403946653,0.016074128088892997,-8.49738885732628e-06,-0.010232359047851894,0.017138169396125915
2.8282828282828283,7.189873417721519,0.017784846567670865,0.016125950227144567,3.630724360066201e-05,-0.010173239038444628,0.017016269928044996
2.929292929292929,7.189873417721519,0.01771873516551262,0.01595515701184738,-0.00013707623147725747,-0.010102167653207999,0.016907743172904204
3.0303030303030303,7.189873417721519,0.017645013578561256,0.01593427457313539,-2.5850305376664495e-05,-0.010073786445508994,0.016854943603199835
3.131313131313131,7.189873417721519,0.01764724711059311,0.015998932859491763,-7.103550808452192e-05,-0.010093853991025461,0.01688399240931627
3.2323232323232323,7.189873417721519,0.017535880849097598,0.015862223938750197,-2.059600231328511e-05,-0.010019431436354339,0.01676187546282082
3.3333333333333335,7.189873417721519,0.017726818294518117,0.015930336606433473,3.634269220632002e-05,-0.010097146470285475,0.016900458313969195
3.4343434343434343,7.189873417721519,0.01757185878316568,0.01587621649094763,-6.883773859682381e-06,-0.010034422582233993,0.01678838822317628
3.5353535353535355,7.189873417721519,0.01760298529749775,0.015715890656572126,1.9510841616085714e-06,-0.009995662786220962,0.016739406493920857
3.6363636363636362,7.189873417721519,0.017588251909451475,0.015880873210594004,4.4770715030542086e-05,-0.010040737536013642,0.01679993910233225
3.7373737373737375,7.189873417721519,0.017527028210048295,0.01558396699548165,3.363905328911728e-05,-0.009933298561658983,0.01664089873761451
3.8383838383838382,7.189873417721519,0.017498167653124955,0.01564536016164718,-9.883171197225229e-05,-0.009943058344431639,0.01665014515925836
3.9393939393939394,7.189873417721519,0.017426197757684295,0.015792017732171627,1.5621469640258403e-05,-0.009965464646956777,0.016669316135954872
4.040404040404041,7.189873417721519,0.01745123505173248,0.015720678898273083,-3.2081264809976178e-06,-0.009951574185001666,0.016653531700605642
4.141414141414141,7.189873417721519,0.01749292338121995,0.015580244873405298,-1.1336457718811464e-05,-0.009921950476387572,0.016619348797446927
4.242424242424242,7.189873417721519,0.0173961313709563,0.015632397882408253,-2.4202922230880573e-05,-0.009908558776009366,0.016584805104926388
4.343434343434343,7.189873417721519,0.01737036887755946,0.01568529623028434,1.3138972314300532e-05,-0.00991669953235314,0.016592147817513166
4.444444444444445,7.189873417721519,0.017301236779556094,0.01565705152198566,-6.208367713425886e-05,-0.009887486490462526,0.016540896709722072
4.545454545454545,7.189873417721519,0.017356725927441946,0.015547898460890181,-1.3829290350585586e-05,-0.009871387316499636,0.01652673721231551
4.646464646464646,7.189873417721519,0.017430901426208574,0.015579267867914748,8.681830211279502e-05,-0.009903050788236997,0.016583480985157058
4.747474747474747,7.189873417721519,0.01730871334716214,0.015525460694992709,-2.4147889631252227e-08,-0.009850252212646455,0.016489564541717898
4.848484848484849,7.189873417721519,0.017428295937318105,0.01564218895089944,-6.752643143189478e-05,-0.009921145466465263,0.016607846210977575
4.94949494949495,7.189873417721519,0.017378415183666198,0.015432031579973839,-1.7295439358936012e-05,-0.00984313402909201,0.016491620855865686
5.05050505050505,7.189873417721519,0.0172080668666944,0.015539739243088336,-3.2394138229720796e-05,-0.00982434183293482,0.016437619571772585
5.151515151515151,7.189873417721519,0.01708978399137334,0.015407548210699076,-0.00010553089643663254,-0.009749199660621726,0.01631487046499625
5.252525252525253,7.189873417721519,0.01737538489819479,0.01559208483929151,5.376348921521407e-05,-0.00989024092124589,0.01655618633884023
5.353535353535354,7.189873417721519,0.017446333496549647,0.015673089192361683,-2.7218201347592705e-05,-0.009935826806673398,0.016630831573463147
5.454545454545454,7.189873417721519,0.01724484070462036,0.01548387158195397,-3.92857264501186e-05,-0.009818613685972298,0.01643540511449252
5.555555555555555,7.189873417721519,0.01738071963795754,0.015695492670643126,1.570172046281222e-05,-0.0099228636925802,0.01660240004491838
5.656565656565657,7.189873417721519,0.017354798188595325,0.015590402379192993,-3.738786684854775e-05,-0.009883560170336494,0.016543445019097134
5.757575757575758,7.189873417721519,0.017522257236239513,0.015551906591252206,0.00011543389751820218,-0.009922249148247514,0.016626086864448306
5.858585858585858,7.189873417721519,0.017240833518172086,0.015722971982726087,6.30559572032075e-06,-0.00988914165026945,0.01653424220481432
5.959595959595959,7.189873417721519,0.017356972496176785,0.01575445213187112,7.919611484065404e-05,-0.009933427388414372,0.016614345606645257
6.0606060606060606,7.189873417721519,0.01748105644390826,0.01561724682640729,4.263160968325944e-06,-0.009929490981094665,0.016627682162129103
6.161616161616162,7.189873417721519,0.017324239215699803,0.01560746792644703,-3.55118695849537e-05,-0.00987951214264405,0.016532954812960007
6.262626262626262,7.189873417721519,0.01753699312527388,0.015396679985851086,1.2518616418288228e-05,-0.00988010193333749,0.01657084432206064
6.363636363636363,7.189873417721519,0.01765441776207824,0.01574843209020439,-3.310198920568461e-05,-0.01002085495568479,0.016782892117410627
6.4646464646464645,7.189873417721519,0.017542114875132672,0.01577213959373416,-2.2391675105828228e-05,-0.00999427634066005,0.01672755215917789
6.565656565656566,7.189873417721519,0.017692216414946855,0.01592652981396707,-3.646067185170859e-05,-0.010085623868674176,0.01687889953529151
6.666666666666667,7.189873417721519,0.017635661570983948,0.015820133820180597,5.01165388960147e-05,-0.010036738617349363,0.016801851150296872
6.767676767676767,7.189873417721519,0.0176447920020458,0.015905107864435802,-8.579823014008252e-05,-0.01006496995994448,0.016843126341199544
6.8686868686868685,7.189873417721519,0.017716385882764193,0.015849495432014818,5.549682457634802e-05,-0.010069764394433705,0.01686091031849693
6.96969696969697,7.189873417721519,0.0177260611049333,0.016011800867686967,-8.748950210846851e-07,-0.01012135859178608,0.016934132721753748
7.070707070707071,7.189873417721519,0.01786255876684769,0.016055648554546748,-5.095888332240966e-05,-0.010175462196418331,0.017031373426242825
7.171717171717171,7.189873417721519,0.017879879034590367,0.01608963988680753,3.599148012461513e-06,-0.010190855676419367,0.01705537481130486
7.2727272727272725,7.189873417721519,0.018022704525529978,0.01612016967585255,7.050718023878393e-06,-0.010242862260414758,0.01715076799917164
7.373737373737374,7.189873417721519,0.018145026103650912,0.0159741553567429,2.2424594576758712e-05,-0.010235754438118144,0.01716291508803157
7.474747474747475,7.189873417721519,0.017948204433376424,0.016242644018144643,-7.332742980907812e-05,-0.01025725453545632,0.01715958514772754
7.575757575757575,7.189873417721519,0.018113373471182845,0.01634090424252767,9.024196413209578e-05,-0.010336283314113154,0.01729609723043151
7.6767676767676765,7.189873417721519,0.018169848091550533,0.016200773574020347,4.088128742106373e-05,-0.010311186499671264,0.017269854171362484
7.777777777777778,7.189873417721519,0.01828399016782391,0.016486575596511257,-5.341979605380741e-05,-0.01043116972930055,0.017455075086423886
7.878787878787879,7.189873417721519,0.0182476436880268,0.016478606155949756,2.5313788040852333e-05,-0.010417874953192966,0.017430638248859057
7.979797979797979,7.189873417721519,0.018365233736790658,0.016536689770192705,9.417222738292186e-07,-0.010470577052095007,0.017522663854582395
8.080808080808081,7.189873417721519,0.01854876493767061,0.016641444558327403,-1.8015949954411685e-05,-0.010557062848799403,0.01767249524228282
8.181818181818182,7.189873417721519,0.018574756683107718,0.016667148828222005,-1.99383941411375e-05,-0.010572571653398916,0.017698259644159144
8.282828282828282,7.189873417721519,0.018754606058185876,0.01681718481558956,-1.137222064540409e-05,-0.01067153726213263,0.017864872383466894
8.383838383838384,7.189873417721519,0.0188125654062217,0.016842964017866398,-3.01035724287135e-05,-0.01069665882722643,0.01790925488469524
8.484848484848484,7.189873417721519,0.01907429948494823,0.01700454283702895,3.348438753425927e-05,-0.010823652696593154,0.01812834793554981
8.585858585858587,7.189873417721519,0.018859044584343714,0.01704887556711297,-3.108911239820356e-05,-0.010772376045437005,0.01802235045444359
8.686868686868687,7.189873417721519,0.019101025227130825,0.0171934341515712,-8.218726071258161e-05,-0.010888337813610609,0.018222825999805826
8.787878787878787,7.189873417721519,0.019166181115754438,0.0174343414176653,4.8247164279684136e-05,-0.01098015676002592,0.0183618081177027
8.88888888888889,7.189873417721519,0.01937004655885535,0.01748791761720533,-5.140945657693701e-05,-0.011057389252818203,0.018501138251804054
8.98989898989899,7.189873417721519,0.019565392607880854,0.01769752563881654,4.016789912200183e-05,-0.011178875474009217,0.018701679194820024
9.09090909090909,7.189873417721519,0.01961791386126977,0.017667396939699844,-4.9842617347669175e-05,-0.011185593240290883,0.01871922649141079
9.191919191919192,7.189873417721519,0.020006539513124304,0.017709866433030914,-2.4407448810377448e-05,-0.011314921783846564,0.018962848862238098
9.292929292929292,7.189873417721519,0.020021805604934096,0.0179465900163592,-2.6907809972412802e-05,-0.011390518686387989,0.0190691328698704
9.393939393939394,7.189873417721519,0.02015376850313131,0.018154202454443494,-2.6108451604104818e-05,-0.011492391287272441,0.019232158042264337
9.494949494949495,7.189873417721519,0.020384897795784316,0.01833971013693227,-5.111047382463155e-05,-0.011617382379814975,0.0194433470921855
9.595959595959595,7.189873417721519,0.02052964039952561,0.01847696453595669,6.28103136137594e-05,-0.011701981480644691,0.019584451771886432
9.696969696969697,7.189873417721519,0.020628901933799088,0.018648766975896975,-6.079247786338946e-05,-0.011783300672908819,0.019713843023612874
9.797979797979798,7.189873417721519,0.020957625787811046,0.018872178073474244,4.107887708095191e-05,-0.011948941158385587,0.01999675474812014
9.8989898989899,7.189873417721519,0.021355331624474148,0.01909283428436714,-1.961042723679745e-05,-0.012134449772652387,0.02031880546967145
10.0,7.189873417721519,0.021394710924872766,0.01924133184211869,-5.745954209217279e-05,-0.012190812830097436,0.02040366826927585
0.0,7.291139240506329,0.021525386858521272,0.019440606570867193,1.3299301417676586e-05,-0.012289798028816539,0.020562427304777822
0.10101010101010101,7.291139240506329,0.02125426734328815,0.01917101320712857,-3.243718806390292e-05,-0.012127584165125016,0.020293076263971244
0.20202020202020202,7.291139240506329,0.021210100127449835,0.018965777491503532,-2.617287646923512e-05,-0.012052763285686009,0.020181800681364714
0.30303030303030304,7.291139240506329,0.020619700050569484,0.018722809158441416,-2.050992224339875e-05,-0.01180275276270327,0.01973976104157512
0.40404040404040403,7.291139240506329,0.02056105481468752,0.018469791091761997,-6.7053708407246505e-06,-0.011709253771934856,0.019599283300630266
0.5050505050505051,7.291139240506329,0.020501071397388184,0.01847887174398269,3.587097198133995e-05,-0.011693982942411262,0.019568592708334807
0.6060606060606061,7.291139240506329,0.020365035206259135,0.017967637788612465,1.7904378312758273e-05,-0.01149980189846148,0.01927848677196507
0.7070707070707071,7.291139240506329,0.019931110095265027,0.01805928797418984,-5.265441407334687e-05,-0.01139711942083646,0.019064461502245063
0.8080808080808081,7.291139240506329,0.01973483831100088,0.017830126543973666,8.319861409497806e-05,-0.011269489456492362,0.01885532702855135
0.9090909090909091,7.291139240506329,0.019667040016540387,0.01776496631317293,-3.6378612479537285e-05,-0.011229601898913994,0.018788458104832435
1.0101010101010102,7.291139240506329,0.019612243350951238,0.017586185819077272,-2.7836651385096696e-06,-0.011159528751008552,0.0186817956382043
1.1111111111111112,7.291139240506329,0.019266681399608722,0.017374899006423077,-1.58219796594287e-05,-0.010992474121809538,0.018393918427986457
1.2121212121212122,7.291139240506329,0.01931861719931873,0.017272411728498617,9.220997310888397e-06,-0.010977308678345205,0.01838114039446618
1.3131313131313131,7.291139240506329,0.019284243748020156,0.017173629795296894,5.118738588221089e-05,-0.010937362062995113,0.018320562620007533
1.4141414141414141,7.291139240506329,0.01884670202892748,0.017207494522773346,3.584495200767833e-08,-0.010816258965510245,0.018082906934096563
1.5151515151515151,7.291139240506329,0.018920030887086943,0.01697030912352265,-2.2920197435704867e-05,-0.010767102003182876,0.018024476795239566
1.6161616161616161,7.291139240506329,0.01880011485593427,0.016919209013709788,1.5887437198935602e-05,-0.010715797160893218,0.017933812666262545
1.7171717171717171,7.291139240506329,0.018702456961980446,0.016828225295905063,-2.945185301954292e-05,-0.010659204677365653,0.01783940878830444
1.8181818181818181,7.291139240506329,0.018499905584581283,0.0168365357789823,3.90251209508586e-05,-0.010600932409069072,0.01772697634321689
1.9191919191919191,7.291139240506329,0.018486212884565593,0.01671530641173245,2.2910687686174985e-05,-0.010560455788889412,0.017667495498581095
2.0202020202020203,7.291139240506329,0.018273074579287184,0.01656131350835103,4.4628544235244694e-05,-0.010450316426291463,0.017480338038891263
2.121212121212121,7.291139240506329,0.018244305311513474,0.016499777645656695,3.524957039279989e-05,-0.01042322488715105,0.0174377201867969
2.2222222222222223,7.291139240506329,0.018310287028516257,0.01642468546229275,-4.049923183452055e-05,-0.010420491747242702,0.01744422881636103
2.323232323232323,7.291139240506329,0.018195030066960816,0.016348847389136768,1.1359265771107757e-05,-0.010363163236829275,0.017345793362776793
2.4242424242424243,7.291139240506329,0.01797128014002718,0.016341163492615395,-3.419308201906517e-05,-0.010293733089792772,0.017214308430039214
2.525252525252525,7.291139240506329,0.017913193397613207,0.016341808477807467,3.595210270668916e-05,-0.010276500562626202,0.0171815920088035
2.6262626262626263,7.291139240506329,0.018017024761556706,0.01602203479020622,-5.082055452747479e-05,-0.010211717865528876,0.017107224518247983
2.727272727272727,7.291139240506329,0.017986475478232882,0.016207698919159234,-3.293516533215167e-05,-0.010258252319217634,0.017166440498556926
2.8282828282828283,7.291139240506329,0.01783767818413944,0.016050236884029755,-9.391845448775649e-06,-0.01016637452045076,0.01701452824318524
2.929292929292929,7.291139240506329,0.017706618329166292,0.01607779806267408,-2.715524791351384e-05,-0.01013532491755211,0.01695106785875694
3.0303030303030303,7.291139240506329,0.017876022762191267,0.016052691843884585,8.232183586229413e-05,-0.010178614381822756,0.01703828486342904
3.131313131313131,7.291139240506329,0.01773492557617782,0.015880061604164383,6.090102977660733e-05,-0.01008449615410266,0.01688441168225684
3.2323232323232323,7.291139240506329,0.017572251419256252,0.01590244993460969,-1.6232454837266313e-05,-0.010042410406159783,0.01679972844747779
3.3333333333333335,7.291139240506329,0.01765992296300608,0.015831641215054523,-1.1416802630362944e-07,-0.01004746925341818,0.016820469031058872
3.4343434343434343,7.291139240506329,0.01754780831633041,0.015855546928727135,-6.986369544318683e-05,-0.010021006573517264,0.016766290277449008
3.5353535353535355,7.291139240506329,0.017440938289880255,0.015914789409724364,5.9670435222882645e-05,-0.010006718309881386,0.016730471364500243
3.6363636363636362,7.291139240506329,0.01750805320115014,0.01574198356666703,-4.3836487163858426e-05,-0.00997501103034515,0.016695396151140036
3.7373737373737375,7.291139240506329,0.01756096966469274,0.015610462404166954,-1.5846205370381115e-05,-0.009951429620657908,0.016671535280574495
3.8383838383838382,7.291139240506329,0.017468533107658477,0.015694040487180073,-6.395333936141434e-05,-0.009948772078451566,0.016652716294713498
3.9393939393939394,7.291139240506329,0.0173475206589923,0.015634841026687524,5.299591486258805e-05,-0.009894708505703946,0.016558001840029198
4.040404040404041,7.291139240506329,0.01730947525640099,0.015533671102535977,-8.60940420937607e-06,-0.00985294390768109,0.01649343500756663
4.141414141414141,7.291139240506329,0.017403616747209014,0.015637757351150944,7.670711945057817e-05,-0.009912412229507986,0.01659184881435614
4.242424242424242,7.291139240506329,0.017403748345854522,0.015701416207265728,4.035108460124285e-05,-0.009931549365936074,0.0166182524858943
4.343434343434343,7.291139240506329,0.017106253255730435,0.015540398004028115,-5.423497317548794e-05,-0.009793995377927564,0.016379826339677182
4.444444444444445,7.291139240506329,0.017252577722113808,0.015685995755080447,-9.113290097626157e-05,-0.009881572043158275,0.016525826926046025
4.545454545454545,7.291139240506329,0.017251701759334808,0.015396024879027392,5.754594555465249e-06,-0.009794317991508658,0.01640278224943751
4.646464646464646,7.291139240506329,0.017461300664993715,0.0154025074293665,-6.768016625630292e-05,-0.009859142428308064,0.016528768393947135
4.747474747474747,7.291139240506329,0.0174244774300236,0.015647155402881766,-6.926201551763178e-05,-0.00992148984987161,0.016607732278373512
4.848484848484849,7.291139240506329,0.01752857423809536,0.015694060139663,3.191031998073359e-05,-0.009966790313327508,0.016687210522976184
4.94949494949495,7.291139240506329,0.01715350533991391,0.015528553818904098,-2.1115955950384302e-05,-0.009804617747645402,0.01640155285179215
5.05050505050505,7.291139240506329,0.017198856682650438,0.015536068409895994,2.5652024727201902e-05,-0.009820477527763929,0.0164307471805996
5.151515151515151,7.291139240506329,0.01749582944886066,0.01563257099892805,-5.073589755615971e-05,-0.009938520134336612,0.016642843822183704
5.252525252525253,7.291139240506329,0.0174296031338273,0.01557532973853111,1.61353029824713e-05,-0.009901479861707523,0.01658043807894127
5.353535353535354,7.291139240506329,0.017389173354320227,0.015546990649678813,-3.1484162831882715e-05,-0.009880849201199712,0.016545269004161523
5.454545454545454,7.291139240506329,0.017215135621366322,0.0156915964178459,2.622233034502455e-05,-0.009872019611763667,0.01650624715025959
5.555555555555555,7.291139240506329,0.017305714450706722,0.01557150844602858,2.7664495944705633e-05,-0.00986316686902059,0.01650714527631619
5.656565656565657,7.291139240506329,0.017348975581533782,0.015535880410521551,-8.448983094226818e-06,-0.0098654567976166,0.01651723760605451
5.757575757575758,7.291139240506329,0.0173424166641265,0.015687380255598155,9.136337537175548e-06,-0.009908939075917398,0.016576986478027893
5.858585858585858,7.291139240506329,0.0172971649547447,0.015681713717656885,-9.3819644472009e-06,-0.009893663601720474,0.016548689848763655
5.959595959595959,7.291139240506329,0.017440828396494582,0.015547466026328165,4.386144129286187e-06,-0.009896488326846824,0.016575450695081033
6.0606060606060606,7.291139240506329,0.017622472282045384,0.015820284118674338,2.224064951068255e-06,-0.010032826920215917,0.016794058931390316
6.161616161616162,7.291139240506329,0.017509680254712053,0.01568503696357774,-8.591213610174026e-06,-0.009958415165486938,0.016672418138420148
6.262626262626262,7.291139240506329,0.01739449107203816,0.015696535387575362,2.882178983545113e-05,-0.009927307937884057,0.01661080341988966
6.363636363636363,7.291139240506329,0.01736800372095514,0.01593682533990364,-2.4428275116958268e-05,-0.009991448718257636,0.016698529982723732
6.4646464646464645,7.291139240506329,0.017609136209052627,0.015717935599200067,-5.265304347846085e-05,-0.009998121542475808,0.016744080317147924
6.565656565656566,7.291139240506329,0.01759142794233582,0.015719973655206887,-7.308814042459009e-05,-0.009993420479262811,0.016734848388575703
6.666666666666667,7.291139240506329,0.017606861550198756,0.01595080228342831,-3.425698326623634e-05,-0.010067299150088119,0.016840119368243214
6.767676767676767,7.291139240506329,0.017568423020139532,0.015743522851151392,3.6872980100399986e-07,-0.009993583761387276,0.01673078391202632
6.8686868686868685,7.291139240506329,0.017762201774763953,0.015910409770222858,-7.57320066597903e-05,-0.010101783463496043,0.016913020082068568
6.96969696969697,7.291139240506329,0.017604161250629618,0.016009334069462464,-9.30744861242555e-05,-0.010084048596027625,0.01686417388405691
7.070707070707071,7.291139240506329,0.017662122054075306,0.016096211084718915,-7.5697059917841415e-06,-0.010127499941638266,0.016933561168630845
7.171717171717171,7.291139240506329,0.017847093478708907,0.015927741441349282,-5.5244215379870936e-05,-0.010132450476017456,0.01696929457643369
7.2727272727272725,7.291139240506329,0.017850231762793083,0.016004916224942645,5.781110121848023e-05,-0.010156544396320718,0.01700313735061321
7.373737373737374,7.291139240506329,0.017868158887802438,0.01619850812529289,3.947957733456626e-05,-0.010220000103928597,0.017094733882336996
7.474747474747475,7.291139240506329,0.0180783166740544,0.016279172269720713,-1.0254646078616156e-05,-0.010307246683132534,0.017249268608971215
7.575757575757575,7.291139240506329,0.01810409666561034,0.016209416866635067,-2.5757112956760892e-05,-0.01029405405967362,0.017235099410040675
7.6767676767676765,7.291139240506329,0.018218857749534537,0.01620568625849949,-3.535595005992315e-05,-0.010327363202410208,0.01730045381656559
7.777777777777778,7.291139240506329,0.018298479757879203,0.01648691350298918,-6.195371793533551e-05,-0.010435617978260514,0.017463640516504772
7.878787878787879,7.291139240506329,0.018191667208301288,0.016408956018344276,-7.0830970115829715e-06,-0.010380186967993667,0.017369066665165384
7.979797979797979,7.291139240506329,0.018279248719632917,0.01666790061548904,-7.002804990254264e-05,-0.010484144800536586,0.017529627933321756
8.080808080808081,7.291139240506329,0.01849967887814757,0.016558292775110863,-5.526532621851208e-05,-0.010517391495977529,0.01760969170314495
8.181818181818182,7.291139240506329,0.018417391779851987,0.016552950029305742,4.922171165391953e-06,-0.010491102542747318,0.017559566666820774
8.282828282828282,7.291139240506329,0.018612380736915592,0.016623412164302184,-3.874717494071809e-05,-0.010570737870365332,0.01770202746473431
8.383838383838384,7.291139240506329,0.018773544755263844,0.016845937226257643,-6.802027378005665e-05,-0.010685844594456444,0.01788819464116851
8.484848484848484,7.291139240506329,0.018827693464372755,0.01706916929178252,4.057331884918563e-05,-0.010769058826846584,0.018013062842430694
8.585858585858587,7.291139240506329,0.018905585500885815,0.017018726209612117,7.583803313213677e-05,-0.01077729351314938,0.01803680891063777
8.686868686868687,7.291139240506329,0.019287352030051396,0.01727999069378428,-4.8697223365810994e-05,-0.010970202817150701,0.01836632454738999
8.787878787878787,7.291139240506329,0.019267464625585096,0.017425248089851676,-5.6659565165669405e-05,-0.01100781381463103,0.018415855772859577
8.88888888888889,7.291139240506329,0.01947665526518378,0.017570350978972735,1.6129643086099076e-05,-0.011114101873246953,0.018596947207365006
8.98989898989899,7.291139240506329,0.019440724878229794,0.017797629925256606,-2.389386150253522e-05,-0.011171506441045921,0.018673518699907674
9.09090909090909,7.291139240506329,0.019578846438777105,0.017690819790082694,-4.996723141394194e-05,-0.01118089986865794,0.01870662927533803
9.191919191919192,7.291139240506329,0.01994852854492082,0.017920470299741743,3.157191938072784e-05,-0.01136069965339877,0.01901586242895449
9.292929292929292,7.291139240506329,0.020006460652076934,0.018130342570603537,-3.14553304354786e-05,-0.01144104096680414,0.019137574888593512
9.393939393939394,7.291139240506329,0.020192073043118555,0.01809596223195779,-7.184704274271935e-06,-0.011486410582522904,0.01922989408618253
9.494949494949495,7.291139240506329,0.020410891560330775,0.01843413153518102,-5.962698109665052e-05,-0.011653506928653539,0.019498084677760222
9.595959595959595,7.291139240506329,0.02053368148776248,0.01844619800088697,6.335206536822974e-05,-0.011693963846594834,0.019573910753116028
9.696969696969697,7.291139240506329,0.020775748641906795,0.018585690012224258,-3.7962632715873645e-05,-0.011808431596239316,0.019772008100247783
9.797979797979798,7.291139240506329,0.020960323655551904,0.01904961980938867,-4.1178270807895576e-05,-0.012002983039482173,0.020073417069789157
9.8989898989899,7.291139240506329,0.021081212645928528,0.019124805870393075,-7.545499002702796e-05,-0.012061805554896481,0.020174704637336817
10.0,7.291139240506329,0.02152835265157536,0.019254905484732764,9.373918997728739e-05,-0.012234977440892436,0.020487101275576226
0.0,7.3924050632911396,0.021366248611337166,0.019289911028159277,-2.6188194944600185e-06,-0.012196847891848932,0.02040745533015298
0.10101010101010101,7.3924050632911396,0.021226996011834993,0.01916892751593785,1.980806387720024e-05,-0.012118777058331852,0.020276478267784937
0.20202020202020202,7.3924050632911396,0.021079889819830822,0.01908030730328194,6.509751659577214e-05,-0.012048059136933829,0.02015494527360929
0.30303030303030304,7.3924050632911396,0.020799367962457998,0.018744250612648783,8.346724545391516e-06,-0.011863085572532035,0.019851757655127908
0.40404040404040403,7.3924050632911396,0.020446908812360894,0.018366920406109426,-5.168071984491807e-05,-0.011644148765541096,0.019490539016870763
0.5050505050505051,7.3924050632911396,0.020414454273932157,0.01832096590009237,-6.840196129755494e-05,-0.011620626052207357,0.019452744039801594
0.6060606060606061,7.3924050632911396,0.02014777100200766,0.018210045635868716,-4.038743152834052e-05,-0.011507344991362913,0.019252311612792023
0.7070707070707071,7.3924050632911396,0.02001415194554407,0.0182774716520337,-2.333814883931078e-05,-0.011487487079273332,0.019204837600813447
0.8080808080808081,7.3924050632911396,0.019801117456345736,0.017926534455666374,4.040722148382282e-05,-0.01131829557360363,0.018933683582413614
0.9090909090909091,7.3924050632911396,0.01952308057661332,0.01784422492165354,2.1321925317740055e-05,-0.011210191649480058,0.018740175056715498
1.0101010101010102,7.3924050632911396,0.019470080650942037,0.017583383967912126,3.704955117491174e-06,-0.01111603938565625,0.018598644292677994
1.1111111111111112,7.3924050632911396,0.01953899066456833,0.017504891729610422,0.00014022482571285802,-0.011113164718253625,0.018607107877678705
1.2121212121212122,7.3924050632911396,0.019245738742792087,0.01743921041048607,3.368422874689905e-05,-0.011005484745983446,0.018409167171222547
1.3131313131313131,7.3924050632911396,0.019160425329263667,0.01719348729979826,-6.760400467609554e-05,-0.010906173788718578,0.018256973617594176
1.4141414141414141,7.3924050632911396,0.018982495777501298,0.017120941191661278,-3.0413793624592596e-05,-0.010831031090748771,0.018123640758692723
1.5151515151515151,7.3924050632911396,0.018883020608613604,0.016981784019090604,-3.434132950512784e-05,-0.010759441388311261,0.01800793203434505
1.6161616161616161,7.3924050632911396,0.018732648124191825,0.016982226686315504,-0.00021150603184166155,-0.010714462443152198,0.0179254081263078
1.7171717171717171,7.3924050632911396,0.018708286256274558,0.0168914983237844,-5.2689930252582176e-05,-0.010679935374017686,0.01786952805802751
1.8181818181818181,7.3924050632911396,0.018467553607733337,0.01671499102516832,3.570285924433354e-05,-0.010554763389870497,0.01765673504638837
1.9191919191919191,7.3924050632911396,0.01855751117055697,0.016689464312117864,-5.615601401890972e-05,-0.01057409264480245,0.017697852411007242
2.0202020202020203,7.3924050632911396,0.018318759306227495,0.016734227582160578,8.26807040921134e-06,-0.010515896066516421,0.017580137460235408
2.121212121212121,7.3924050632911396,0.018428982481366724,0.01639267692025687,-4.537970440715628e-05,-0.010446497820487078,0.01750008783055221
2.2222222222222223,7.3924050632911396,0.018340681546633115,0.0163392493415139,2.956070530249548e-05,-0.010403979266444104,0.0174264546383171
2.323232323232323,7.3924050632911396,0.018296517871046726,0.0163732787913453,1.6232614492364565e-05,-0.010400938998717607,0.017414753143943508
2.4242424242424243,7.3924050632911396,0.018102648149864137,0.016533760493305464,4.985999336018028e-05,-0.01039092259295088,0.017371635367464652
2.525252525252525,7.3924050632911396,0.01804618222338504,0.016233142156448215,-1.536062529476861e-05,-0.010283797313949976,0.017211451523451604
2.6262626262626263,7.3924050632911396,0.0178918729044998,0.016068381740557924,5.7406808383206436e-05,-0.010188076393517317,0.017053693164032477
2.727272727272727,7.3924050632911396,0.017857401353366092,0.016194749397229532,6.846411340583855e-05,-0.010215645225178687,0.01708726465339697
2.8282828282828283,7.3924050632911396,0.01772903572860005,0.016072733582123952,5.458123251773272e-06,-0.010140530793217199,0.016961647741522493
2.929292929292929,7.3924050632911396,0.01795791130435647,0.015982029694827288,5.397163701100989e-05,-0.010181982299755128,0.01705628091557419
3.0303030303030303,7.3924050632911396,0.017699395280364922,0.016017131496602048,-1.5707662286964444e-05,-0.010114958033090092,0.01692111973972368
3.131313131313131,7.3924050632911396,0.01779661766254123,0.015803633000203137,-1.3592524790376279e-05,-0.010080075198823311,0.016888568806096033
3.2323232323232323,7.3924050632911396,0.01757090850681003,0.015919546030599283,-8.719433914270935e-05,-0.010047136361222795,0.016806864471393325
3.3333333333333335,7.3924050632911396,0.01767997038069666,0.015797266826512342,-6.836430552179269e-05,-0.010043171162162702,0.016818258033947715
3.4343434343434343,7.3924050632911396,0.017592630615159397,0.015825871265588876,-2.1551331535016556e-05,-0.01002555056422448,0.016779199603006632
3.5353535353535355,7.3924050632911396,0.01775856996333639,0.015749594057966873,-3.7092800252517576e-05,-0.010052449206390979,0.01684429813878865
3.6363636363636362,7.3924050632911396,0.017450470372392418,0.015778388776954685,-2.085465557435404e-05,-0.00996865774480413,0.016677453867066032
3.7373737373737375,7.3924050632911396,0.017577930094519658,0.01569254712943267,-1.0787953714026588e-05,-0.009981143167185699,0.016715188138665946
3.8383838383838382,7.3924050632911396,0.017415514560334144,0.015696952478606512,-8.298419298307598e-05,-0.009933740111682196,0.01662361630938503
3.9393939393939394,7.3924050632911396,0.017440684340966656,0.015760423618496482,-1.3998069574257419e-05,-0.009960332387838942,0.016664226274971303
4.040404040404041,7.3924050632911396,0.017381743545998113,0.015735203087069584,-8.036715178125664e-05,-0.009935083989920308,0.016620341056181313
4.141414141414141,7.3924050632911396,0.0171388292607036,0.01571783496696298,1.1843485596427421e-05,-0.009856999268299972,0.01647437208011255
4.242424242424242,7.3924050632911396,0.017415113685476182,0.01573243821095271,7.566996268323308e-05,-0.009944265568928667,0.016638232315236832
4.343434343434343,7.3924050632911396,0.017344889522351775,0.015608525387000527,-3.986766647408609e-05,-0.00988602447280569,0.01654532795526796
4.444444444444445,7.3924050632911396,0.01731918813379426,0.015693131652901655,-1.718150131434489e-05,-0.009903695936008775,0.016566147554456363
4.545454545454545,7.3924050632911396,0.017338485105553775,0.015726219440141506,-1.3974257062824029e-05,-0.009919411363708584,0.016591226836645098
4.646464646464646,7.3924050632911396,0.017136315833925764,0.015504586900962698,-6.227532503996396e-05,-0.009792270820466539,0.016381870221938655
4.747474747474747,7.3924050632911396,0.01723351324115865,0.015591899016266881,9.067854835995346e-05,-0.00984762367722766,0.01647491314734038
4.848484848484849,7.3924050632911396,0.017454219203810413,0.015518073901190099,6.686731124088663e-06,-0.009891687931500153,0.01657119960239088
4.94949494949495,7.3924050632911396,0.01746587609390515,0.015314387173263187,7.000463485884337e-06,-0.0098340789801505,0.016495703695732937
5.05050505050505,7.3924050632911396,0.017266064930706395,0.015714210740698942,1.8497632676432937e-05,-0.009894082701421602,0.01654484393694904
5.151515151515151,7.3924050632911396,0.01751526888571414,0.015816949762535174,-1.6550153650557022e-05,-0.009999665594474794,0.016730906658323955
5.252525252525253,7.3924050632911396,0.017277833140630798,0.015575656332748206,-3.8996111765125066e-05,-0.0098560468420137,0.016492894201701674
5.353535353535354,7.3924050632911396,0.017468306198633366,0.015610049316330463,-4.9657752843813e-05,-0.009923506654489147,0.016617509968443123
5.454545454545454,7.3924050632911396,0.01718559749257362,0.015584972198183111,-6.634282695713193e-05,-0.009831170907227018,0.016444216751673943
5.555555555555555,7.3924050632911396,0.017404448970179776,0.015696132728082842,6.224009756583623e-05,-0.009930174509478785,0.016616633442648174
5.656565656565657,7.3924050632911396,0.01750449438535665,0.015500930633555636,-0.0001267040897269444,-0.009901627505673685,0.01659513129593945
5.757575757575758,7.3924050632911396,0.01726703129978202,0.01567904970695868,5.798443177420925e-05,-0.00988382430202221,0.016530650748322762
5.858585858585858,7.3924050632911396,0.017384770959725498,0.015635770637347585,-2.2542779617667684e-05,-0.009906162479121926,0.0165796507191046
5.959595959595959,7.3924050632911396,0.017466793648744417,0.015734042083562626,2.857235789281755e-06,-0.009960250719692114,0.016668104835651777
6.0606060606060606,7.3924050632911396,0.01755433070061506,0.01574154138583911,-1.994226250195782e-05,-0.00998876162593625,0.016721830683442077
6.161616161616162,7.3924050632911396,0.017397057073217984,0.015646150914220818,-1.3797208079341032e-05,-0.00991296239623164,0.0165910585526466
6.262626262626262,7.3924050632911396,0.01752580389564935,0.015610685254816825,0.00010058648933703995,-0.009940946745139852,0.0166519620701766
6.363636363636363,7.3924050632911396,0.01750934816338755,0.015574154058304175,0.00011281524716125813,-0.009925050666507519,0.01662758081686595
6.4646464646464645,7.3924050632911396,0.017476124952962486,0.015763820282899462,1.917862645533046e-05,-0.009971983570758585,0.016686029597907742
6.565656565656566,7.3924050632911396,0.017779570844991814,0.015710042979549345,-9.312555664729176e-05,-0.010046884147362347,0.01684122278299617
6.666666666666667,7.3924050632911396,0.017625749403275787,0.015822874250167297,8.322608620795735e-05,-0.010034587096032926,0.016797653256778657
6.767676767676767,7.3924050632911396,0.01781080285706503,0.015766219618437077,4.116970029213522e-05,-0.010073106742650632,0.016881778190626678
6.8686868686868685,7.3924050632911396,0.01777438856529543,0.015909392983460016,8.280604019133867e-05,-0.010105134464626634,0.016919766894586498
6.96969696969697,7.3924050632911396,0.017884342685917647,0.01596452043790366,-4.8666168764016086e-05,-0.010154658937146392,0.01700610998963964
7.070707070707071,7.3924050632911396,0.017767572132688675,0.015998769664274593,-5.7466471400764556e-05,-0.01012990253908898,0.016952812846325643
7.171717171717171,7.3924050632911396,0.017656516862234156,0.016026529567052125,-7.493338302676057e-05,-0.010104913928785883,0.016901076686468248
7.2727272727272725,7.3924050632911396,0.01801481615731507,0.01623678750634947,0.0001018793927692906,-0.010275481099099362,0.01719579210237038
7.373737373737374,7.3924050632911396,0.01808107113643788,0.01627527029502317,1.0714570575741637e-05,-0.010306902429438313,0.01724921972304806
7.474747474747475,7.3924050632911396,0.01792955505987321,0.016097641280875104,8.160313802429636e-05,-0.010208158902224493,0.01708799084122026
7.575757575757575,7.3924050632911396,0.01817838905848837,0.016132465138093265,-5.906424744420823e-05,-0.01029325625897449,0.017246985191527908
7.6767676767676765,7.3924050632911396,0.018236797204471005,0.016126475614932544,-6.843367652114047e-05,-0.010308981845821063,0.01727896907016997
7.777777777777778,7.3924050632911396,0.018197123959389376,0.016365625056669508,6.698765346410242e-05,-0.010368824704817663,0.017354398811163633
7.878787878787879,7.3924050632911396,0.01831040121270647,0.016285061806998014,6.293641181895857e-05,-0.010378638905911343,0.017386773655395923
7.979797979797979,7.3924050632911396,0.01837079078639732,0.01652511285799576,1.4734733458259648e-05,-0.010468771093317923,0.017521032200996135
8.080808080808081,7.3924050632911396,0.018590425144662918,0.016695787288918136,3.3162740138223325e-05,-0.010585863730074316,0.017719332259774036
8.181818181818182,7.3924050632911396,0.018632127335245476,0.016679404165555335,-5.302389186867379e-05,-0.010593459450240242,0.01773680762328504
8.282828282828282,7.3924050632911396,0.0187521353245281,0.016787753767089974,1.322931440585473e-05,-0.010661966727485421,0.017851205852345366
8.383838383838384,7.3924050632911396,0.019009549592290224,0.016943520265817177,-8.802215579645515e-06,-0.01078592095743222,0.018065364606779186
8.484848484848484,7.3924050632911396,0.018791312903107475,0.016956388188933576,-5.689474744606233e-05,-0.010724310327612315,0.017944621921577333
8.585858585858587,7.3924050632911396,0.018972531010769185,0.017107081249692156,-6.967576240129636e-05,-0.010823883678138402,0.01811240173086478
8.686868686868687,7.3924050632911396,0.019146462751381883,0.017274603729185822,4.2019814845277494e-05,-0.010926319944170312,0.018282688807700977
8.787878787878787,7.3924050632911396,0.019341516030937787,0.017297818885352784,6.288598709276461e-05,-0.010991800474887169,0.018405287371739118
8.88888888888889,7.3924050632911396,0.019353236616927828,0.017514546983568365,-1.804134798987212e-05,-0.011060335080148859,0.018502565445089863
8.98989898989899,7.3924050632911396,0.01961029733859943,0.017545950201856193,-2.4762613426265317e-05,-0.011146874262136687,0.01866399392436436
9.09090909090909,7.3924050632911396,0.019767289580981364,0.017804086611091657,-3.6135616904633604e-05,-0.011271412857621906,0.018862571908828684
9.191919191919192,7.3924050632911396,0.019741003417757023,0.017771777693383187,-9.44227511991231e-05,-0.011253834333342063,0.018834471617384524
9.292929292929292,7.3924050632911396,0.02004222045740433,0.018006555976356337,0.0001100935334172759,-0.0114146329301282,0.019106848410829727
9.393939393939394,7.3924050632911396,0.02013965060913109,0.018048206654660826,4.7497981500954793e-05,-0.011456357179137575,0.0191798196585811
9.494949494949495,7.3924050632911396,0.020323707170021233,0.01830549369965772,1.7849159588339405e-05,-0.011588760260903686,0.019393546218883305
9.595959595959595,7.3924050632911396,0.020561920465323416,0.01863729925870553,0.00011767030571282566,-0.011759765917208682,0.019671409983461712
9.696969696969697,7.3924050632911396,0.020783998024423,0.01853662860969755,-2.683576756638399e-05,-0.011796187990236164,0.019756469374990124
9.797979797979798,7.3924050632911396,0.02096082137857336,0.01898373230008819,-1.54302445824102e-05,-0.011983366103598465,0.020045553555400036
9.8989898989899,7.3924050632911396,0.021145824265620655,0.019161432015463203,-4.568198659236404e-05,-0.012092176884325156,0.02022692134781772
10.0,7.3924050632911396,0.021410215456915595,0.019402862465110162,1.3077574628992037e-05,-0.012243923376607726,0.020480464959602207
0.0,7.493670886075949,0.021641305964757253,0.019293183768393115,7.887471614802877e-05,-0.012280346919945109,0.02056847185567474
0.10101010101010101,7.493670886075949,0.021081786058570286,0.019055667757585784,-0.00013082373574063415,-0.01204123614484682,0.020146563250036047
0.20202020202020202,7.493670886075949,0.021157313488776586,0.01876377842587267,-3.9299273685275686e-05,-0.011976327574394775,0.020068004030949813
0.30303030303030304,7.493670886075949,0.020593691273346208,0.018949549180151504,6.98295009598837e-05,-0.011862972136049314,0.019823193417947534
0.40404040404040403,7.493670886075949,0.020578135768880058,0.018635888830175588,0.0001451182968909719,-0.011764207379716693,0.019680633924045565
0.5050505050505051,7.493670886075949,0.02045665633584744,0.018470285164220227,5.7995371155679456e-05,-0.0116780824500203,0.019539601757718936
0.6060606060606061,7.493670886075949,0.020249075304810533,0.018236326210777167,3.603575374864856e-05,-0.01154562045467631,0.01932158889344491
0.7070707070707071,7.493670886075949,0.019977844587996747,0.018226353450494788,5.486599092746066e-05,-0.01146125941154746,0.01916246353357293
0.8080808080808081,7.493670886075949,0.019625486879553247,0.017920868840517797,1.7167563255622153e-05,-0.011263906716021314,0.018831154588459683
0.9090909090909091,7.493670886075949,0.01967022056009254,0.01777244723786486,0.00012524787333592828,-0.011232800339387219,0.018794588628998878
1.0101010101010102,7.493670886075949,0.01964696264013028,0.017596435838700613,8.215542823329016e-07,-0.011173019543649266,0.01870618025441421
1.1111111111111112,7.493670886075949,0.019435645608489725,0.01763048730812682,0.0001264783244924026,-0.011119839874984964,0.018600174461945167
1.2121212121212122,7.493670886075949,0.01921089621299916,0.01729730822319303,-4.46960088229179e-06,-0.010952461330857659,0.018329175430628206
1.3131313131313131,7.493670886075949,0.0190937385785014,0.017269022199791817,-4.385447875928908e-05,-0.010908828233487964,0.018250083695638627
1.4141414141414141,7.493670886075949,0.018970523714388787,0.0171984340579844,6.355213604458455e-05,-0.010850687331711956,0.01814981320894702
1.5151515151515151,7.493670886075949,0.018943772874500074,0.01705490439248253,-3.064585332417525e-05,-0.01079960318009478,0.018073596124037958
1.6161616161616161,7.493670886075949,0.018839408157768005,0.016994373229316375,-7.904963048444171e-06,-0.010750134416125314,0.01798800364145688
1.7171717171717171,7.493670886075949,0.01871437377735075,0.017068208681604722,7.576056062854155e-06,-0.010734774737686642,0.017948004587967508
1.8181818181818181,7.493670886075949,0.018581424111399965,0.016697655491690718,5.401420862803999e-06,-0.010583723880927204,0.017714821198527384
1.9191919191919191,7.493670886075949,0.018339657290383303,0.016638578077560074,-2.8183612320920253e-05,-0.010493470610383014,0.017551121707117357
2.0202020202020203,7.493670886075949,0.01842224282899837,0.016720279194051856,-3.8250653653216075e-05,-0.010542756606915067,0.017633097091369614
2.121212121212121,7.493670886075949,0.01836097748742239,0.016463754156754377,-1.6160326623217413e-05,-0.01044741949325303,0.017489735826064515
2.2222222222222223,7.493670886075949,0.018296107675902545,0.016516794615568306,-4.677625704728444e-05,-0.010443870687441256,0.017474712351525305
2.323232323232323,7.493670886075949,0.01818112520277457,0.016404894674403196,8.13438778751236e-05,-0.010375805963153331,0.017361863073500378
2.4242424242424243,7.493670886075949,0.018021493134261976,0.016344762180485212,5.13320775711762e-05,-0.010309876594424155,0.017244603534285023
2.525252525252525,7.493670886075949,0.01802119534408004,0.01608538669275187,-4.088585365731141e-06,-0.010231974611049572,0.01713549827286312
2.6262626262626263,7.493670886075949,0.01795724784442003,0.016132770206303146,7.733804976645956e-05,-0.010227005415216952,0.017118610200173214
2.727272727272727,7.493670886075949,0.017704384990393514,0.016126286141383585,-3.108355999516628e-05,-0.010149201339533129,0.016970541324679504
2.8282828282828283,7.493670886075949,0.017907882692602604,0.01607216858238728,-9.312985274951885e-05,-0.010194015382496964,0.017065004406445008
2.929292929292929,7.493670886075949,0.017797943041467364,0.016140834559550354,7.906609737923053e-06,-0.010181633280305314,0.017029969177802383
3.0303030303030303,7.493670886075949,0.01770234036360692,0.015817104328664337,-2.173037332775144e-05,-0.010055833407681377,0.016839100211339005
3.131313131313131,7.493670886075949,0.017725517984166862,0.01614787379105674,9.948547538167557e-05,-0.010162017532567081,0.016992588989583748
3.2323232323232323,7.493670886075949,0.017619147820048205,0.01570176769459774,-4.865744279541595e-05,-0.009996274654393783,0.01674321400546698
3.3333333333333335,7.493670886075949,0.01749240505068327,0.015712512658902496,-4.262627671798927e-05,-0.00996147531287573,0.016674024820607362
3.4343434343434343,7.493670886075949,0.01765500854817686,0.015928226068694627,2.4085405682698826e-06,-0.010074970385061445,0.016858077071088117
3.5353535353535355,7.493670886075949,0.017486265712247533,0.015807063747610893,-1.2716889950988933e-05,-0.009987998837957528,0.016710078432403273
3.6363636363636362,7.493670886075949,0.01744495277212234,0.015836554896823892,-2.5933572713882633e-05,-0.00998445230068387,0.016699009360559722
3.7373737373737375,7.493670886075949,0.017358907933770512,0.015604973095702104,-1.4913631192097683e-05,-0.009889164308841786,0.01655180491495217
3.8383838383838382,7.493670886075949,0.017405957187794512,0.015572921877094576,2.7374330126430996e-05,-0.009893663719466726,0.01656574411228482
3.9393939393939394,7.493670886075949,0.017496988166535086,0.015722082832569324,8.348658537067714e-05,-0.009965721299731323,0.01668113594001022
4.040404040404041,7.493670886075949,0.0173710211195273,0.015653580392437857,-4.7054860499093964e-05,-0.009907380453589546,0.016579352240784672
4.141414141414141,7.493670886075949,0.017494037339011722,0.015692949490490476,-9.492908668327415e-05,-0.009956096048850659,0.016667453206127558
4.242424242424242,7.493670886075949,0.017379174549250805,0.015649021691557304,0.00013090868977971636,-0.009908458872242431,0.016583483339417896
4.343434343434343,7.493670886075949,0.017405266349385076,0.015489376170859537,4.170270875389897e-05,-0.009868392756073383,0.016530957938472635
4.444444444444445,7.493670886075949,0.017524955893435966,0.01556032477556198,-1.2940723135412509e-05,-0.009925584200699384,0.016629921322589804
4.545454545454545,7.493670886075949,0.01711933104091759,0.015416947875905923,-7.070042002504693e-05,-0.009760883675047054,0.01633526670785926
4.646464646464646,7.493670886075949,0.01709166530000185,0.01563327207114493,-8.63897108036944e-06,-0.009817481211344032,0.0164111482989252
4.747474747474747,7.493670886075949,0.017308863670992672,0.015538452239775551,3.125773455869619e-05,-0.009854194773230468,0.016495158054720155
4.848484848484849,7.493670886075949,0.01728094600586793,0.01563783270669473,-3.2982870932659864e-05,-0.009875633613768796,0.01652088458819418
4.94949494949495,7.493670886075949,0.01752390741537479,0.015666041110345662,-6.669412178277772e-05,-0.009956984557716134,0.0166731900219531
5.05050505050505,7.493670886075949,0.017390433141694077,0.01568691004133211,-5.2769554740552386e-05,-0.009923202954907855,0.01660459289187016
5.151515151515151,7.493670886075949,0.017227225806605313,0.0154526104054685,-1.6654203861565348e-05,-0.009803950863622143,0.016412059610724533
5.252525252525253,7.493670886075949,0.017223395331810845,0.015559614699163143,-8.987230823948191e-05,-0.009834903009292196,0.01645544871048129
5.353535353535354,7.493670886075949,0.017149042061328883,0.015565958659184993,-2.996114417535775e-05,-0.009814500216154163,0.01641493605957374
5.454545454545454,7.493670886075949,0.017420414255170963,0.01572979757904242,-9.479923545392912e-05,-0.009945063550264014,0.01664045478367812
5.555555555555555,7.493670886075949,0.01719243830439079,0.015614567261088334,-6.893632765172524e-05,-0.009842101669643737,0.016460753869951526
5.656565656565657,7.493670886075949,0.01745273986723079,0.015652295513700253,3.563659529397246e-06,-0.009931510614279312,0.016625795616896106
5.757575757575758,7.493670886075949,0.017268433109949473,0.01567992127268392,-2.2090979629473396e-06,-0.009884506314790018,0.016531517055735998
5.858585858585858,7.493670886075949,0.01730537740605217,0.015370852040598794,7.666769144670263e-05,-0.00980286883399529,0.01642432396811105
5.959595959595959,7.493670886075949,0.017475042370132404,0.01572305613996009,2.5857053821759824e-05,-0.009959429553027747,0.016668309264774982
6.0606060606060606,7.493670886075949,0.017625050417541942,0.01580582992525268,1.8622262105418846e-06,-0.010029264102838387,0.016789524201921157
6.161616161616162,7.493670886075949,0.017360392220709318,0.01575177365538041,3.22142852976235e-05,-0.009933649762826917,0.01661468434242711
6.262626262626262,7.493670886075949,0.017382142743694613,0.015897953391804033,-1.6052944216078885e-05,-0.009984028840649594,0.016689640089356663
6.363636363636363,7.493670886075949,0.01739880724881552,0.01585514753894834,3.202000770397567e-05,-0.009976186436329157,0.01668072591568608
6.4646464646464645,7.493670886075949,0.017593858711640573,0.015707053001482958,-5.3958337670754186e-05,-0.00999027351393706,0.01673070355899109
6.565656565656566,7.493670886075949,0.017476710815440718,0.01581612641733529,9.006160802836492e-06,-0.009987851169832803,0.016708430551438686
6.666666666666667,7.493670886075949,0.017646217065216872,0.016015885470194658,-1.927899612777449e-05,-0.010098630760623459,0.016890200935676006
6.767676767676767,7.493670886075949,0.0177372905149611,0.015882471813659226,1.4361785954171544e-05,-0.010085928698586096,0.01688647351734344
6.8686868686868685,7.493670886075949,0.017686871828875763,0.015953348865777334,1.865306280962078e-05,-0.01009206620839593,0.01688700631563186
6.96969696969697,7.493670886075949,0.01766332182359845,0.01611759658512425,-4.596557254813002e-05,-0.01013427552261681,0.016943609430118956
7.070707070707071,7.493670886075949,0.01786744974729695,0.016114071555058024,1.6221059223314623e-05,-0.010194456390706493,0.01705850193269188
7.171717171717171,7.493670886075949,0.017754851206105905,0.016064546204848974,-0.00011778829159906615,-0.010145819223286464,0.016974168044499107
7.2727272727272725,7.493670886075949,0.017754660029515305,0.016046940585184327,-2.700287195078397e-05,-0.010140480184409889,0.016965449235714507
7.373737373737374,7.493670886075949,0.017794657425925852,0.016211317082453422,-5.0066589582423117e-05,-0.010201792352513783,0.017058409085807594
7.474747474747475,7.493670886075949,0.01813715503326983,0.016185062770210628,-3.547435700664994e-05,-0.010296665341044137,0.01724428694321759
7.575757575757575,7.493670886075949,0.01808485445376474,0.016259610153684413,-5.3131223337526095e-05,-0.010303339382234745,0.01724507664929309
7.6767676767676765,7.493670886075949,0.01809234323979584,0.016300191094835607,2.1027596761191475e-05,-0.010317760300389434,0.01726620363462077
7.777777777777778,7.493670886075949,0.018053591363384903,0.016444590300171636,-6.514608881451645e-05,-0.01034945449906696,0.017305650229843046
7.878787878787879,7.493670886075949,0.018328132016389418,0.016276504603346887,7.219611940074233e-05,-0.01038139098592089,0.01739375569037432
7.979797979797979,7.493670886075949,0.0184729270460259,0.01637568254402605,-2.3793965878909644e-05,-0.010454582877015584,0.017518759143394784
8.080808080808081,7.493670886075949,0.018707077929689536,0.016533803001521435,-0.00011418289723120157,-0.01057226427936329,0.017721776952073984
8.181818181818182,7.493670886075949,0.018463523334777524,0.016778338226916878,0.0001239869463420189,-0.01057255846850832,0.017682567870866903
8.282828282828282,7.493670886075949,0.018707394108911403,0.01682651225641145,-1.800467174684766e-05,-0.010660171909596856,0.017841493359772184
8.383838383838384,7.493670886075949,0.018751769425555332,0.016929671907306303,-9.483347070156136e-05,-0.01070443239985849,0.01791112290124811
8.484848484848484,7.493670886075949,0.019062210962679953,0.01689922080987428,-5.8029094307141106e-05,-0.010788429531766269,0.018078305803122904
8.585858585858587,7.493670886075949,0.01901673691298424,0.017021845725493864,2.0296881357403272e-05,-0.01081157479154343,0.018101955382643815
8.686868686868687,7.493670886075949,0.019210533658181234,0.01721386710685742,4.855274405796403e-05,-0.010927320229511596,0.018294297550542498
8.787878787878787,7.493670886075949,0.019168633807499506,0.017123821966337327,-1.5702778887180084e-05,-0.010887736732151048,0.018232450955784518
8.88888888888889,7.493670886075949,0.019245292112534406,0.017449168127791886,-3.259044435511184e-05,-0.011008338072097888,0.018413136221725974
8.98989898989899,7.493670886075949,0.019633908535626913,0.01773350748040663,2.3113705356426683e-05,-0.011210224804810062,0.018756097429555214
9.09090909090909,7.493670886075949,0.01972545255284229,0.017674584248873807,1.6610421925969308e-06,-0.011220011040514828,0.01878417530981278
9.191919191919192,7.493670886075949,0.020092477505785168,0.01789519282388608,4.901372731676066e-05,-0.011396301098901374,0.019089107529827686
9.292929292929292,7.493670886075949,0.02004088277063548,0.018325573888675825,4.163713967721606e-05,-0.011509936997793391,0.019240794253936135
9.393939393939394,7.493670886075949,0.020190246197442845,0.01824193968515708,-5.6566017734048584e-05,-0.011529655764779977,0.01929027606777898
9.494949494949495,7.493670886075949,0.020485205670400478,0.018195508790847543,2.6921533926270155e-05,-0.011604214338374405,0.01944180099592867
9.595959595959595,7.493670886075949,0.020531037676290234,0.018432516872632875,3.679719098508081e-05,-0.011689066364676934,0.019566464934782084
9.696969696969697,7.493670886075949,0.020773182897706768,0.01873510022048675,1.9088805105932447e-05,-0.011852484935458055,0.01983286508887869
9.797979797979798,7.493670886075949,0.02112649786846006,0.018801852516101225,-1.8435185752727465e-05,-0.011978505115368385,0.020065450223879296
9.8989898989899,7.493670886075949,0.021098698289587114,0.019017522161625562,-2.1304164505455503e-07,-0.012034866135363802,0.020138923916521247
10.0,7.493670886075949,0.02156317604243458,0.019381549407505194,2.512845292948654e-05,-0.012283417634981931,0.020559405413115704
0.0,7.594936708860759,0.02133011417579118,0.019125845746798865,-7.240346077522099e-05,-0.012136787976777013,0.020318243023899455
0.10101010101010101,7.594936708860759,0.02124027165677743,0.019424259918674205,5.234082604524906e-05,-0.01219935947263549,0.020393201679080104
0.20202020202020202,7.594936708860759,0.021111707692342045,0.01891430058708156,-2.8801435815471643e-05,-0.01200780248382708,0.02010333981590929
0.30303030303030304,7.594936708860759,0.020865245925203463,0.01880059621489731,-2.460829244709354e-05,-0.01189975264203023,0.01991340399566886
0.40404040404040403,7.594936708860759,0.02042593001583525,0.01846723840048168,2.0943132630972634e-05,-0.011667950524895079,0.019520458699591403
0.5050505050505051,7.594936708860759,0.020301648098615205,0.018480894386452857,-7.629944571176973e-05,-0.011634762745520418,0.019455724691669538
0.6060606060606061,7.594936708860759,0.020136949949578997,0.01806228467072111,-6.35963032684935e-06,-0.01145977038609003,0.019183943279298735
0.7070707070707071,7.594936708860759,0.01999413585107219,0.017895914142090893,2.959699041706723e-06,-0.011367014997948927,0.01903197044857902
0.8080808080808081,7.594936708860759,0.019549494035685153,0.017813360298341956,2.5076907257056874e-05,-0.011208856300208134,0.018741884318705007
0.9090909090909091,7.594936708860759,0.01960942746764379,0.017672092428197506,5.174705716169127e-05,-0.011184455968752388,0.018716327497697752
1.0101010101010102,7.594936708860759,0.019562521116224918,0.017624711470382953,-5.619704858653194e-06,-0.011156169775982362,0.018669198999247513
1.1111111111111112,7.594936708860759,0.019405197348520392,0.017444822658481643,2.1576114408748132e-05,-0.01105500600210061,0.018503099521681762
1.2121212121212122,7.594936708860759,0.01912671654971963,0.017303253393906703,4.2998487233403747e-05,-0.0109289909830879,0.0182834621323082
1.3131313131313131,7.594936708860759,0.019024252362934004,0.01731127456961143,-3.4377849549778974e-05,-0.01090065807976363,0.01822832670780192
1.4141414141414141,7.594936708860759,0.019038369509856594,0.017065975652218207,-1.132476978183707e-05,-0.01083130354862244,0.018132817563578683
1.5151515151515151,7.594936708860759,0.018844782584043446,0.017076184653995557,0.0001682509284257163,-0.0107762901714117,0.018028029590957617
1.6161616161616161,7.594936708860759,0.018748350066484485,0.016884684680425678,-2.6275618505083734e-06,-0.01068991042407305,0.017889473120644605
1.7171717171717171,7.594936708860759,0.018850384069366538,0.01681567550496982,3.763099113264549e-05,-0.010699817872300907,0.01791999522519553
1.8181818181818181,7.594936708860759,0.018696128005965613,0.016514083868385276,-3.9561281510010516e-05,-0.010563063562305266,0.017706367154442373
1.9191919191919191,7.594936708860759,0.018487925678192026,0.016489010619305123,-3.352814979008499e-05,-0.010493080889249145,0.017574033022040275
2.0202020202020203,7.594936708860759,0.01850903338626233,0.01651130107415374,2.81827421647056e-05,-0.010506100338124819,0.01759549772026501
2.121212121212121,7.594936708860759,0.01826115368049478,0.016380414327767552,3.798998000026576e-06,-0.010392470402478699,0.01739719768237391
2.2222222222222223,7.594936708860759,0.01817419963605257,0.016444840955014903,5.457586254738747e-07,-0.010385712177320242,0.017374190767941167
2.323232323232323,7.594936708860759,0.018185947458857366,0.016361131834249493,3.1133401807455474e-05,-0.010364123787932058,0.017345764435015173
2.4242424242424243,7.594936708860759,0.018053034787105172,0.01613641094098692,0.00010252436548487026,-0.010256833718427628,0.017176034721690707
2.525252525252525,7.594936708860759,0.017893110627940346,0.016330775819977435,-0.00010845077782760757,-0.010267165934375334,0.017166378568374756
2.6262626262626263,7.594936708860759,0.01808308369358613,0.01610433663685343,7.915793539075204e-06,-0.010256226099131868,0.017179397402929952
2.727272727272727,7.594936708860759,0.017969441427665975,0.016250566957981258,-4.891438704428561e-06,-0.01026600251569417,0.017174638637795555
2.8282828282828283,7.594936708860759,0.017819643061540026,0.015990775705245545,1.9500459476026447e-05,-0.010143125630035672,0.01697927595497819
2.929292929292929,7.594936708860759,0.017738080013760336,0.0159264570588305,1.6293327833544496e-05,-0.010099361121777251,0.01690525195889366
3.0303030303030303,7.594936708860759,0.01784442101251881,0.01595665095955046,-6.748363491769877e-05,-0.010140321591620783,0.016979827312663107
3.131313131313131,7.594936708860759,0.017879572720601842,0.015797667639260896,3.5294748726468885e-06,-0.01010317210795882,0.016934872704315068
3.2323232323232323,7.594936708860759,0.017683242521690675,0.0158737067378534,2.329497471059198e-05,-0.010067084777863222,0.016851547516005316
3.3333333333333335,7.594936708860759,0.017581818048990124,0.015671498927104056,-3.5427917841582012e-06,-0.009975995092828255,0.016708764152170315
3.4343434343434343,7.594936708860759,0.017699657692724143,0.015740986732089703,4.827877864800853e-06,-0.010032193327444152,0.016806145862777306
3.5353535353535355,7.594936708860759,0.01756899599370173,0.015693935928386853,8.525474943804189e-05,-0.009978879576626574,0.01671120440951771
3.6363636363636362,7.594936708860759,0.01744885543281206,0.01565406537787223,1.5635548509501662e-05,-0.009930876243205287,0.016624305352907938
3.7373737373737375,7.594936708860759,0.017542784874794853,0.01567787640858173,3.093515439431278e-05,-0.009966198385012975,0.016688749733519772
3.8383838383838382,7.594936708860759,0.017382551731533226,0.015643518515550535,-1.5509587218928823e-06,-0.009907821074125129,0.01658157150581527
3.9393939393939394,7.594936708860759,0.017467812775704028,0.015491737760816651,-9.712993056094343e-05,-0.009887865160956204,0.01656924711358196
4.040404040404041,7.594936708860759,0.017411719998540097,0.01563600603903619,6.378267453374786e-05,-0.009914317811272886,0.016595635685380337
4.141414141414141,7.594936708860759,0.017472684683316805,0.015820584023949934,-6.719704762331706e-07,-0.00998798061218002,0.016708007484428234
4.242424242424242,7.594936708860759,0.017347910482513714,0.015646984813002807,1.524636498409983e-05,-0.009898468588654957,0.0165631016825159
4.343434343434343,7.594936708860759,0.017250340335739082,0.015550693897773598,4.306716919975373e-05,-0.009840310270053804,0.01646660634589814
4.444444444444445,7.594936708860759,0.017344403441420245,0.015567886260854532,6.875260462521605e-06,-0.009873686910682434,0.01652791139675152
4.545454545454545,7.594936708860759,0.017409335373942778,0.01560047910275701,-6.332893081832236e-05,-0.009902944343009937,0.01657944406077377
4.646464646464646,7.594936708860759,0.017323126246145786,0.0154478213340798,-3.276111241724511e-05,-0.009831284274067676,0.016465860062044983
4.747474747474747,7.594936708860759,0.017473430603327365,0.015606302354619307,-6.945065104678044e-06,-0.009923919887384001,0.016618722988451805
4.848484848484849,7.594936708860759,0.017395931474708002,0.015455683979030682,-3.297062435275252e-05,-0.009855484636121606,0.016511627446277148
4.94949494949495,7.594936708860759,0.017293104526150623,0.01568510419359497,-5.369939492886418e-05,-0.009893462615923677,0.01654806521222187
5.05050505050505,7.594936708860759,0.017441181454886018,0.015564212523308878,-1.1796169543904688e-05,-0.009901618193458467,0.01658257171371175
5.151515151515151,7.594936708860759,0.017327950685099087,0.015567352724204167,-5.188292828682315e-05,-0.009868591022790975,0.01651841702455786
5.252525252525253,7.594936708860759,0.017383625624091913,0.015600450217347617,3.391564663507342e-06,-0.009895222752431859,0.0165641822975058
5.353535353535354,7.594936708860759,0.017230182682750925,0.015646761108585112,-2.384118561120501e-05,-0.009863083137400811,0.016495620066618037
5.454545454545454,7.594936708860759,0.017393317548292972,0.015361829867315407,0.00010741607464918248,-0.009826544224682513,0.016472848625611505
5.555555555555555,7.594936708860759,0.017440816613524066,0.015570842009507164,-9.714396831784542e-05,-0.009903497586909369,0.016585937292700127
5.656565656565657,7.594936708860759,0.017288981825442327,0.015604367809345394,-4.264960691763183e-05,-0.009868004890436316,0.01651142067792565
5.757575757575758,7.594936708860759,0.01720365625511821,0.015662053323188287,2.7993366699262875e-05,-0.009859712873491947,0.016487069846001613
5.858585858585858,7.594936708860759,0.01739755790189209,0.015719589931816033,-5.5876006656999637e-05,-0.009935144350112437,0.016622497373310976
5.959595959595959,7.594936708860759,0.01742135556667545,0.015725407651860875,9.792068222334985e-06,-0.009944028965560897,0.01663834261931011
6.0606060606060606,7.594936708860759,0.01752937678166107,0.015493143739217972,-2.6234778387324218e-05,-0.009906756156263711,0.016605223995210458
6.161616161616162,7.594936708860759,0.017286432006066287,0.015860221560975572,-2.1368261143266428e-05,-0.009943996070112556,0.01661932873663643
6.262626262626262,7.594936708860759,0.01768472115542444,0.015664374910874607,-2.8293786355399787e-05,-0.010004728819889713,0.016766165421340375
6.363636363636363,7.594936708860759,0.017555081852977255,0.01582833089634028,1.3137158792191598e-05,-0.010015023824795261,0.016758574852962067
6.4646464646464645,7.594936708860759,0.01743783702081135,0.016082565012656286,-3.4882211737123056e-05,-0.01005612061004029,0.016801355900327775
6.565656565656566,7.594936708860759,0.017640988928192377,0.015852193094484542,-6.502146089976281e-05,-0.010047954606803076,0.01681846713506295
6.666666666666667,7.594936708860759,0.0175598819250581,0.01600783890710234,1.5083137942380899e-05,-0.010070316249648131,0.016837615066178584
6.767676767676767,7.594936708860759,0.017572532373197825,0.016007303942968884,-2.5998206546878163e-05,-0.010073950894850012,0.0168446084699071
6.8686868686868685,7.594936708860759,0.01772224785021223,0.015902450403192096,-4.8491547203446774e-05,-0.010087409476021297,0.016886263189637585
6.96969696969697,7.594936708860759,0.017852640320635535,0.015939362968420398,0.00010966594247455315,-0.01013760098671678,0.0169781160350194
7.070707070707071,7.594936708860759,0.01775605332119648,0.016107617998762352,-4.563172130365497e-06,-0.010159101395987651,0.016991913533894783
7.171717171717171,7.594936708860759,0.017933246051118967,0.016047492785541812,-2.8310804899347333e-05,-0.010194221650998233,0.017068746483275648
7.2727272727272725,7.594936708860759,0.01781252823565765,0.016019703267539626,8.150728120082768e-05,-0.010149669450959183,0.016987806463957627
7.373737373737374,7.594936708860759,0.018007924891797863,0.01618713506677083,3.207346672684125e-05,-0.010258517987570609,0.01717017979534641
7.474747474747475,7.594936708860759,0.018029241252786824,0.01621516163135302,1.2385873961383942e-05,-0.010273320865241953,0.01719413871373378
7.575757575757575,7.594936708860759,0.017962247401581772,0.01625731821297458,9.12279202871107e-05,-0.010265869684366906,0.017174100353910104
7.6767676767676765,7.594936708860759,0.018131644431697534,0.016275465409776986,-6.653877266856846e-05,-0.010322132952442355,0.017278878278311104
7.777777777777778,7.594936708860759,0.01815012421371427,0.016435475577280634,3.277710595593819e-05,-0.01037567993729847,0.017356530937994465
7.878787878787879,7.594936708860759,0.018405801134719273,0.01657662300355363,7.324644730106864e-05,-0.010494727241481872,0.017563257506803296
7.979797979797979,7.594936708860759,0.01840440034189114,0.016747543764808293,7.037758762590912e-07,-0.010545583232009829,0.017634445707018942
8.080808080808081,7.594936708860759,0.018319385612508406,0.01661288449675653,-6.726609157494141e-05,-0.01047968103277948,0.01752893486414492
8.181818181818182,7.594936708860759,0.018608045953544705,0.01671159751751638,3.075098850827447e-05,-0.010595893041318324,0.01773610803145621
8.282828282828282,7.594936708860759,0.018735036294154166,0.01692438034386381,1.7928817200329177e-05,-0.010697824991405393,0.01789855634670401
8.383838383838384,7.594936708860759,0.018920805130647554,0.01702852601455987,9.535887397993929e-05,-0.010784799343562227,0.018049970154583955
8.484848484848484,7.594936708860759,0.018854337078084486,0.01714956971804362,4.870939017078465e-05,-0.010801172038838432,0.01806258890010061
8.585858585858587,7.594936708860759,0.018910380438594176,0.017125254549908743,9.177589590676606e-06,-0.010810690496550875,0.0180840262599192
8.686868686868687,7.594936708860759,0.019162536641109715,0.017113388513634687,-4.147595504272387e-05,-0.01088277754642332,0.0182247113354079
8.787878787878787,7.594936708860759,0.019343872432319803,0.01736770354366737,-6.276067638544227e-05,-0.011013472792796153,0.018435718103047383
8.88888888888889,7.594936708860759,0.019388567632782863,0.01753961645684311,-1.61044379284384e-05,-0.011078455226887792,0.01853341410632013
8.98989898989899,7.594936708860759,0.01961024790034029,0.01768629975007993,5.071869847504015e-05,-0.011188964295126065,0.01872276732170779
9.09090909090909,7.594936708860759,0.019747723328348045,0.017761686810087697,4.4620445604396186e-05,-0.011252823041530722,0.018833565540670786
9.191919191919192,7.594936708860759,0.01996949575107693,0.01782570356311323,-6.691126083392162e-06,-0.011338559794257049,0.01898858317047972
9.292929292929292,7.594936708860759,0.020033061810471528,0.01810626056334343,-6.692783658185746e-06,-0.011441796712144486,0.019142532080368983
9.393939393939394,7.594936708860759,0.020220953773418735,0.018194942634677864,3.25626023454588e-05,-0.01152476892242898,0.019288001348749004
9.494949494949495,7.594936708860759,0.020327039234596753,0.018326856002895735,3.2797503611103842e-06,-0.011596168571247747,0.01940441924532481
9.595959595959595,7.594936708860759,0.020449851581709533,0.018585918018904274,5.132362804197296e-05,-0.011710730880184142,0.01958472403858046
9.696969696969697,7.594936708860759,0.020824039654409057,0.01866715927783283,4.7799304297205375e-05,-0.011847359679672565,0.019833926800210146
9.797979797979798,7.594936708860759,0.02090331489576706,0.018952859125966448,-2.902504015194218e-05,-0.011956852206520053,0.019999609685041483
9.8989898989899,7.594936708860759,0.021297655154649757,0.019080490270478142,3.0779721019620905e-05,-0.012113443627538368,0.02028024566566133
10.0,7.594936708860759,0.02142480271940727,0.01929385938609829,1.6543440583293546e-05,-0.012215598631651668,0.020442819560647526
0.0,7.69620253164557,0.021525744581825674,0.019260254039781263,5.976553056523018e-06,-0.01223579958648208,0.02048716338576572
0.10101010101010101,7.69620253164557,0.02112306527883149,0.019129522940073737,-1.2750705602858787e-05,-0.012075776465671567,0.02020021932093763
0.20202020202020202,7.69620253164557,0.02104691909545946,0.018797952695504265,5.393406476401479e-05,-0.011953461537289118,0.02001763137987873
0.30303030303030304,7.69620253164557,0.02100364789182916,0.018651080427587195,7.191594679436662e-06,-0.011896418495824906,0.01993176998999687
0.40404040404040403,7.69620253164557,0.020620958930626068,0.018535743541985675,4.701438988772301e-05,-0.011747010741783522,0.019661626601161365
0.5050505050505051,7.69620253164557,0.02030414600851648,0.018541155899552107,-7.409792719498165e-05,-0.011653590572420576,0.019482991099518645
0.6060606060606061,7.69620253164557,0.02021135569430043,0.01829190750233652,-3.716435495998196e-05,-0.011550978958991086,0.01932337118068269
0.7070707070707071,7.69620253164557,0.01999882066558504,0.018191836754181977,-2.7439412455991537e-05,-0.011457197225930105,0.01915940318602386
0.8080808080808081,7.69620253164557,0.019932152255804147,0.017926110674654702,-2.5372842204390856e-05,-0.011357478879137656,0.019008737503850136
0.9090909090909091,7.69620253164557,0.019724852829120395,0.017785179125334408,0.0001023261250362394,-0.01125300958633644,0.018830926338646196
1.0101010101010102,7.69620253164557,0.0196889242046912,0.01757460285192178,-1.8553830307729132e-06,-0.011179058116983895,0.018721522069243008
1.1111111111111112,7.69620253164557,0.019343907076283418,0.017561928690777606,-4.1013902307631805e-05,-0.011071750730118306,0.018517473101416267
1.2121212121212122,7.69620253164557,0.01913450680980277,0.017256163988503773,4.092111333045893e-05,-0.010917201239491964,0.018268042662419333
1.3131313131313131,7.69620253164557,0.018967671333516418,0.01738816714888629,-1.7318159669169328e-05,-0.010906751544720813,0.018229338243544373
1.4141414141414141,7.69620253164557,0.019252138632478384,0.017198614023655866,4.3808267723551835e-05,-0.010935225796840274,0.018312094972501428
1.5151515151515151,7.69620253164557,0.018932317290787728,0.016956656284752687,1.0746370217095627e-05,-0.010766692072662122,0.01802588083389973
1.6161616161616161,7.69620253164557,0.018811262216323395,0.016702034868069676,4.6099992219988064e-05,-0.010653989125317922,0.01785053425205824
1.7171717171717171,7.69620253164557,0.01882143673639384,0.016730060911491013,3.333377817076707e-05,-0.010665449294365454,0.017867875343893936
1.8181818181818181,7.69620253164557,0.01845912256713925,0.01686688617752524,7.74400675874377e-06,-0.010597802623399346,0.017716752408561177
1.9191919191919191,7.69620253164557,0.018439916793469374,0.016626555492558998,7.740354212909906e-05,-0.01051994168580851,0.0176039357240769
2.0202020202020203,7.69620253164557,0.018329359810956472,0.01641145015930814,-3.817266511873976e-05,-0.010422242991079385,0.017449759994868422
2.121212121212121,7.69620253164557,0.018463334129375383,0.01644307578321612,0.0001380421818938391,-0.01047192297377745,0.017542309227046825
2.2222222222222223,7.69620253164557,0.018261240303678997,0.016318069907655414,1.9539353598355024e-05,-0.010373793063400322,0.01737139178140105
2.323232323232323,7.69620253164557,0.017914070349206005,0.016325214970492146,-1.9517829812138003e-05,-0.010271785595909445,0.01717488438676712
2.4242424242424243,7.69620253164557,0.017949986707567225,0.01632305206478386,-6.871114110898706e-05,-0.010281911631705325,0.017194756397937837
2.525252525252525,7.69620253164557,0.01797783608617763,0.016267807056028902,0.00011286105675770723,-0.010273692942661958,0.017187855621723157
2.6262626262626263,7.69620253164557,0.01802709314788771,0.01633797330456623,-7.213175079327876e-05,-0.010309519935736181,0.01724514138598574
2.727272727272727,7.69620253164557,0.017998327197781525,0.01609583231539967,-2.0278554908095248e-05,-0.010228247853954356,0.017126551812027
2.8282828282828283,7.69620253164557,0.01786038522063274,0.01609204111671233,-0.00011135661912045641,-0.01018572790120352,0.017046239910621905
2.929292929292929,7.69620253164557,0.01791416065812897,0.015963911546660266,-5.96701888388315e-05,-0.01016342166143677,0.017023343660107573
3.0303030303030303,7.69620253164557,0.017737946133115322,0.015957502049140305,5.629161427495791e-05,-0.010108634454676689,0.01691841597610139
3.131313131313131,7.69620253164557,0.017751276098750383,0.015973460504212524,-7.016343888344215e-05,-0.010117420980888872,0.01693294731213119
3.2323232323232323,7.69620253164557,0.01753948906224788,0.015889933942409777,-9.725522125712107e-06,-0.010028826901397296,0.01677565612527461
3.3333333333333335,7.69620253164557,0.017558470395401274,0.015996567001860414,-0.00011422775942522492,-0.010066511219178507,0.01683312015890231
3.4343434343434343,7.69620253164557,0.017520884811523935,0.01572159388232048,-3.991431462498312e-05,-0.009972743608153326,0.016694264367475026
3.5353535353535355,7.69620253164557,0.01758295449253163,0.01568558943800926,-1.3059504272513711e-05,-0.009980563179162268,0.01671524786173181
3.6363636363636362,7.69620253164557,0.017539600225894778,0.015875736157852097,5.2000810661806275e-05,-0.010024600915124061,0.016769932062783096
3.7373737373737375,7.69620253164557,0.01745770413005769,0.015590015521723836,-7.693803095353151e-05,-0.009914315895534457,0.016603370063959386
3.8383838383838382,7.69620253164557,0.017543076130289263,0.015737789669644477,4.6594097646785124e-06,-0.009984259739980121,0.01671371791769678
3.9393939393939394,7.69620253164557,0.01737552517520059,0.015474381454320653,-1.113526363813334e-05,-0.00985497198885637,0.016507277908847835
4.040404040404041,7.69620253164557,0.01737342558146968,0.015683637546988424,7.142868372257969e-05,-0.009917118938537431,0.01659364937382365
4.141414141414141,7.69620253164557,0.01731221778248744,0.015748788582809634,-2.7729675171883813e-05,-0.009918301909589122,0.016585930043956316
4.242424242424242,7.69620253164557,0.017414953856705852,0.015715874973290245,0.00013070093749442089,-0.00993924864899883,0.016632178291939467
4.343434343434343,7.69620253164557,0.017050986255907372,0.01567452969607589,2.2043566441227713e-05,-0.00981765478559498,0.016406165939462192
4.444444444444445,7.69620253164557,0.017463445339508867,0.015547808863134638,-2.2892980519654335e-05,-0.00990337626079305,0.016588837982383513
4.545454545454545,7.69620253164557,0.017395541561155307,0.01568042920057895,1.8404830540278084e-05,-0.009922791228520276,0.01660458323711221
4.646464646464646,7.69620253164557,0.017355830538122317,0.015760833119547978,-1.8764066838066903e-05,-0.009934999097301089,0.016615878604466637
4.747474747474747,7.69620253164557,0.017304160056357775,0.015443418093803576,1.0468616851984314e-05,-0.009824273445048406,0.016452904544166518
4.848484848484849,7.69620253164557,0.017448905142749667,0.015585568436999783,-3.512617902828405e-05,-0.009910342073924836,0.01659598838507055
4.94949494949495,7.69620253164557,0.017393174097275234,0.01547374214888114,1.1301395348854278e-05,-0.009860074873846913,0.016517327062844093
5.05050505050505,7.69620253164557,0.017316121020177974,0.015574534289518046,2.2249102028486737e-05,-0.009867196592908807,0.01651439160242484
5.151515151515151,7.69620253164557,0.017336785620922997,0.01568141792625435,4.2045907511829094e-05,-0.009905461064153204,0.016571388795123314
5.252525252525253,7.69620253164557,0.01729329204500447,0.015501152848652526,4.746160882454596e-05,-0.009838333468097099,0.01647071595159235
5.353535353535354,7.69620253164557,0.01724645583878843,0.01573772738307039,9.09597218845804e-05,-0.009895254966557647,0.01654451881685062
5.454545454545454,7.69620253164557,0.017425311160189673,0.015565342002685627,9.259868223809808e-06,-0.009897195948862588,0.01657379468359349
5.555555555555555,7.69620253164557,0.017171301076026872,0.015409393242353747,-5.7556719835931424e-05,-0.009774208295514186,0.01636195551594319
5.656565656565657,7.69620253164557,0.017480244720905622,0.015609114775189429,-1.3634511797599345e-05,-0.009926807848828515,0.01662386330311058
5.757575757575758,7.69620253164557,0.017394386536853972,0.01553273474816363,1.2238312618885694e-05,-0.009878136385505281,0.016542327191033383
5.858585858585858,7.69620253164557,0.017341037301197987,0.015660978781470696,-2.239116378535754e-05,-0.009900604824800605,0.016565075247191266
5.959595959595959,7.69620253164557,0.017500283412925977,0.01553604313389553,2.929121622210114e-05,-0.009910897964046452,0.01660560061420313
6.0606060606060606,7.69620253164557,0.017321720776989246,0.015614502950310206,-2.8893383239141203e-05,-0.009880867118189834,0.01653442340595111
6.161616161616162,7.69620253164557,0.017611345848609114,0.015729469612362042,8.534006837924386e-05,-0.010002244638291347,0.016750535403647845
6.262626262626262,7.69620253164557,0.017520771767537493,0.0157104211584164,8.618721706284532e-06,-0.009969357877786167,0.016689406689979796
6.363636363636363,7.69620253164557,0.017664983930478214,0.015762753487723453,-1.5613038179982973e-05,-0.010028321225460499,0.016794880143036175
6.4646464646464645,7.69620253164557,0.017455064361146803,0.015755662951209535,-8.59423516574764e-06,-0.0099632181937069,0.016670461829254447
6.565656565656566,7.69620253164557,0.017670027551100517,0.015920120979791185,-2.1682787390253005e-05,-0.010077044559267511,0.016863349601069243
6.666666666666667,7.69620253164557,0.017621879481583187,0.015767114742012055,-1.9329963669719602e-05,-0.010016698267078574,0.016771626901933893
6.767676767676767,7.69620253164557,0.017820800556114784,0.015968489924670117,7.205951831267156e-06,-0.010136787144235469,0.01697063595103209
6.8686868686868685,7.69620253164557,0.017756073095577814,0.015881504635335685,2.862530507196396e-05,-0.01009127331927405,0.016897029984857818
6.96969696969697,7.69620253164557,0.017567102024108307,0.01590623879647749,-1.673691419670362e-05,-0.010042002246175739,0.016798387624749483
7.070707070707071,7.69620253164557,0.017747238944729,0.016175137184282422,-2.0171610987469474e-05,-0.010176712838703425,0.017015779417943213
7.171717171717171,7.69620253164557,0.017736711136268374,0.01582450399982123,-1.4700956075789982e-05,-0.010068364540826881,0.016862142236577195
7.2727272727272725,7.69620253164557,0.01779669682919584,0.01594290580593419,2.219888673040408e-05,-0.010121880790539009,0.01694606387142096
7.373737373737374,7.69620253164557,0.018002113661602696,0.016241671955452123,3.6480157516225726e-05,-0.010273135685116447,0.017189751947103413
7.474747474747475,7.69620253164557,0.018044923104748926,0.01616484190749296,-0.00011050051139857143,-0.010262929503672564,0.017183267024011087
7.575757575757575,7.69620253164557,0.01815294744701739,0.0164244650973511,4.33470642250413e-05,-0.010373223763310546,0.017353551218543845
7.6767676767676765,7.69620253164557,0.018089429107335773,0.016370589592206893,-0.00011385887962001006,-0.0103380056098628,0.017295314992381287
7.777777777777778,7.69620253164557,0.018120783561792874,0.01638123793425685,3.3900294642316415e-05,-0.010350606448814916,0.017316764529238988
7.878787878787879,7.69620253164557,0.018157231076817635,0.016541844293265225,2.689949296574672e-05,-0.010409722611024859,0.01740591090630407
7.979797979797979,7.69620253164557,0.01851145652744026,0.016495019250382496,-4.26591693628895e-06,-0.010501942733346828,0.017590136601493344
8.080808080808081,7.69620253164557,0.01845057561987578,0.0167009562690598,-5.459734213872008e-06,-0.010545459566680673,0.017640961251172486
8.181818181818182,7.69620253164557,0.01876493419752087,0.016817528036776632,-1.7577135506939103e-05,-0.010674738670289253,0.01787101353021306
8.282828282828282,7.69620253164557,0.018734453601911595,0.016650858156203645,-2.9302994436616012e-05,-0.010615593527434571,0.017784506614950898
8.383838383838384,7.69620253164557,0.018823123253058165,0.016929023943166616,-1.5005502439722712e-05,-0.010725644158867434,0.017951194721445143
8.484848484848484,7.69620253164557,0.01887384437541695,0.017057644982594412,1.834242617519349e-05,-0.01077944680740341,0.018034492684322497
8.585858585858587,7.69620253164557,0.01901214592885755,0.017027361049031773,8.615292410705604e-05,-0.010811852093366797,0.01810216315929449
8.686868686868687,7.69620253164557,0.018915946135005975,0.017211533518258642,-3.7269584094413375e-06,-0.010838243895979384,0.018123948382485943
8.787878787878787,7.69620253164557,0.01925760694734815,0.017254828524289237,1.4896895032479822e-05,-0.010953730641491218,0.01833844303175623
8.88888888888889,7.69620253164557,0.01928961849094297,0.017491871373129075,-1.7077007394614485e-05,-0.011034446959221615,0.018456551548229685
8.98989898989899,7.69620253164557,0.019511203590216818,0.01724164414389896,2.926499064197359e-05,-0.011025854320234731,0.018481306731967972
9.09090909090909,7.69620253164557,0.019798500111050863,0.017803562004932792,-7.825517037470778e-05,-0.011280618634795098,0.01888073022936549
9.191919191919192,7.69620253164557,0.019836796819894843,0.017942226923454412,8.351407203005159e-05,-0.011333707123004775,0.018961187433022005
9.292929292929292,7.69620253164557,0.01999474125221782,0.01801904812909622,-0.00013084578691987444,-0.011404136814394212,0.01908509706889521
9.393939393939394,7.69620253164557,0.020231924312457183,0.01821530897492919,7.63346259342846e-05,-0.011534169986215913,0.019303237315375164
9.494949494949495,7.69620253164557,0.020418466114259085,0.018432956100690574,-8.659639253724387e-06,-0.011655426664484898,0.019501670813281937
9.595959595959595,7.69620253164557,0.020484007984628433,0.018450546971252483,3.959059484517474e-05,-0.011680366486764274,0.01954688766577478
9.696969696969697,7.69620253164557,0.020947365229947622,0.018730580256600234,-2.939778738775166e-05,-0.011903383645964357,0.019931709257151525
9.797979797979798,7.69620253164557,0.021014627283670272,0.01887636253754108,-4.578217740762367e-05,-0.011967296946363405,0.02003142998753972
9.8989898989899,7.69620253164557,0.021237517723795802,0.0192431714977942,-1.176311573841218e-05,-0.012144206766477001,0.02031391217191531
10.0,7.69620253164557,0.02164811070949773,0.019362255700854827,-2.6627786100896723e-05,-0.012303109923105767,0.020600570750229825
0.0,7.7974683544303796,0.02149098151219403,0.019256634915452812,9.164929165845242e-05,-0.012224284928294053,0.020466105844723366
0.10101010101010101,7.7974683544303796,0.02137351610919145,0.019065437179903378,-6.0913320626979925e-06,-0.012131685986728449,0.020318040465316652
0.20202020202020202,7.7974683544303796,0.021048928920622087,0.018892967506915586,4.8595191726671355e-05,-0.011982568928261302,0.02005821488188959
0.30303030303030304,7.7974683544303796,0.020886766008881723,0.018577108526673092,4.7561887808660085e-05,-0.011839162360666445,0.01983323027151302
0.40404040404040403,7.7974683544303796,0.020612067051728477,0.01859210904978384,-1.5492676893728357e-07,-0.011761252830453695,0.01967999056831124
0.5050505050505051,7.7974683544303796,0.020423367989306142,0.01832583861778474,-4.83777503533611e-05,-0.011624761982127266,0.01945975324839033
0.6060606060606061,7.7974683544303796,0.020335554621455504,0.018135756504811574,-3.53960304518952e-05,-0.011541393337880122,0.019329861287549845
0.7070707070707071,7.7974683544303796,0.02002746414149733,0.017824835780082426,6.791053886814842e-05,-0.011355689976473926,0.019022399076774117
0.8080808080808081,7.7974683544303796,0.019873549090466416,0.01781465865992874,2.5198341151725862e-05,-0.011306462325118546,0.018928323435585797
0.9090909090909091,7.7974683544303796,0.019760753011086592,0.017697926233494733,-1.6364454665244555e-05,-0.011237603773374396,0.018814367031845608
1.0101010101010102,7.7974683544303796,0.01966660163515122,0.01763256191138343,5.4530757267694455e-05,-0.011189749063960393,0.018732827051105988
1.1111111111111112,7.7974683544303796,0.01943482481150174,0.017368269924248524,0.00010186967503915302,-0.011040928420725078,0.01848921481974701
1.2121212121212122,7.7974683544303796,0.019146540528582435,0.017122366204523648,6.208553122608703e-05,-0.010880672019931823,0.01821930086512334
1.3131313131313131,7.7974683544303796,0.019115305576514464,0.017105723747573826,-3.808808828572901e-05,-0.010866308797226486,0.018194062431928996
1.4141414141414141,7.7974683544303796,0.019043720348787832,0.01710930801710832,-4.768521612766861e-05,-0.010845908509768845,0.018154163432875382
1.5151515151515151,7.7974683544303796,0.019110377127920592,0.017209344782779426,-5.5462389006648676e-05,-0.010895916573210004,0.018234588592298522
1.6161616161616161,7.7974683544303796,0.01874171908112789,0.016861494329380007,-1.7993297557867464e-05,-0.01068096402315237,0.017875950503473303
1.7171717171717171,7.7974683544303796,0.01856920636371638,0.016830155175383946,-1.933252232531896e-06,-0.010619808461730097,0.01776364081018041
1.8181818181818181,7.7974683544303796,0.01862806576318746,0.01686641550674749,6.072205093089296e-06,-0.010648344380980486,0.01781269826528188
1.9191919191919191,7.7974683544303796,0.018489528938719274,0.016525427150428203,-3.2785973675111355e-05,-0.010504486826744245,0.017590005233584127
2.0202020202020203,7.7974683544303796,0.018368790806373988,0.016629893661430483,-7.740252232916647e-06,-0.01049960534034134,0.017564025188272415
2.121212121212121,7.7974683544303796,0.018446771276736842,0.016549463103308383,6.166855179832182e-05,-0.010498870314013567,0.017575418855757786
2.2222222222222223,7.7974683544303796,0.018147843467966468,0.016525716088775715,5.9749711646779625e-05,-0.010402067867022656,0.017393910316360797
2.323232323232323,7.7974683544303796,0.018123747448681667,0.016378167288058635,-8.904404000791987e-05,-0.01035057442102209,0.017317754017810095
2.4242424242424243,7.7974683544303796,0.018055335395880272,0.016375379662345337,-2.36120885459921e-05,-0.010329214517467681,0.017276773306880402
2.525252525252525,7.7974683544303796,0.01817928659374103,0.016081405246099283,-0.00012519325642850154,-0.010278207551952094,0.017227785725451725
2.6262626262626263,7.7974683544303796,0.018044333190378802,0.015973965910278082,8.476784031042966e-06,-0.010205489730197066,0.01710339730869059
2.727272727272727,7.7974683544303796,0.01803444556780888,0.016099364534778112,-2.9092461190188343e-05,-0.010240143030776099,0.017149058023607545
2.8282828282828283,7.7974683544303796,0.017918799440564428,0.016017546936371026,1.1965884720673483e-05,-0.010180903913080635,0.01704788554966723
2.929292929292929,7.7974683544303796,0.017775573690387445,0.01610115466725499,9.03795778486456e-05,-0.010163018507292731,0.01700104249031279
3.0303030303030303,7.7974683544303796,0.017857226960324286,0.01607058203253803,2.1240279410521457e-05,-0.010178342697858694,0.017034361869055555
3.131313131313131,7.7974683544303796,0.01781268261272436,0.016053904660389834,8.950516596432867e-05,-0.010159976181934259,0.017002365771276697
3.2323232323232323,7.7974683544303796,0.01753681042304415,0.01580349574521984,-6.470716409410721e-05,-0.010002091850479197,0.01673797627340061
3.3333333333333335,7.7974683544303796,0.017625914026267137,0.016004430891188096,-5.595717160277861e-05,-0.01008910347523657,0.016873983646428083
3.4343434343434343,7.7974683544303796,0.017564829191420363,0.01567650893072717,4.056211460692991e-05,-0.009972401436644261,0.01670107454472218
3.5353535353535355,7.7974683544303796,0.01755365814170003,0.01578587454954216,-9.61055544971075e-06,-0.010001859807372658,0.01673992775454711
3.6363636363636362,7.7974683544303796,0.017596422718768493,0.015505025652593539,2.143538366910161e-05,-0.009930434511408608,0.016649573741204595
3.7373737373737375,7.7974683544303796,0.017552772180428187,0.01577878259590694,1.453115843631559e-05,-0.009999466432900539,0.01673645866663991
3.8383838383838382,7.7974683544303796,0.017530433972232192,0.015674405252741594,-1.6697429437669652e-05,-0.009961451767492137,0.01668007210287831
3.9393939393939394,7.7974683544303796,0.017392908334777784,0.015587620398190815,6.579302266008332e-06,-0.009894158619890578,0.01656421586247555
4.040404040404041,7.7974683544303796,0.0176066199445578,0.015870738477220148,9.29200283031711e-06,-0.010043207526533383,0.01680605855340512
4.141414141414141,7.7974683544303796,0.01754967548074496,0.015707582013204397,1.844612248694938e-05,-0.009977177248184805,0.01670500811255067
4.242424242424242,7.7974683544303796,0.017444611956997064,0.015886862454607627,0.0001274970008969575,-0.009999442323481407,0.016721707469715037
4.343434343434343,7.7974683544303796,0.017125740260686508,0.015544446751014658,-9.348949861643938e-05,-0.009801056103510349,0.016393195770707258
4.444444444444445,7.7974683544303796,0.01732530574232045,0.015548139530657708,6.188091834850793e-05,-0.009862033581893446,0.016508969640196998
4.545454545454545,7.7974683544303796,0.017459106750038613,0.015631635006031798,-1.306844111027192e-05,-0.009927222526821123,0.016620907002193114
4.646464646464646,7.7974683544303796,0.01726079742906386,0.015751863624999567,-6.559221933119182e-05,-0.009903798316219027,0.01655836693047099
4.747474747474747,7.7974683544303796,0.0171276705068051,0.015790153602522932,-0.00012819446444101894,-0.009875347232798409,0.016501115146778256
4.848484848484849,7.7974683544303796,0.017366047178555156,0.01555510330164078,7.2807601121229595e-06,-0.00987634514405878,0.016535124267973617
4.94949494949495,7.7974683544303796,0.017408763856494026,0.01563793982620347,-0.00011689174173910413,-0.009914011104809247,0.016595602140945485
5.05050505050505,7.7974683544303796,0.017286539823086613,0.015516912626289629,1.1010890850772434e-05,-0.009841035734812872,0.016473180390577484
5.151515151515151,7.7974683544303796,0.017398458655258207,0.015562028131379123,-5.5651432620918486e-05,-0.009888146035991198,0.016557085231122596
5.252525252525253,7.7974683544303796,0.017378416602217582,0.01566596434244457,-3.0916415601808036e-06,-0.009913314283398646,0.016588615862549585
5.353535353535354,7.7974683544303796,0.017401616123419766,0.015478888599219564,4.329150861070389e-05,-0.009864151416791799,0.01652453270193345
5.454545454545454,7.7974683544303796,0.017318448321955025,0.015557868579006767,-6.797496719208554e-06,-0.009862895070288537,0.016508722622736786
5.555555555555555,7.7974683544303796,0.017200015974537762,0.015657658571520894,6.916161367006e-05,-0.009857302363817598,0.016483482456661723
5.656565656565657,7.7974683544303796,0.017392915924981697,0.015630602955973686,4.8086605232603814e-05,-0.009907055664286613,0.016582353483012083
5.757575757575758,7.7974683544303796,0.017394095453100365,0.015840711344752283,-1.2601060195078573e-05,-0.009970442039355794,0.016671782259970094
5.858585858585858,7.7974683544303796,0.017432677237342473,0.01568203719059007,4.06065748351115e-06,-0.009934414328379762,0.01662662571923926
5.959595959595959,7.7974683544303796,0.0173959803662602,0.015664320073675006,-5.922277709242719e-05,-0.009918090131980561,0.016598354551983815
6.0606060606060606,7.7974683544303796,0.01747311997483822,0.015612016497868706,2.0374760050940918e-05,-0.009925540941812076,0.016620938266564345
6.161616161616162,7.7974683544303796,0.017368931404450304,0.015684691733394825,4.569391476379043e-05,-0.009916086941353538,0.0165912405168625
6.262626262626262,7.7974683544303796,0.01751134083442515,0.01579316680519181,-8.813492401800764e-06,-0.009991352291885087,0.016718608847877268
6.363636363636363,7.7974683544303796,0.01762065393594043,0.015684286979151925,2.477328763275807e-05,-0.009991482274527706,0.016736748526230995
6.4646464646464645,7.7974683544303796,0.017465167049537045,0.015859054784024544,-2.235953710738062e-06,-0.009997266550068476,0.016720067364058226
6.565656565656566,7.7974683544303796,0.017558669989789534,0.015873793802755574,-0.000129462224355488,-0.010029739137763533,0.01678129303828494
6.666666666666667,7.7974683544303796,0.01768369409425093,0.015717245306607695,4.834784525859676e-05,-0.010020281820257588,0.016787283621336673
6.767676767676767,7.7974683544303796,0.017519382152669315,0.015993904037358536,3.539482792376416e-05,-0.010053985857008355,0.016808752446431836
6.8686868686868685,7.7974683544303796,0.017898509191308982,0.015811684445991906,-9.137528918414696e-06,-0.010113058091190267,0.016951715765303386
6.96969696969697,7.7974683544303796,0.017463223224262116,0.015891804706642865,3.1722163355040776e-05,-0.010006508379271493,0.016733036427168387
7.070707070707071,7.7974683544303796,0.017722978269039256,0.016085836450325488,-9.749918058293041e-05,-0.010142644415809423,0.01696460083390301
7.171717171717171,7.7974683544303796,0.017691891375591417,0.016092474493626864,4.27110011073136e-05,-0.010135309760765482,0.016949038844633106
7.2727272727272725,7.7974683544303796,0.017992758221873174,0.01613827186192279,-7.655043725830694e-06,-0.010239309025138789,0.017140925272247153
7.373737373737374,7.7974683544303796,0.0179800870394511,0.01622713986735664,3.7884916498931806e-05,-0.010262168072042322,0.017170978912259712
7.474747474747475,7.7974683544303796,0.017778089810707835,0.016271909622385138,-2.9179450166057293e-05,-0.010214999829927893,0.017074970094823467
7.575757575757575,7.7974683544303796,0.018071452565252673,0.016399022653204816,-9.791383095090785e-05,-0.010341142565537247,0.017296818873986097
7.6767676767676765,7.7974683544303796,0.018283712841992896,0.016224978848838785,4.327060259704903e-05,-0.010352607507249503,0.0173463787814429
7.777777777777778,7.7974683544303796,0.01822932207458507,0.01657545534745925,-7.6032959451953755e-06,-0.010441433226613298,0.017461235999870102
7.878787878787879,7.7974683544303796,0.018325859243433558,0.016314466163856754,4.6625693454302697e-05,-0.010392097622187093,0.017407723416260897
7.979797979797979,7.7974683544303796,0.01838325430209218,0.016765042260853454,3.7124638079850254e-05,-0.010544488968883688,0.017630053323607935
8.080808080808081,7.7974683544303796,0.01837068503218548,0.01670166363374203,-1.1740069783613361e-05,-0.010521704599778253,0.017595654237486
8.181818181818182,7.7974683544303796,0.018571171354647215,0.01684799062942049,-6.0377789809674735e-05,-0.010625748595220311,0.01777265340923404
8.282828282828282,7.7974683544303796,0.018683906955495825,0.016799515693326234,4.92922021705554e-06,-0.010645026794646618,0.017816609987090032
8.383838383838384,7.7974683544303796,0.01881718651281899,0.016836846870970503,-9.887132823961062e-05,-0.010696210015136846,0.017910141249430307
8.484848484848484,7.7974683544303796,0.01901067933040842,0.01687341583842526,7.153688629314503e-06,-0.010765228550650102,0.018037271037296194
8.585858585858587,7.7974683544303796,0.01906781693114336,0.017092990178657258,-9.370750951370606e-06,-0.010848242132940184,0.018161118128235468
8.686868686868687,7.7974683544303796,0.018959499197632693,0.01726225866599006,4.33548478814452e-06,-0.010866527359086825,0.018170428204604926
8.787878787878787,7.7974683544303796,0.01908758340994763,0.017477571609800388,-4.359970750834277e-05,-0.010969546505924405,0.018335824134886748
8.88888888888889,7.7974683544303796,0.019515373755009665,0.017484740408564743,3.201329885214114e-05,-0.011100034249072322,0.018583535466214864
8.98989898989899,7.7974683544303796,0.019590262730152273,0.01750018377765378,-8.098601732509182e-06,-0.011127133952341816,0.018633352484722483
9.09090909090909,7.7974683544303796,0.01975218587728284,0.017913141004935164,-6.430832324531185e-05,-0.0112995980646654,0.018900216493450032
9.191919191919192,7.7974683544303796,0.019947005890378507,0.01776202949619592,-3.86827833973916e-05,-0.011312710615972327,0.01894935138473151
9.292929292929292,7.7974683544303796,0.02001574280880368,0.01809316516544404,5.446879069557894e-05,-0.011432672392274317,0.019127293219140015
9.393939393939394,7.7974683544303796,0.02026110433257331,0.0182893182161052,-8.149927620292221e-05,-0.01156512676460355,0.019351218344933797
9.494949494949495,7.7974683544303796,0.020400115277415327,0.018238568204011065,-2.0371324309561938e-05,-0.011591605044427918,0.019409853801096298
9.595959595959595,7.7974683544303796,0.020631258606494538,0.018486869887475655,-4.291795253560242e-06,-0.011735438548191058,0.019647031625920026
9.696969696969697,7.7974683544303796,0.02086170177101616,0.0187095440280166,2.214586006924697e-06,-0.011871373739709827,0.019873216283432967
9.797979797979798,7.7974683544303796,0.020967934036531247,0.018934679980927495,-8.241692091384041e-07,-0.011970784205237624,0.02002886030045919
9.8989898989899,7.7974683544303796,0.021189556612212227,0.01919006723904069,6.878218088341018e-06,-0.012113887155375876,0.020263936336183303
10.0,7.7974683544303796,0.0214171468559909,0.019391850317537502,-3.0033494341774037e-05,-0.01224269915205852,0.02047981050110359
0.0,7.898734177215189,0.021615138043283324,0.019192107437848483,2.776950909953156e-05,-0.012242173644339542,0.020511300357666268
0.10101010101010101,7.898734177215189,0.021164506388436827,0.01906413933288855,-7.860843077359768e-05,-0.012068593716397614,0.020196860605677512
0.20202020202020202,7.898734177215189,0.02103858678187559,0.01892826545457939,-1.0672555383581727e-05,-0.011990055670936493,0.020066832166819523
0.30303030303030304,7.898734177215189,0.02093705830756591,0.018552564085550317,7.935534210837329e-05,-0.011846886717934869,0.019852980142029294
0.40404040404040403,7.898734177215189,0.020532694072637494,0.0185781501491667,-5.831711465666742e-05,-0.011733253266541257,0.019628803276173685
0.5050505050505051,7.898734177215189,0.02038490837910067,0.01821446483866783,-8.020646705447205e-05,-0.01157981196533055,0.019391501264855004
0.6060606060606061,7.898734177215189,0.020155037306162162,0.018026431760718938,-5.2396488731499957e-05,-0.011454440720064329,0.01917974458585052
0.7070707070707071,7.898734177215189,0.020114734119538038,0.018002386661848772,4.174294211836123e-05,-0.011435136234416042,0.019146291035651325
0.8080808080808081,7.898734177215189,0.01965548359271705,0.01802128898937831,6.615866787028809e-06,-0.011303031774628606,0.018891476209153147
0.9090909090909091,7.898734177215189,0.019621598716424632,0.017723036711311813,-2.8544988219817754e-05,-0.011203390628320932,0.018744633806029337
1.0101010101010102,7.898734177215189,0.019660809103333357,0.017461120257754016,3.3293429525433715e-05,-0.011136578808326211,0.0186585559058777
1.1111111111111112,7.898734177215189,0.019594597382156423,0.01759837929215709,-5.0071903890910656e-05,-0.011157893002294052,0.018676872464570064
1.2121212121212122,7.898734177215189,0.019261485612249017,0.01737207207986501,-3.5655834877399436e-06,-0.010990067307634209,0.018389720989122844
1.3131313131313131,7.898734177215189,0.019202587926529385,0.017251774277821985,-4.1383636833020766e-05,-0.010936308661305412,0.01830545066822148
1.4141414141414141,7.898734177215189,0.019095625674871677,0.01710647416101553,3.942870181405412e-05,-0.010860629950766162,0.018182964961971235
1.5151515151515151,7.898734177215189,0.018842055046405966,0.016927102590254966,1.309410133993769e-05,-0.010730747290998278,0.017961318327381584
1.6161616161616161,7.898734177215189,0.018692481964950852,0.016795673077543226,-0.00013453131543624748,-0.010646446512748223,0.01782147569846658
1.7171717171717171,7.898734177215189,0.018635626526975604,0.016781559004679553,-3.7886593199753617e-05,-0.010625155659496547,0.01778135930435799
1.8181818181818181,7.898734177215189,0.018438109872672998,0.016929554509495813,2.283635497191369e-05,-0.010610299314650642,0.017732069532984195
1.9191919191919191,7.898734177215189,0.018446285685180894,0.01665312605974942,-5.305911673735949e-05,-0.010529823523479094,0.01761851832877422
2.0202020202020203,7.898734177215189,0.018351208889224896,0.016566020365309127,5.864164937345037e-05,-0.010475168776360207,0.01752722781223505
2.121212121212121,7.898734177215189,0.018334291486244526,0.016624194393449167,-0.00011632129645464211,-0.010487545763908106,0.017543028522245038
2.2222222222222223,7.898734177215189,0.01822790903206021,0.016589218780373127,3.864028488385979e-05,-0.010445138343729999,0.017466440845158127
2.323232323232323,7.898734177215189,0.018125045584749987,0.016374175170221817,2.82259705975733e-05,-0.01034976622649154,0.017316194983242435
2.4242424242424243,7.898734177215189,0.018123296836244793,0.01624316870336609,1.3615656984290276e-05,-0.010309939661883264,0.017260220332507126
2.525252525252525,7.898734177215189,0.018034393134074074,0.016409542797353707,-3.0407733685872858e-05,-0.010333180779428333,0.01727944034005252
2.6262626262626263,7.898734177215189,0.01805599292622753,0.016227890771082786,4.5882520996425525e-08,-0.010285165109193094,0.017214895830826984
2.727272727272727,7.898734177215189,0.017809159258563887,0.01607356313601036,5.857931166917459e-05,-0.010164816718372273,0.017008210789194723
2.8282828282828283,7.898734177215189,0.01796966595740973,0.016046319126408377,-3.358005424544805e-05,-0.010204795525145431,0.01708945992242018
2.929292929292929,7.898734177215189,0.01769318008121321,0.015973902498470815,5.290620875741006e-05,-0.010100124773905208,0.016899510232917445
3.0303030303030303,7.898734177215189,0.01783899434503502,0.01610773145696394,-1.1965608693231406e-05,-0.010184017740599688,0.01703946686628161
3.131313131313131,7.898734177215189,0.0178712783809414,0.01584029663948839,-5.510429293964815e-05,-0.010113472506128937,0.016947576439255384
3.2323232323232323,7.898734177215189,0.017434564492990193,0.015884926034227753,-5.794538087504853e-05,-0.009995847158165382,0.016714012676927483
3.3333333333333335,7.898734177215189,0.017459289510207164,0.01586949010922165,-2.16951903428709e-05,-0.009998633885828645,0.016721210972160352
3.4343434343434343,7.898734177215189,0.017585090703756696,0.01574971325085937,2.224550113344645e-05,-0.010000441186384818,0.016743065163108178
3.5353535353535355,7.898734177215189,0.017626184483736283,0.01553143661243798,-1.4724277063359868e-05,-0.009947286328852278,0.016677787205909598
3.6363636363636362,7.898734177215189,0.017460528448828092,0.015693011918504633,-9.210262535118153e-06,-0.009946062110199818,0.016647301589825993
3.7373737373737375,7.898734177215189,0.01756151909179495,0.015772615766871983,1.1411126918435437e-05,-0.010000240457600078,0.01673892644899432
3.8383838383838382,7.898734177215189,0.01744238630740046,0.01579655278287766,-3.392381441410391e-05,-0.009971681727083436,0.016680581417630208
3.9393939393939394,7.898734177215189,0.017491113004906415,0.0156711215063354,6.787220498514505e-05,-0.009948670353372543,0.016656276478986265
4.040404040404041,7.898734177215189,0.017333610932822683,0.015706958620138076,2.5329278215906955e-05,-0.009912170865888227,0.016580296502861032
4.141414141414141,7.898734177215189,0.017345656935837877,0.01575845668828856,3.3419761918023024e-05,-0.009931234087237931,0.016609134198404017
4.242424242424242,7.898734177215189,0.017254727820564066,0.01577048928539718,-1.6112275682813997e-05,-0.009907565131788374,0.016562585639392405
4.343434343434343,7.898734177215189,0.01735800490890219,0.015632186369455726,2.7402296615029224e-06,-0.009897057383507374,0.016562670071445587
4.444444444444445,7.898734177215189,0.017292333624826964,0.015583878947415818,7.576475345180381e-05,-0.009862863771672834,0.016505080193867476
4.545454545454545,7.898734177215189,0.017399685108810802,0.015724206447310315,-4.2492006771326425e-05,-0.009937167466836335,0.016625549200739023
4.646464646464646,7.898734177215189,0.017370641549273667,0.015575984694896985,1.8395369585838133e-05,-0.009883987873251194,0.016546499790162757
4.747474747474747,7.898734177215189,0.017395437619311418,0.01566334677384421,7.827488957997453e-06,-0.009917635317946687,0.016597321899021876
4.848484848484849,7.898734177215189,0.01729406008123465,0.015557746523460944,-2.7224511567073024e-05,-0.009855541981408679,0.016494654024815193
4.94949494949495,7.898734177215189,0.017231554940076707,0.01565199340401043,1.7197222176822064e-05,-0.00986506450322614,0.01649860861231928
5.05050505050505,7.898734177215189,0.01720887912316358,0.015648920352574692,4.7350259194988097e-05,-0.009857339842721483,0.016484555688963745
5.151515151515151,7.898734177215189,0.017344411451381856,0.015403030183474579,-4.261067000168127e-05,-0.009824232490456929,0.016459978776876116
5.252525252525253,7.898734177215189,0.017328780797376996,0.015766669248834228,-3.9002743758285724e-05,-0.009928635013863369,0.01660306933822616
5.353535353535354,7.898734177215189,0.0173210099241892,0.015544731151384706,-4.442819262927938e-05,-0.009859722322672172,0.016504894135183183
5.454545454545454,7.898734177215189,0.017116626051924655,0.015643497242031467,2.4556590705720696e-05,-0.009828036988186838,0.016429723369708507
5.555555555555555,7.898734177215189,0.017433805721803777,0.015524433938073966,-9.502600225897617e-06,-0.009887471897963322,0.016561882040519893
5.656565656565657,7.898734177215189,0.01744979661074642,0.01566308649227475,-1.7836249582915846e-06,-0.00993386493090635,0.016628590324442024
5.757575757575758,7.898734177215189,0.017301089937286792,0.015572467378293564,-5.109943356344806e-05,-0.009862067194674107,0.0165050485629432
5.858585858585858,7.898734177215189,0.017539114142976583,0.015457143691004628,9.917416725359088e-05,-0.009898877350194363,0.01659725022496667
5.959595959595959,7.898734177215189,0.01728207958818103,0.01586636275876249,3.2662799768420225e-05,-0.009944532704083055,0.016619602843884383
6.0606060606060606,7.898734177215189,0.01734185180205297,0.01546525891419492,4.005613835588448e-06,-0.009842133214874368,0.01648386717890959
6.161616161616162,7.898734177215189,0.01737284960089359,0.015618031878978828,2.081131077177396e-06,-0.009897264443961726,0.016565298582456235
6.262626262626262,7.898734177215189,0.017445328532832642,0.01583015046779954,2.874005673532772e-05,-0.009982643700189656,0.016696510227867525
6.363636363636363,7.898734177215189,0.017463852719986,0.015929998161283303,4.126632775738216e-06,-0.01001815526438079,0.01674968365709772
6.4646464646464645,7.898734177215189,0.017642146634304273,0.015848923018747338,-3.687081709218193e-07,-0.010047320895915483,0.01681739204620529
6.565656565656566,7.898734177215189,0.017675614552059023,0.015840996498239487,-5.813713361847344e-05,-0.010054983315089553,0.0168337551189779
6.666666666666667,7.898734177215189,0.01768764521074548,0.01578939676535671,1.565296956324953e-05,-0.010043112592830654,0.016819076380232983
6.767676767676767,7.898734177215189,0.01759629964408721,0.015960553093451773,8.160424607104608e-05,-0.010067055821261696,0.0168387148932033
6.8686868686868685,7.898734177215189,0.017726321295719345,0.01594330695394877,-1.9545835276584888e-05,-0.010100888474900434,0.01690551589996478
6.96969696969697,7.898734177215189,0.017803677425126323,0.0158566400049725,1.2732966122350958e-05,-0.010098095229029647,0.016914430075992568
7.070707070707071,7.898734177215189,0.0178348204987354,0.016183592879673102,1.1859539461905044e-05,-0.01020552401352255,0.01706922519124887
7.171717171717171,7.898734177215189,0.017866080152083307,0.01611613543553656,9.678377369154503e-05,-0.010194664676285959,0.01705938378842114
7.2727272727272725,7.898734177215189,0.01787726081034351,0.016110664255731894,4.969680484789433e-05,-0.01019637751982262,0.017062907707410237
7.373737373737374,7.898734177215189,0.01783073481207253,0.016109002672088903,3.079792938065679e-05,-0.01018192124524843,0.017035332747915438
7.474747474747475,7.898734177215189,0.017867044327812723,0.016142184466936438,-2.0416851485299172e-05,-0.010202768638424746,0.01707013525141553
7.575757575757575,7.898734177215189,0.018110954299671394,0.016405626283205178,0.00010588144286734325,-0.01035497417486297,0.01732233599016577
7.6767676767676765,7.898734177215189,0.018375158100920656,0.01627146683159378,-7.514791007875889e-07,-0.01039398747975433,0.017418848820034773
7.777777777777778,7.898734177215189,0.01839962522061591,0.01646433650655228,-0.0001402164925552342,-0.010459188518150456,0.017514049949335024
7.878787878787879,7.898734177215189,0.018352903859985528,0.016438217849576397,-4.75933610029479e-05,-0.010437336512868578,0.017474605853216398
7.979797979797979,7.898734177215189,0.01848136719577204,0.01657701457405419,-6.314988047429237e-05,-0.01051751453094787,0.017606942266697404
8.080808080808081,7.898734177215189,0.01867546872245843,0.01676186803316108,-4.574977098200544e-05,-0.010631201026685853,0.017796176243957282
8.181818181818182,7.898734177215189,0.01864434261552534,0.01683911473553719,-2.2574024350638372e-05,-0.010645037205318758,0.01781051938967276
8.282828282828282,7.898734177215189,0.018725431283013592,0.016923771363518133,1.7105737512388003e-05,-0.010694760793959516,0.01789278552940475
8.383838383838384,7.898734177215189,0.018773412436620545,0.0169285416576063,-8.89427027142235e-05,-0.010710586228268053,0.017922995706441323
8.484848484848484,7.898734177215189,0.018849801001083154,0.01709776952101146,-3.194357970279402e-05,-0.010784271156628384,0.018037799991059488
8.585858585858587,7.898734177215189,0.018966598783174745,0.01699339772733912,6.748821912201302e-05,-0.010787998953154158,0.01806139925485471
8.686868686868687,7.898734177215189,0.01911703872288991,0.01710190925988395,-5.497809657885807e-05,-0.010865684394832159,0.018193616355264175
8.787878787878787,7.898734177215189,0.019305853461813464,0.017250609091518244,-4.1789177421827985e-05,-0.010966938765999513,0.018364830510395606
8.88888888888889,7.898734177215189,0.01953989745761413,0.0174725206323617,-3.3035167083157976e-05,-0.011103725426992749,0.018592702396014904
8.98989898989899,7.898734177215189,0.0195749043837227,0.017601584359204225,4.829732872959826e-07,-0.011152946622878076,0.018666636640070084
9.09090909090909,7.898734177215189,0.019747352621609093,0.017932873642962633,-0.00010263000419929138,-0.011304067879371516,0.0189063669715675
9.191919191919192,7.898734177215189,0.019833363509932575,0.01788770369770893,4.125042975220514e-05,-0.011316320162292452,0.01893578693092507
9.292929292929292,7.898734177215189,0.019982574064011743,0.0180117781605188,4.647076317812062e-05,-0.011398305667359162,0.019073861858727816
9.393939393939394,7.898734177215189,0.02031270997363021,0.018190119819591413,-9.651560023116412e-05,-0.011550848937966486,0.019339699145183967
9.494949494949495,7.898734177215189,0.020284227404851498,0.018248493040483017,2.1000015564524664e-05,-0.011559816133600354,0.019346889156482996
9.595959595959595,7.898734177215189,0.02054433113035063,0.01859533151858383,4.203292199963413e-05,-0.011741898794680336,0.019642620700474123
9.696969696969697,7.898734177215189,0.020687251256194795,0.01857616262449332,-2.9786177073011902e-05,-0.011779024164206434,0.019716721341256543
9.797979797979798,7.898734177215189,0.021229152695361044,0.018967840411707453,2.7532585218599932e-05,-0.012059097932120547,0.020193736350049896
9.8989898989899,7.898734177215189,0.02129277776152499,0.019215564039686422,4.615291861104264e-05,-0.012152502540363423,0.02033405866474467
10.0,7.898734177215189,0.021329819496513993,0.01934200515152564,-2.7471783005161477e-05,-0.012201547394411889,0.020408702764982675
0.0,8.0,0.02129384269120735,0.019179734270860185,-8.928847453420939e-05,-0.01214207308862026,0.020320029924458576
0.10101010101010101,8.0,0.021207013317277496,0.019034333745792196,-5.320594340962555e-05,-0.012072404118920908,0.020208671365780365
0.20202020202020202,8.0,0.021043519863761156,0.018978436400825686,1.7592317393408936e-05,-0.012006586879376053,0.0200907591086471
0.30303030303030304,8.0,0.02074099920581216,0.01870171411471715,2.948569267395613e-05,-0.011832813996158792,0.019800341651134565
0.40404040404040403,8.0,0.02055216460547512,0.018612941843606283,3.2354073297660373e-06,-0.01174953193472442,0.019654436163005638
0.5050505050505051,8.0,0.020421820555488513,0.01834180720003977,-3.59186307117777e-06,-0.011629088326658486,0.019465343294323513
0.6060606060606061,8.0,0.020196588212799977,0.01818800350142411,3.974122409616425e-06,-0.011515377514267225,0.01927096461142894
0.7070707070707071,8.0,0.020186748980116506,0.01781639784877977,4.534654631113568e-05,-0.011400944048668881,0.01911229668346589
0.8080808080808081,8.0,0.01986944971563626,0.017751908721404523,2.267526661940691e-05,-0.011286407531112236,0.018899898943166675
0.9090909090909091,8.0,0.01985888788921216,0.01763523661483252,-2.939804341454961e-05,-0.011248237351213405,0.018845779489281105
1.0101010101010102,8.0,0.019639271042723196,0.017451920893108624,-1.1148356741608133e-05,-0.011127357580749547,0.018642099618082646
1.1111111111111112,8.0,0.01922384714055556,0.0173530735996493,6.82611370732959e-05,-0.010973076222061456,0.018360463139265492
1.2121212121212122,8.0,0.01913717657138506,0.01724807523905796,-4.491044671000769e-05,-0.010915575543132905,0.018266204204893197
1.3131313131313131,8.0,0.01918115863295144,0.017068850442508457,-4.622859636731795e-05,-0.01087500272263797,0.018217260638214983
1.4141414141414141,8.0,0.01902922333587402,0.017006602191217465,4.3510864054611775e-06,-0.010810747658127446,0.018102858458589135
1.5151515151515151,8.0,0.0188504896431979,0.016872742802132207,3.600127148848748e-05,-0.010716969733599032,0.01794365721601722
1.6161616161616161,8.0,0.01899956244325167,0.01671489551395844,-7.897098304003811e-05,-0.010714337387163032,0.01796702850435134
1.7171717171717171,8.0,0.018820204184804856,0.016972542766622314,-1.905588310672786e-05,-0.010737824085428152,0.01796779514852749
1.8181818181818181,8.0,0.01867543874490108,0.01671958010896078,-4.546091546656634e-05,-0.010618505656158557,0.017778556669585163
1.9191919191919191,8.0,0.01856489892455642,0.016622052501888508,5.8724191426829014e-05,-0.010556085427933478,0.017674040919673124
2.0202020202020203,8.0,0.018524619729876707,0.016643523741076836,-2.7832171510604645e-06,-0.010550443041286061,0.017659374100646816
2.121212121212121,8.0,0.018387621306646586,0.01652124520410963,1.4622298305634006e-05,-0.010472659953226863,0.017529130084472624
2.2222222222222223,8.0,0.018290398979867367,0.016515913877013476,6.664954258125601e-05,-0.010441893857064252,0.017471255770336997
2.323232323232323,8.0,0.018064016476836718,0.016281230542426285,4.37136101740825e-05,-0.0103035741057789,0.017242055420066387
2.4242424242424243,8.0,0.018044201374645952,0.01636762774439331,-4.733399648584048e-05,-0.010323548735711778,0.01726726358472597
2.525252525252525,8.0,0.017818250095776613,0.016046357879903342,2.3081903551338013e-05,-0.010159382392703987,0.017001741621902752
2.6262626262626263,8.0,0.01787500395067856,0.015882861171520983,1.209927871984597e-05,-0.010127359536659861,0.016966887699846517
2.727272727272727,8.0,0.017927810736944567,0.01611394256418503,-7.24257005432959e-05,-0.01021252599033888,0.017093670369793378
2.8282828282828283,8.0,0.017945940511528913,0.01595415168138991,5.1581484834307684e-05,-0.010170027657875648,0.017037824440894207
2.929292929292929,8.0,0.017597788723493917,0.016121729379047486,2.4658750323944642e-05,-0.01011585543076242,0.01690820400929835
3.0303030303030303,8.0,0.017780790418944023,0.015963960322151763,-2.9022537631588397e-06,-0.010123425222328735,0.016945581418598758
3.131313131313131,8.0,0.01775584176121543,0.016033735131870588,7.046028177677558e-05,-0.010136873067925805,0.016960925948765075
3.2323232323232323,8.0,0.017584666223081944,0.015950671929205542,-6.642035824790228e-06,-0.010060601445686245,0.016827278794008922
3.3333333333333335,8.0,0.017506330861755317,0.0158900156601895,2.9601784835662426e-05,-0.010018903956583444,0.016756818766506962
3.4343434343434343,8.0,0.01772549613922057,0.015733538218956337,-6.808542905989435e-05,-0.01003771030745307,0.01681863770313886
3.5353535353535355,8.0,0.017566298937961487,0.015914192931811108,-1.758317119411731e-05,-0.010044147560931778,0.016801305072995775
3.6363636363636362,8.0,0.017376676585470922,0.015679165062467144,-8.687481760066185e-05,-0.00991675249438142,0.01659385330455939
3.7373737373737375,8.0,0.017376954307289284,0.015612989640190712,-5.704452390491578e-05,-0.009896983184243998,0.016565854676341626
3.8383838383838382,8.0,0.0176600575780246,0.015787476357760316,-0.0001128016145821094,-0.010034260180735475,0.016803347122790527
3.9393939393939394,8.0,0.017645883560053824,0.01567401627780324,-6.006142856231994e-05,-0.009995969951357118,0.016747565460714504
4.040404040404041,8.0,0.017216806007313932,0.01565745038101869,3.878256589055254e-05,-0.009862276916499785,0.016492646482922386
4.141414141414141,8.0,0.017254070781888547,0.015646168283989938,5.772004522706688e-06,-0.009870071719763543,0.016508953492821984
4.242424242424242,8.0,0.017231965964078003,0.015544059879543281,-1.8812328899390963e-05,-0.009832807753086386,0.016453109111935208
4.343434343434343,8.0,0.01735542614670594,0.015410708686285425,-3.8417174579984385e-06,-0.009829840449897409,0.016469407601685918
4.444444444444445,8.0,0.017473220663651146,0.015522306319554155,-0.00011420732643580932,-0.00989865809496159,0.01658523078671487
4.545454545454545,8.0,0.01734068984450565,0.01567178322524751,-4.0162767841660574e-05,-0.009903741920925949,0.01656953893947895
4.646464646464646,8.0,0.01731377515046872,0.01561913065602486,6.089576877626113e-05,-0.009879871741948073,0.01653206160981506
4.747474747474747,8.0,0.017218941994125825,0.015604540343646084,-2.03253449701516e-05,-0.009847044701331572,0.01647122360573902
4.848484848484849,8.0,0.01740136518614942,0.015552615517157017,-9.984476542298777e-07,-0.00988619421099193,0.0165545951488738
4.94949494949495,8.0,0.017201768530533235,0.01563137815043608,-6.174102298709055e-06,-0.009849944004290795,0.016472813635246268
5.05050505050505,8.0,0.017179238615788114,0.01563721276625454,1.0286986568680668e-05,-0.009844935414612796,0.016462489805137093
5.151515151515151,8.0,0.017300073538220738,0.01569992530989798,-2.12330407277056e-05,-0.009899999654435615,0.01655813060959685
5.252525252525253,8.0,0.017192399471320986,0.015602731340553781,-3.4072983331886624e-06,-0.00983853924356243,0.01645525659616169
5.353535353535354,8.0,0.017202046787959745,0.01564278307296137,-2.287471575805853e-05,-0.009853448958276336,0.01647788698243072
5.454545454545454,8.0,0.0173850465394923,0.015516059992611868,0.00014362273118445986,-0.009870331959631249,0.016531860701695697
5.555555555555555,8.0,0.017395022104315403,0.01570883168958257,-8.56055269043656e-05,-0.009931156138169393,0.016616879896861076
5.656565656565657,8.0,0.017329469081807256,0.01555969853640525,-4.9207113210044825e-05,-0.009866750285463752,0.016516072974899945
5.757575757575758,8.0,0.017565797820911028,0.015748489762815284,6.692570742523485e-05,-0.009994286275117894,0.016731731317686856
5.858585858585858,8.0,0.017390057689754226,0.015690231758152352,-6.884956110597907e-05,-0.009924086834371973,0.016605952680404185
5.959595959595959,8.0,0.01739492019926467,0.015673881694417992,-0.00010796361711228014,-0.009920640568104799,0.016602495693423355
6.0606060606060606,8.0,0.017364249002492536,0.015808612556216545,9.95738339507735e-06,-0.009951858467612722,0.016641063277672747
6.161616161616162,8.0,0.017165524822215564,0.01558071991331347,1.3144425417169813e-06,-0.00982387342065871,0.016430546132205355
6.262626262626262,8.0,0.017459427897745843,0.015810634350152352,-1.8728614418097283e-05,-0.009981018674369457,0.016696233194936176
6.363636363636363,8.0,0.017363955990656314,0.01584745927418318,9.327509511954385e-05,-0.009963424579451848,0.016658344708338147
6.4646464646464645,8.0,0.017394847007801518,0.015761912291256865,-1.3308749665468917e-05,-0.009947027789717514,0.01663860150414539
6.565656565656566,8.0,0.017462076079654186,0.015848121938616285,3.24933189385524e-05,-0.00999305940548114,0.016713740647397116
6.666666666666667,8.0,0.01771173459571343,0.016003958469839173,-0.00011748956190027268,-0.01011470791966578,0.01692382272378744
6.767676767676767,8.0,0.017442143894700703,0.015858481260678955,-1.7498949735382848e-06,-0.009990187546613896,0.016706702506029455
6.8686868686868685,8.0,0.01766909099596721,0.01585056039367162,-8.851999057247686e-06,-0.01005589541689165,0.016833665155218135
6.96969696969697,8.0,0.01771681190805358,0.015961143717497118,1.3109685866964163e-06,-0.010103386687665208,0.01690748227949848
7.070707070707071,8.0,0.017660253899026812,0.01596516128474668,-4.936961811682471e-05,-0.010087624555132046,0.016876891090366896
7.171717171717171,8.0,0.0178241568173238,0.01605709512671588,-9.708976630434128e-05,-0.010164375583211904,0.017010437027185597
7.2727272727272725,8.0,0.017937163725675945,0.016156857896163425,5.193902134915514e-06,-0.010228206486551811,0.017116593561582807
7.373737373737374,8.0,0.01799175909778516,0.016275077414933163,-5.3142081973230064e-05,-0.010280050953815496,0.017198044667640286
7.474747474747475,8.0,0.01813457403769971,0.01628258555678528,8.332684008031215e-05,-0.010325147878345497,0.017283762458590306
7.575757575757575,8.0,0.018236354684564453,0.016446714527477688,1.0747466705038816e-05,-0.010404920763612643,0.01741066563732821
7.6767676767676765,8.0,0.01814541741962766,0.016474339389546528,4.859937076864999e-05,-0.010385927042752256,0.017370473580621593
7.777777777777778,8.0,0.01819492090266805,0.016380973968835748,-7.59237458110855e-05,-0.010372768461451139,0.017359672300937146
7.878787878787879,8.0,0.01825389226973119,0.016514722428262022,-2.6638778102489875e-05,-0.010430584409397961,0.017449492963435374
7.979797979797979,8.0,0.018563210487883845,0.01659774173526853,7.4357946578526196e-06,-0.010548285666945711,0.017662689680395735
8.080808080808081,8.0,0.018392263934392587,0.016703953084206576,2.312820699688626e-05,-0.010528865105579748,0.01760896113179795
8.181818181818182,8.0,0.018640951751763207,0.016533834730591182,6.391989346903602e-05,-0.010552435944706317,0.017682155266930365
8.282828282828282,8.0,0.018752290992457496,0.01676807443188882,-2.5510573624504702e-05,-0.010656109627303895,0.017843174573413233
8.383838383838384,8.0,0.018623508260747376,0.016791560447593955,2.8874624597766608e-06,-0.0106245206125024,0.017778465133667782
8.484848484848484,8.0,0.01871879914543317,0.016830997301706487,-7.842188584261118e-05,-0.010664938934141896,0.01785044267478223
8.585858585858587,8.0,0.018977780995923368,0.01706144538102801,3.0795832613716734e-05,-0.010811767913085414,0.018095954278619666
8.686868686868687,8.0,0.019143134137200007,0.017380085956878802,-5.134651733339101e-05,-0.010956966028223642,0.018325544059297604
8.787878787878787,8.0,0.01934398224418497,0.017371516716991744,-3.4773622437227656e-05,-0.011014649688353013,0.018437151591242845
8.88888888888889,8.0,0.019423436877950073,0.01745163050318292,7.379611570756557e-05,-0.0110625202143399,0.018516884226984155
8.98989898989899,8.0,0.019567050917250705,0.017478723062482583,1.041899715552502e-05,-0.011113732193919985,0.018610978024478628
9.09090909090909,8.0,0.01969477403488644,0.01768983200911399,-3.962157612703301e-05,-0.011215381813200129,0.018772899250493892
9.191919191919192,8.0,0.019677146426875035,0.017674417533367966,-4.781885649117083e-05,-0.0112054691880729,0.01875632919213686
9.292929292929292,8.0,0.02005829174421677,0.018004433239790483,3.098168901060838e-05,-0.011418817495202177,0.01911437649949267
9.393939393939394,8.0,0.020212372823853252,0.01813704208336164,-6.4382098342205e-05,-0.011504824472164468,0.019259078102469285
9.494949494949495,8.0,0.020581035631571848,0.018387496393195587,4.138374259231882e-05,-0.01169055960743023,0.019576783971748432
9.595959595959595,8.0,0.020726560984834462,0.018482784127632785,-5.1109783656760734e-05,-0.011762803533740174,0.019700937125065432
9.696969696969697,8.0,0.020786211306082172,0.018686972652395967,-4.071602740063063e-05,-0.011841955187543442,0.019820270899598563
9.797979797979798,8.0,0.021001219368568656,0.018877040378188697,-4.3483190758920294e-05,-0.011963477924027204,0.020023952525874515
9.8989898989899,8.0,0.02129348769062907,0.01894920941333742,8.005066991299722e-06,-0.012072809131189948,0.020223515774333775
10.0,8.0,0.021462424065241202,0.019371277674559546,-7.362568262236003e-05,-0.012250110521940223,0.020497407923628346
