node_id,x,y,z,time,von_mises_stress,principal_stress_1,principal_stress_2,principal_stress_3,shear_stress,elastic_strain,plastic_strain,creep_strain,thermal_strain,total_strain,damage,temperature,voltage,delamination_risk,crack_risk
0,0.0,0.0,0.0,0,361056.4812724552,449574.22408818244,336482.72390743083,45509.385156636505,-3708.316478803274,2.4070432084830345e-06,0.0,0.0,0.0,2.4070432084830345e-06,0.0,23.258144799748315,-0.04994345830742686,-0.00012366997369946966,0.0
1,0.0,0.0,0.35714285714285715,0,495441.6103774505,705861.7282671804,270213.3986041795,166914.0841636413,24559.41765563968,3.302944069183003e-06,0.0,0.0,0.0,3.302944069183003e-06,0.0,23.27100988859461,0.2538682532192236,0.000819941520654539,0.0
2,0.0,0.0,0.7142857142857143,0,168640.79752471662,299808.6718644343,318246.6717320204,141144.53175601037,-80942.27243083811,1.1242719834981107e-06,0.0,0.0,0.0,1.1242719834981107e-06,0.0,23.743273773995202,0.558350230835231,-0.00271210381794382,0.0
3,0.0,0.0,1.0714285714285714,0,254971.74861970305,561752.429958137,366941.16238999227,273174.0467677787,-44317.76575447719,1.699811657464687e-06,0.0,0.0,0.0,1.699811657464687e-06,0.0,23.270897223370376,0.8645196308085966,-0.0015025179448081233,0.0
4,0.0,0.0,1.4285714285714286,0,266175.16574428737,520120.6759722158,229475.4684202921,288234.5616717654,-11627.861696686181,1.7745011049619157e-06,0.0,0.0,0.0,1.7745011049619157e-06,0.0,23.123104264182786,1.1735787365558568,-0.0004093903900943482,0.0
5,0.0,0.0,1.7857142857142858,0,537050.4780757077,890878.8994381317,539193.5079205286,272700.07012682594,3722.694682044239,3.580336520504718e-06,0.0,0.0,0.0,3.580336520504718e-06,0.0,24.220062746734072,1.485441662109685,0.0001470371272633463,0.0
6,0.0,0.0,2.142857142857143,0,952331.6936012862,1244319.4302496326,1072676.9574350324,217838.95650818452,432000.5494118725,6.348877957341908e-06,0.0,0.0,0.0,6.348877957341908e-06,0.0,21.94413060105352,1.797210453199281,0.023157430672279048,0.0
7,0.0,0.0,2.5,0,519045.142307933,1148079.1745811263,1415711.7133854118,817473.784407252,730021.1355010361,3.4603009487195534e-06,0.0,0.0,0.0,3.4603009487195534e-06,0.0,24.113193391111437,2.104289321881345,0.07300211355010361,0.0
8,0.0,0.0,2.857142857142857,0,654653.270998057,1195768.1546814514,770649.2164183152,441889.6285456307,379206.28654709744,4.364355139987047e-06,0.0,0.0,0.0,4.364355139987047e-06,0.0,23.88854116998058,2.404353310342138,0.0203273891738376,0.0
9,0.0,0.0,3.2142857142857144,0,460019.67633674183,484973.66938778316,546648.0774863375,58902.454652474575,149498.39338214757,3.0667978422449454e-06,0.0,0.0,0.0,3.0667978422449454e-06,0.0,22.94808551518334,2.6997273763953995,0.005904812554041039,0.0
10,0.0,0.0,3.5714285714285716,0,559267.2805049731,603738.3838601579,615384.3770105469,50385.04941258447,11287.761589669204,3.7284485366998208e-06,0.0,0.0,0.0,3.7284485366998208e-06,0.0,22.67352235075213,2.9950073079844284,0.00039741624393448377,0.0
11,0.0,0.0,3.928571428571429,0,240446.69671944974,491233.9904145689,429740.3267068352,226012.1898409149,-49942.52391499548,1.602977978129665e-06,0.0,0.0,0.0,1.602977978129665e-06,0.0,22.7026316533152,3.2930910593800258,-0.001693215736709577,0.0
12,0.0,0.0,4.285714285714286,0,383964.7375787333,507449.97303642187,259429.3367310936,65173.66128888651,-27141.64961692417,2.5597649171915554e-06,0.0,0.0,0.0,2.5597649171915554e-06,0.0,22.892248454277638,3.594064516549517,-0.0009094255614611146,0.0
13,0.0,0.0,4.642857142857143,0,252819.8760396433,543464.0092456128,258451.3409057363,346242.74215020804,33785.151754854945,1.6854658402642886e-06,0.0,0.0,0.0,1.6854658402642886e-06,0.0,23.639426430532097,3.896725396076367,0.001127952180863655,0.0
14,0.0,0.0,5.0,0,352411.4891184358,481425.20724459994,399710.7306602627,95334.83627237659,8956.029260350075,2.3494099274562386e-06,0.0,0.0,0.0,2.3494099274562386e-06,0.0,21.8125956573443,4.2000565416925735,0.0002986778257492763,0.0
15,0.3448275862068966,0.0,0.0,0,265536.40798568056,465831.78364425583,225217.1472927824,180940.0447415744,54108.12604691561,1.770242719904537e-06,0.0,0.0,0.0,1.770242719904537e-06,0.0,24.052984644678993,-0.049938835309792644,0.0018044712643590496,0.0
16,0.3448275862068966,0.0,0.35714285714285715,0,201956.6683487099,372780.8396625531,415208.78963070584,195408.8189504683,38308.98222763396,1.3463777889913994e-06,0.0,0.0,0.0,1.3463777889913994e-06,0.0,23.052385686745676,0.25389252238383625,0.0012789849329037668,0.0
17,0.3448275862068966,0.0,0.7142857142857143,0,255847.75657489727,389301.15132786805,348128.3219457465,115363.84728586987,-17655.975324070685,1.7056517104993151e-06,0.0,0.0,0.0,1.7056517104993151e-06,0.0,23.64598399935852,0.5584489488868041,-0.000591592460254308,0.0
18,0.3448275862068966,0.0,1.0714285714285714,0,529690.1744010748,578709.9002439919,375819.3821624884,-22433.526805714337,67438.79974194264,3.5312678293404984e-06,0.0,0.0,0.0,3.5312678293404984e-06,0.0,22.44752107755087,0.8648307658413091,0.002286397002726917,0.0
19,0.3448275862068966,0.0,1.4285714285714286,0,416258.6898282655,699654.4620550612,352555.53401021543,238158.7400779058,89328.21529715815,2.7750579321884367e-06,0.0,0.0,0.0,2.7750579321884367e-06,0.0,23.42887727180962,1.1743385585211081,0.0031450419570571257,0.0
20,0.3448275862068966,0.0,1.7857142857142858,0,474490.54356961005,741504.2352868636,446933.3098137463,194140.96344760383,-56996.28058507109,3.1632702904640668e-06,0.0,0.0,0.0,3.1632702904640668e-06,0.0,23.265158951331525,1.4868794186960859,-0.0022512105014538767,0.0
21,0.3448275862068966,0.0,2.142857142857143,0,666374.39121551,1164158.416779807,1144776.570167506,488304.53496855893,438738.33026145125,4.442495941436733e-06,0.0,0.0,0.0,4.442495941436733e-06,0.0,23.35853506846607,1.799318447725221,0.023518610057632953,0.0
22,0.3448275862068966,0.0,2.5,0,526364.0389658308,1111721.1158287316,883120.9540961358,509706.3888236326,708524.5686044809,3.5090935931055386e-06,0.0,0.0,0.0,3.5090935931055386e-06,0.0,22.73536061014958,2.1066840939442795,0.07085245686044808,0.0
23,0.3448275862068966,0.0,2.857142857142857,0,823391.7698870385,1424110.7657075508,712675.1828550494,522161.7363369648,405025.2091301153,5.48927846591359e-06,0.0,0.0,0.0,5.48927846591359e-06,0.0,22.894667693415464,2.406461304868078,0.021711414982515758,0.0
24,0.3448275862068966,0.0,3.2142857142857144,0,339154.2048662978,882198.2352273209,532528.6977683991,554641.5440098345,18469.233189382503,2.2610280324419853e-06,0.0,0.0,0.0,2.2610280324419853e-06,0.0,22.47319975274997,2.7011651329818003,0.0007294885084243345,0.0
25,0.3448275862068966,0.0,3.5714285714285716,0,519488.29056866374,754537.0844426289,401445.7374818543,158035.50903440604,-44336.011056143565,3.4632552704577583e-06,0.0,0.0,0.0,3.4632552704577583e-06,0.0,23.47751219451364,2.9957671299496798,-0.0015609694486368652,0.0
26,0.3448275862068966,0.0,3.928571428571429,0,212497.92467900895,385543.48736149725,230967.71274798937,143224.95011400874,42447.823508188994,1.416652831193393e-06,0.0,0.0,0.0,1.416652831193393e-06,0.0,23.771475938381517,3.2934021944127383,0.0014391207556003398,0.0
27,0.3448275862068966,0.0,4.285714285714286,0,339689.47551798634,419645.4031695501,266489.6776665509,30343.3287123975,-53019.67875665793,2.2645965034532423e-06,0.0,0.0,0.0,2.2645965034532423e-06,0.0,23.24609224652413,3.5941632346010897,-0.0017765114428304899,0.0
28,0.3448275862068966,0.0,4.642857142857143,0,274677.76828749443,473468.11334751575,260830.35873894792,163343.53107482736,4224.551544905329,1.8311851219166295e-06,0.0,0.0,0.0,1.8311851219166295e-06,0.0,21.76999161627296,3.8967496652409794,0.00014104101597122893,0.0
29,0.3448275862068966,0.0,5.0,0,255250.60693301386,510930.1875316866,393188.5229003227,218060.3217841366,-61039.24031052442,1.701670712886759e-06,0.0,0.0,0.0,1.701670712886759e-06,0.0,23.792761141514674,4.200061164690208,-0.002035619475033113,0.0
30,0.6896551724137931,0.0,0.0,0,262940.0092223491,436741.67996430356,238624.537981744,138435.4063781236,57939.37242626692,1.7529333948156605e-06,0.0,0.0,0.0,1.7529333948156605e-06,0.0,23.173439713511353,-0.049934392449232125,0.001932240871316509,0.0
31,0.6896551724137931,0.0,0.35714285714285715,0,194284.28275919645,376814.6871164692,159255.1714056027,220629.49318039938,1371.1631421731201,1.2952285517279763e-06,0.0,0.0,0.0,1.2952285517279763e-06,0.0,21.791410646469572,0.25391584589010324,4.5777697485457776e-05,0.0
32,0.6896551724137931,0.0,0.7142857142857143,0,385724.90661091876,538709.7147923268,140407.04487137808,166931.78590616304,34139.052038951195,2.5714993774061252e-06,0.0,0.0,0.0,2.5714993774061252e-06,0.0,22.271705633766427,0.5585438203474118,0.0011438850256512815,0.0
33,0.6896551724137931,0.0,1.0714285714285714,0,425362.24699359696,539885.8077269364,191528.9345438042,65842.97203638569,9508.16349967062,2.8357483132906463e-06,0.0,0.0,0.0,2.8357483132906463e-06,0.0,22.601244119542056,0.8651297773648284,0.0003223579988118299,0.0
34,0.6896551724137931,0.0,1.4285714285714286,0,248193.7829454079,447838.87280460296,533137.1013810099,253542.18518011685,-6993.528709659739,1.6546252196360526e-06,0.0,0.0,0.0,1.6546252196360526e-06,0.0,23.13260767420744,1.1750687736995553,-0.0002462261352316887,0.0
35,0.6896551724137931,0.0,1.7857142857142858,0,626716.2012642028,998390.3950442177,552368.5769471998,281849.75004952925,88108.13775088247,4.1781080084280186e-06,0.0,0.0,0.0,4.1781080084280186e-06,0.0,22.626797379863568,1.4882611524841511,0.0034800510302120443,0.0
36,0.6896551724137931,0.0,2.142857142857143,0,816523.0677640657,1436097.7884075257,931280.3744661966,494066.3917528335,614330.2330297888,5.443487118427104e-06,0.0,0.0,0.0,5.443487118427104e-06,0.0,22.69730753940055,1.8013443033457748,0.03293123076033151,0.0
37,0.6896551724137931,0.0,2.5,0,901693.5339025643,1406054.8441574923,1105413.979333593,392448.5194247262,667190.2714060603,6.011290226017095e-06,0.0,0.0,0.0,6.011290226017095e-06,0.0,23.603981308173108,2.108985552692839,0.06671902714060603,0.0
38,0.6896551724137931,0.0,2.857142857142857,0,757093.6083461696,1182263.262491857,827692.6078185552,312951.58454994706,142239.07009724318,5.047290722307797e-06,0.0,0.0,0.0,5.047290722307797e-06,0.0,23.745444285804304,2.4084871604886318,0.00762473892487097,0.0
39,0.6896551724137931,0.0,3.2142857142857144,0,467022.45287031546,872499.0698111972,538075.0895522657,338912.377285624,20932.722074644575,3.1134830191354366e-06,0.0,0.0,0.0,3.1134830191354366e-06,0.0,23.631228150795273,2.702546866769866,0.0008267901567387245,0.0
40,0.6896551724137931,0.0,3.5714285714285716,0,284684.13675217103,453823.36571683653,498372.2325833443,194039.99201826955,-59404.46414835721,1.8978942450144735e-06,0.0,0.0,0.0,1.8978942450144735e-06,0.0,22.343222150713977,2.9964973451281267,-0.002091495185049588,0.0
41,0.6896551724137931,0.0,3.928571428571429,0,127074.65909863733,474668.4767850186,344061.3312620439,351448.5925146801,45976.66165073709,8.471643939909156e-07,0.0,0.0,0.0,8.471643939909156e-07,0.0,23.63745712583415,3.293701205936258,0.0015587599689775673,0.0
42,0.6896551724137931,0.0,4.285714285714286,0,190184.5702639655,260828.49062531948,448734.65965668805,256350.7644339122,-8041.60086089672,1.2678971350931034e-06,0.0,0.0,0.0,1.2678971350931034e-06,0.0,22.93124079614152,3.5942581060616976,-0.0002694470483992622,0.0
43,0.6896551724137931,0.0,4.642857142857143,0,263550.6578375525,536543.2320717877,376247.78455633257,232368.77692699633,37774.8087532217,1.7570043855836832e-06,0.0,0.0,0.0,1.7570043855836832e-06,0.0,24.156702701808676,3.8967729887472466,0.0012611509998258653,0.0
44,0.6896551724137931,0.0,5.0,0,129802.84795693333,313886.8943104989,263104.3167899906,166370.1507792965,1455.6247728107455,8.653523197128888e-07,0.0,0.0,0.0,8.653523197128888e-07,0.0,23.31029958472121,4.200065607550768,4.8544151611325106e-05,0.0
45,1.0344827586206897,0.0,0.0,0,520124.2342467755,597674.4949302007,275968.09878106334,-2391.5957811225894,398.67117163278346,3.467494894978503e-06,0.0,0.0,0.0,3.467494894978503e-06,0.0,23.78487153284452,-0.04993014921654327,1.3295427613145375e-05,0.0
46,1.0344827586206897,0.0,0.35714285714285715,0,277207.5051481676,429254.25095934334,254850.77597525186,109605.59082564074,7534.950300194825,1.8480500343211173e-06,0.0,0.0,0.0,1.8480500343211173e-06,0.0,23.45948272241696,0.2539381214179671,0.0002515620970263271,0.0
47,1.0344827586206897,0.0,0.7142857142857143,0,313597.46177243633,441547.5866310467,435020.27449805645,124737.42097250787,68245.33698451948,2.0906497451495757e-06,0.0,0.0,0.0,2.0906497451495757e-06,0.0,23.40256241743433,0.5586344290166255,0.002286672136005675,0.0
48,1.0344827586206897,0.0,1.0714285714285714,0,217847.99548526242,415380.31072810886,294030.7998733592,163882.41388850473,9164.819861243855,1.4523199699017495e-06,0.0,0.0,0.0,1.4523199699017495e-06,0.0,23.006833104998254,0.8654153536177088,0.000310717520796085,0.0
49,1.0344827586206897,0.0,1.4285714285714286,0,271767.5808846974,520219.39119144686,298259.4294248398,217124.99244903182,68167.28054272057,1.8117838725646492e-06,0.0,0.0,0.0,1.8117838725646492e-06,0.0,23.799343277355344,1.1757661786423577,0.0024000138891408095,0.0
50,1.0344827586206897,0.0,1.7857142857142858,0,527665.715893636,1015102.4602555959,604104.8767502289,420063.1090047966,165943.2546440857,3.5177714392909065e-06,0.0,0.0,0.0,3.5177714392909065e-06,0.0,23.665846182311316,1.4895808018174934,0.006554343435491645,0.0
51,1.0344827586206897,0.0,2.142857142857143,0,241618.52656034622,588650.0858513546,797342.8776364264,532637.5051635093,422745.8739606403,1.6107901770689747e-06,0.0,0.0,0.0,1.6107901770689747e-06,0.0,23.039548826198484,1.8032791326466158,0.02266133291164397,0.0
52,1.0344827586206897,0.0,2.5,0,786753.7590739051,1730576.0296802812,1046172.6179654094,871000.7112934634,785210.1917400223,5.2450250604927e-06,0.0,0.0,0.0,5.2450250604927e-06,0.0,22.989639783990025,2.1111836016437184,0.07852101917400223,0.0
53,1.0344827586206897,0.0,2.857142857142857,0,861372.7720582796,1250791.6598793683,1262927.0558961462,395550.7015014408,397614.03665316786,5.742485147055197e-06,0.0,0.0,0.0,5.742485147055197e-06,0.0,22.858329062826176,2.410421989789473,0.02131413837472241,0.0
54,1.0344827586206897,0.0,3.2142857142857144,0,304029.81407562416,599866.4569686779,697935.2115756021,356974.4439367615,184764.37832791344,2.0268654271708276e-06,0.0,0.0,0.0,2.0268654271708276e-06,0.0,23.628064092162816,2.703866516103208,0.007297730738158779,0.0
55,1.0344827586206897,0.0,3.5714285714285716,0,157245.21872736196,433301.2397332704,389396.09945636074,258769.79554744108,-45009.62656120935,1.0483014581824132e-06,0.0,0.0,0.0,1.0483014581824132e-06,0.0,23.34219543587085,2.9971947500709293,-0.0015846859084285285,0.0
56,1.0344827586206897,0.0,3.928571428571429,0,428438.7067480309,634280.2909557595,198706.96931945378,213351.71779807535,-34038.91046835572,2.8562580449868725e-06,0.0,0.0,0.0,2.8562580449868725e-06,0.0,23.37258919623095,3.293986782189138,-0.001154030960941544,0.0
57,1.0344827586206897,0.0,4.285714285714286,0,87194.72269317387,373877.8496436938,276643.10610008606,302633.65415431705,-12730.237988713723,5.812981512878258e-07,0.0,0.0,0.0,5.812981512878258e-07,0.0,23.053242596047305,3.5943487147309114,-0.0004265475383338758,0.0
58,1.0344827586206897,0.0,4.642857142857143,0,116284.62775318847,353583.1067398352,387078.356804827,257722.2693060921,-52768.88490951419,7.752308516879231e-07,0.0,0.0,0.0,7.752308516879231e-07,0.0,23.96712586932666,3.8967952642751102,-0.0017617437165093263,0.0
59,1.0344827586206897,0.0,5.0,0,445492.5132254406,564028.8442245171,214034.98575449316,62547.91290844143,-27170.459346185475,2.9699500881696037e-06,0.0,0.0,0.0,2.9699500881696037e-06,0.0,22.498508937045155,4.200069850783457,-0.0009061173748119905,0.0
60,1.3793103448275863,0.0,0.0,0,333109.88158962963,492120.50796058937,519998.06538434204,173825.44649852873,52362.64275218347,2.2207325439308644e-06,0.0,0.0,0.0,2.2207325439308644e-06,0.0,23.62727442344607,-0.0499261269373935,0.0017462605171409346,0.0
61,1.3793103448275863,0.0,0.35714285714285715,0,171823.50177706845,374525.80946398654,324031.41121978866,183112.87207914735,30030.064564778568,1.145490011847123e-06,0.0,0.0,0.0,1.145490011847123e-06,0.0,23.731902765414105,0.25395923701492984,0.0010025847171886938,0.0
62,1.3793103448275863,0.0,0.7142857142857143,0,135294.59058009772,482511.6096008311,328250.6521956785,383996.6971771919,-19451.72030674974,9.019639372006515e-07,0.0,0.0,0.0,9.019639372006515e-07,0.0,23.086962269350945,0.5587203195127853,-0.000651761846130381,0.0
63,1.3793103448275863,0.0,1.0714285714285714,0,190147.85018443142,378720.8314934513,270000.934270442,159160.4201385733,38557.648506569334,1.267652334562876e-06,0.0,0.0,0.0,1.267652334562876e-06,0.0,22.525482786054482,0.8656860593488953,0.0013072310348784188,0.0
64,1.3793103448275863,0.0,1.4285714285714286,0,489915.800362489,675613.2082775009,442604.14166479727,112681.10794372452,122236.74127543594,3.266105335749927e-06,0.0,0.0,0.0,3.266105335749927e-06,0.0,23.446401440075004,1.1764272683270574,0.004303675817616084,0.0
65,1.3793103448275863,0.0,1.7857142857142858,0,582532.8464074448,961545.9894824869,371523.0404745423,386803.91801683785,108385.74442257776,3.883552309382966e-06,0.0,0.0,0.0,3.883552309382966e-06,0.0,23.858124614371558,1.4908317343936055,0.004280965767368216,0.0
66,1.3793103448275863,0.0,2.142857142857143,0,729449.0339934262,1300205.9154797199,1331438.6481481986,586874.9033966367,610142.9923898941,4.862993559956175e-06,0.0,0.0,0.0,4.862993559956175e-06,0.0,24.150603191400716,1.8051132115496138,0.03270677332628768,0.0
67,1.3793103448275863,0.0,2.5,0,884448.8853175627,1482740.974995557,1332214.7910436078,532688.6331438611,915583.8970501632,5.896325902117085e-06,0.0,0.0,0.0,5.896325902117085e-06,0.0,23.597904219878572,2.113267193827696,0.09155838970501633,0.0
68,1.3793103448275863,0.0,2.857142857142857,0,1015193.0871183645,1589104.6538407444,1053959.1886306098,418298.00777156965,408625.8230943802,6.76795391412243e-06,0.0,0.0,0.0,6.76795391412243e-06,0.0,22.967219696718807,2.412256068692471,0.021904426237637123,0.0
69,1.3793103448275863,0.0,3.2142857142857144,0,408511.5531618439,793125.5758194946,334651.93613238056,467799.5768206351,99199.66969011136,2.7234103544122926e-06,0.0,0.0,0.0,2.7234103544122926e-06,0.0,23.625472062246697,2.70511744867932,0.003918138795281811,0.0
70,1.3793103448275863,0.0,3.5714285714285716,0,289831.00912907504,422824.4203966948,410342.47426014795,126954.09001417874,36100.70032222486,1.932206727527167e-06,0.0,0.0,0.0,1.932206727527167e-06,0.0,23.533819357594552,2.997855839755629,0.0012710230112047806,0.0
71,1.3793103448275863,0.0,3.928571428571429,0,331604.7396487884,519300.66933029244,448746.3849793642,158096.73617664407,-35190.101339923574,2.210698264325256e-06,0.0,0.0,0.0,2.210698264325256e-06,0.0,23.44921701725668,3.2942574879203246,-0.0011930601157958871,0.0
72,1.3793103448275863,0.0,4.285714285714286,0,449572.846150023,655423.7622408684,378591.6917205209,136693.7152167376,-120664.74068639067,2.99715230766682e-06,0.0,0.0,0.0,2.99715230766682e-06,0.0,22.850705880135653,3.5944346052270713,-0.004043070376932986,0.0
73,1.3793103448275863,0.0,4.642857142857143,0,119539.93205266209,367441.67416080117,230307.10716079533,285259.0223056727,-38451.08509108978,7.969328803510805e-07,0.0,0.0,0.0,7.969328803510805e-07,0.0,23.596991889048024,3.896816379872073,-0.0012837291837481904,0.0
74,1.3793103448275863,0.0,5.0,0,196140.33413740792,427591.4002067117,262711.13938151934,210682.29430833136,-99471.28387328905,1.3076022275827194e-06,0.0,0.0,0.0,1.3076022275827194e-06,0.0,23.537445542046946,4.200073873062607,-0.0033173034531378616,0.0
75,1.7241379310344829,0.0,0.0,0,357289.7258309133,498369.99957626854,280453.9314016408,86030.37638405789,-34570.808857552554,2.3819315055394218e-06,0.0,0.0,0.0,2.3819315055394218e-06,0.0,24.505956661523268,-0.04992234871934774,-0.0011529142797333841,0.0
76,1.7241379310344829,0.0,0.35714285714285715,0,311792.5105936555,455182.85711445974,266566.9385761989,95295.16195086975,-78566.91709735674,2.0786167372910366e-06,0.0,0.0,0.0,2.0786167372910366e-06,0.0,23.340611073259648,0.25397907137413783,-0.0026230376624240795,0.0
77,1.7241379310344829,0.0,0.7142857142857143,0,100669.0334595545,370923.90590365685,464269.5945261306,357603.4913487675,40633.377035726386,6.711268897303633e-07,0.0,0.0,0.0,6.711268897303633e-07,0.0,24.149279605277812,0.5588009984041468,0.0013614880542019293,0.0
78,1.7241379310344829,0.0,1.0714285714285714,0,381258.3572506327,582287.0094104343,150187.01166954386,293263.52948219015,-55937.20806775108,2.5417223816708847e-06,0.0,0.0,0.0,2.5417223816708847e-06,0.0,24.001982188650594,0.8659403393828203,-0.001896455235805089,0.0
79,1.7241379310344829,0.0,1.4285714285714286,0,440728.7240770961,809119.8815391258,459374.0567388902,314090.44218269666,37018.5715489936,2.9381914938473074e-06,0.0,0.0,0.0,2.9381914938473074e-06,0.0,23.336035042447854,1.1770482448638897,0.001303339155770752,0.0
80,1.7241379310344829,0.0,1.7857142857142858,0,489394.8193625389,822751.8771112423,349565.16337078565,318617.7949793775,144086.33311034,3.2626321290835927e-06,0.0,0.0,0.0,3.2626321290835927e-06,0.0,23.934396652670483,1.4920067637381913,0.005691049712091915,0.0
81,1.7241379310344829,0.0,2.142857142857143,0,319527.4262828853,960885.7262866171,595578.095754535,823070.8165964441,524686.0121404032,2.130182841885902e-06,0.0,0.0,0.0,2.130182841885902e-06,0.0,22.928840532950552,1.8068360034669901,0.028125843745795076,0.0
82,1.7241379310344829,0.0,2.5,0,639121.879319931,952588.677573685,411357.5436017618,247486.72260757035,538487.1430392171,4.26081252879954e-06,0.0,0.0,0.0,4.26081252879954e-06,0.0,23.229181497921456,2.1152243592297943,0.05384871430392171,0.0
83,1.7241379310344829,0.0,2.857142857142857,0,565871.813063989,1233495.6798358487,692277.5272455474,645832.8347563132,574084.1999470824,3.772478753759927e-06,0.0,0.0,0.0,3.772478753759927e-06,0.0,23.062114036893483,2.413978860609847,0.030773838316697246,0.0
84,1.7241379310344829,0.0,3.2142857142857144,0,650943.0963978858,966483.7353467592,793395.7992623668,246491.00099855685,116672.75542959725,4.339620642652572e-06,0.0,0.0,0.0,4.339620642652572e-06,0.0,23.25597167689964,2.706292478023906,0.004608281971393511,0.0
85,1.7241379310344829,0.0,3.5714285714285716,0,356883.62293429166,605197.0537713547,416144.4260707963,193558.3808299464,51396.820028967384,2.379224152895278e-06,0.0,0.0,0.0,2.379224152895278e-06,0.0,22.337329586265597,2.9984768162924613,0.001809564367906486,0.0
86,1.7241379310344829,0.0,3.928571428571429,0,238826.548104018,475351.6644870754,218922.78504603988,259266.33982312502,87330.1123780331,1.5921769873601201e-06,0.0,0.0,0.0,1.5921769873601201e-06,0.0,24.24389773240438,3.2945117679542495,0.002960777889775474,0.0
87,1.7241379310344829,0.0,4.285714285714286,0,240880.90975641637,407209.60867221054,417034.51030820975,171391.4711430684,36673.82211521338,1.6058727317094424e-06,0.0,0.0,0.0,1.6058727317094424e-06,0.0,23.19668972041845,3.5945152841184327,0.0012288166614329982,0.0
88,1.7241379310344829,0.0,4.642857142857143,0,261830.69366931217,359633.2194372771,435415.92444619717,144052.58460684164,-54418.95025649473,1.7455379577954145e-06,0.0,0.0,0.0,1.7455379577954145e-06,0.0,23.74715281981323,3.896836214231281,-0.001816832852121298,0.0
89,1.7241379310344829,0.0,5.0,0,345075.09853422904,536858.4853560943,331610.1795519556,138461.32261065542,30054.473766068626,2.3005006568948603e-06,0.0,0.0,0.0,2.3005006568948603e-06,0.0,23.481076099889325,4.200077651280653,0.0010022974040771685,0.0
90,2.0689655172413794,0.0,0.0,0,522243.2965340584,539931.8732033353,505326.83234929136,1246.6438806519843,-68640.68611575369,3.4816219768937226e-06,0.0,0.0,0.0,3.4816219768937226e-06,0.0,23.208251678834905,-0.04991883929012872,-0.002289122812243971,0.0
91,2.0689655172413794,0.0,0.35714285714285715,0,123504.45328137989,315439.942159329,394640.21438075334,252332.54378317035,-2874.9142351999526,8.233630218758659e-07,0.0,0.0,0.0,8.233630218758659e-07,0.0,22.710227850385074,0.25399749468346045,-9.598198063218012e-05,0.0
92,2.0689655172413794,0.0,0.7142857142857143,0,445449.42706425296,603697.6083488188,383174.3573048338,91002.98979119699,-23044.09372352851,2.96966284709502e-06,0.0,0.0,0.0,2.96966284709502e-06,0.0,22.896506999025778,0.5588759376626208,-0.0007721302193737995,0.0
93,2.0689655172413794,0.0,1.0714285714285714,0,236643.54601180227,526093.9645008984,254513.46609756612,364165.7633081481,781.4651151387843,1.5776236400786819e-06,0.0,0.0,0.0,1.5776236400786819e-06,0.0,23.240434385461114,0.8661765295047404,2.6494236312419473e-05,0.0
94,2.0689655172413794,0.0,1.4285714285714286,0,445295.48535505845,701921.8927569323,452702.3222301959,187818.49582907365,-75891.46587321078,2.968636569033723e-06,0.0,0.0,0.0,2.968636569033723e-06,0.0,23.12568421022631,1.1776250440788345,-0.002671964771263154,0.0
95,2.0689655172413794,0.0,1.7857142857142858,0,59912.40503552187,574717.2493304603,583974.4836675605,519972.269787497,-26789.54371306408,3.994160335701458e-07,0.0,0.0,0.0,3.994160335701458e-07,0.0,22.88084728520982,1.4930981995063628,-0.0010581199600558516,0.0
96,2.0689655172413794,0.0,2.142857142857143,0,849979.173675847,845983.5502834899,935758.0251048435,44454.81228042937,386686.7668539528,5.6665278245056465e-06,0.0,0.0,0.0,5.6665278245056465e-06,0.0,23.02892821510755,1.808436233051387,0.020728381034466448,0.0
97,2.0689655172413794,0.0,2.5,0,569398.3956043699,1328698.5363064918,771142.7129239031,748153.8922274917,759727.6638811091,3.7959893040291328e-06,0.0,0.0,0.0,3.7959893040291328e-06,0.0,23.60778848913726,2.1170422885725118,0.0759727663881109,0.0
98,2.0689655172413794,0.0,2.857142857142857,0,526857.1511923695,1280968.5895762318,844568.9218762751,695692.530282457,389428.67034366936,3.5123810079491303e-06,0.0,0.0,0.0,3.5123810079491303e-06,0.0,23.820388355313515,2.4155790901942438,0.020875361032662364,0.0
99,2.0689655172413794,0.0,3.2142857142857144,0,603455.0813293105,1067830.0194853025,421569.117819926,519049.0193154684,196697.45430378505,4.023033875528737e-06,0.0,0.0,0.0,4.023033875528737e-06,0.0,22.803442851226624,2.707383913792077,0.007769057387472902,0.0
100,2.0689655172413794,0.0,3.5714285714285716,0,532396.4684248737,625855.5320286681,148385.58529050474,51765.76584655819,30126.528664769787,3.5493097894991577e-06,0.0,0.0,0.0,3.5493097894991577e-06,0.0,22.951367227972806,2.999053615507406,0.001060686104116081,0.0
101,2.0689655172413794,0.0,3.928571428571429,0,315055.4267254561,449006.9409401798,424560.5752479688,122440.46913677649,18999.19051702381,2.1003695115030405e-06,0.0,0.0,0.0,2.1003695115030405e-06,0.0,23.503660646474472,3.2947479580761696,0.0006441350145403638,0.0
102,2.0689655172413794,0.0,4.285714285714286,0,161189.02786985878,364025.79998329503,183001.8909655096,236035.03841533867,-17505.492780565954,1.0745935191323918e-06,0.0,0.0,0.0,1.0745935191323918e-06,0.0,23.31915460951883,3.5945902233769065,-0.0005865502954062455,0.0
103,2.0689655172413794,0.0,4.642857142857143,0,327134.4260447892,568916.4132959995,329404.07656145515,196193.22510673088,-63550.17383490532,2.180896173631928e-06,0.0,0.0,0.0,2.180896173631928e-06,0.0,23.222495002281264,3.8968546375406037,-0.0021216881809934494,0.0
104,2.0689655172413794,0.0,5.0,0,150656.75496537995,368425.48172179615,349956.02675317705,209385.48983876745,-188.11516828864237,1.0043783664358664e-06,0.0,0.0,0.0,1.0043783664358664e-06,0.0,23.87155288919859,4.200081160709871,-6.273520085921952e-06,0.0
105,2.413793103448276,0.0,0.0,0,389820.61412008974,596564.9614121963,344392.2829287814,147574.89601849922,81327.52926200692,2.5988040941339314e-06,0.0,0.0,0.0,2.5988040941339314e-06,0.0,23.48404917669782,-0.04991562469392928,0.002712220885775377,0.0
106,2.413793103448276,0.0,0.35714285714285715,0,122675.36078421834,424491.3790337942,289581.5495589567,319636.63038175984,10099.187726444228,8.178357385614557e-07,0.0,0.0,0.0,8.178357385614557e-07,0.0,22.584800464899438,0.25401437021974665,0.000337171811559416,0.0
107,2.413793103448276,0.0,0.7142857142857143,0,226473.01920696272,595166.5987588982,340561.5895852685,416170.3285277694,50270.07031250572,1.5098201280464181e-06,0.0,0.0,0.0,1.5098201280464181e-06,0.0,23.001366438508974,0.558944581148625,0.0016843812945744267,0.0
108,2.413793103448276,0.0,1.0714285714285714,0,288140.8787881195,528357.0968445257,369451.31495595194,195750.33887353202,57953.44125262235,1.9209391919207965e-06,0.0,0.0,0.0,1.9209391919207965e-06,0.0,22.575305435503267,0.8663928768993978,0.001964812168732843,0.0
109,2.413793103448276,0.0,1.4285714285714286,0,234079.6820846886,525788.5438671632,457884.82798417466,265264.1553933234,37044.16811891809,1.560531213897924e-06,0.0,0.0,0.0,1.560531213897924e-06,0.0,23.32098938846398,1.1781533854268094,0.001304240352398284,0.0
110,2.413793103448276,0.0,1.7857142857142858,0,445383.10863768175,693956.6619766126,810556.2964090386,318471.3856298569,98630.87538760318,2.969220724251212e-06,0.0,0.0,0.0,2.969220724251212e-06,0.0,22.75125858257414,1.4940979419297968,0.00389567284322618,0.0
111,2.413793103448276,0.0,2.142857142857143,0,278633.517907728,1069122.3383059765,856885.9077772766,753592.0640073784,319408.4621232544,1.8575567860515199e-06,0.0,0.0,0.0,1.8575567860515199e-06,0.0,22.539498584093863,1.8099020246713888,0.01712192108974955,0.0
112,2.413793103448276,0.0,2.5,0,626592.0975710016,1465641.4412354573,962290.5187500478,763859.2777951036,750807.5531428512,4.177280650473344e-06,0.0,0.0,0.0,4.177280650473344e-06,0.0,22.397163709831332,2.11870749062995,0.07508075531428512,0.0
113,2.413793103448276,0.0,2.857142857142857,0,828845.0801506542,1165055.6121843108,595078.1653243585,214237.74442134434,391328.55018288235,5.525633867671028e-06,0.0,0.0,0.0,5.525633867671028e-06,0.0,24.42172266408738,2.417044881814246,0.02097720427272799,0.0
114,2.413793103448276,0.0,3.2142857142857144,0,435739.8419863636,682431.248341036,609600.0448416164,214864.95165750073,107127.72443811709,2.9049322799090906e-06,0.0,0.0,0.0,2.9049322799090906e-06,0.0,22.751573126148557,2.7083836562155112,0.0042312771250395355,0.0
115,2.413793103448276,0.0,3.5714285714285716,0,384624.46672730416,522692.425180338,450577.8863210809,107114.93182436767,-69649.17382568997,2.564163111515361e-06,0.0,0.0,0.0,2.564163111515361e-06,0.0,23.281162449527866,2.9995819568553808,-0.0024521879590616727,0.0
116,2.413793103448276,0.0,3.928571428571429,0,150126.1921898386,472501.26449332235,307741.8967639241,436797.4484885468,-24696.116833807926,1.0008412812655905e-06,0.0,0.0,0.0,1.0008412812655905e-06,0.0,23.473465659454565,3.294964305470827,-0.0008372795441775113,0.0
117,2.413793103448276,0.0,4.285714285714286,0,118064.80040112084,259291.44714842126,365251.23894811777,237983.46392199327,18248.756954597182,7.870986693408056e-07,0.0,0.0,0.0,7.870986693408056e-07,0.0,23.507983043256726,3.5946588668629107,0.0006114545826666926,0.0
118,2.413793103448276,0.0,4.642857142857143,0,316671.9322825005,491334.6695785109,288732.0366609609,126413.84976937693,-31601.510534134057,2.11114621521667e-06,0.0,0.0,0.0,2.11114621521667e-06,0.0,23.763641932587735,3.89687151307689,-0.001055049063689349,0.0
119,2.413793103448276,0.0,5.0,0,249684.55254892746,361826.7828571557,375391.0952406187,119200.87411567179,-41202.631485513,1.6645636836595164e-06,0.0,0.0,0.0,1.6645636836595164e-06,0.0,23.432426782746287,4.200084375306071,-0.0013740813065142518,0.0
120,2.7586206896551726,0.0,0.0,0,124398.52863149886,338851.46972040384,388704.44138368516,247111.7443427278,-34857.7237581598,8.293235242099924e-07,0.0,0.0,0.0,8.293235242099924e-07,0.0,23.207658371920534,-0.04991273181431152,-0.001162482707459255,0.0
121,2.7586206896551726,0.0,0.35714285714285715,0,117825.62863108086,291868.3268891811,387550.1381953208,255943.95333187887,-12000.536536862142,7.855041908738724e-07,0.0,0.0,0.0,7.855041908738724e-07,0.0,23.54906466486059,0.25402955685344253,-0.00040065030509571384,0.0
122,2.7586206896551726,0.0,0.7142857142857143,0,62748.22130077394,283382.5023059146,319775.2344278479,247320.08048015452,-105206.51175752275,4.1832147533849295e-07,0.0,0.0,0.0,4.1832147533849295e-07,0.0,23.548643384448834,0.5590063547989481,-0.0035251170203299217,0.0
123,2.7586206896551726,0.0,1.0714285714285714,0,163820.88039503942,331883.23468605854,224017.44191344848,143373.1897359722,-33681.860921215164,1.092139202633596e-06,0.0,0.0,0.0,1.092139202633596e-06,0.0,23.474017230863375,0.8665875722606593,-0.001141925807564986,0.0
124,2.7586206896551726,0.0,1.4285714285714286,0,187041.43434379724,454091.1242692557,305630.6348653345,244014.97246720557,57063.42869808348,1.246942895625315e-06,0.0,0.0,0.0,1.246942895625315e-06,0.0,23.77384319775345,1.1786288504065299,0.0020090726862951186,0.0
125,2.7586206896551726,0.0,1.7857142857142858,0,639155.9174342732,1054057.763312099,620792.6792097937,319997.6302256266,104389.64571704372,4.2610394495618215e-06,0.0,0.0,0.0,4.2610394495618215e-06,0.0,23.145264017055027,1.4949976301955474,0.004123129865123381,0.0
126,2.7586206896551726,0.0,2.142857142857143,0,974732.2444756181,1004879.3891805563,1336092.55967833,238914.00985178084,470718.3908828508,6.498214963170787e-06,0.0,0.0,0.0,6.498214963170787e-06,0.0,23.362469092749983,1.811221119959975,0.025232904258748128,0.0
127,2.7586206896551726,0.0,2.5,0,939346.8718586125,1368307.850287271,834892.8551667703,283692.11954556656,520910.82180721173,6.262312479057417e-06,0.0,0.0,0.0,6.262312479057417e-06,0.0,22.804692762146477,2.12020603937217,0.05209108218072117,0.0
128,2.7586206896551726,0.0,2.857142857142857,0,581396.3892640817,1212938.420032159,888474.0377990324,541723.0170648822,377034.2624659666,3.875975928427212e-06,0.0,0.0,0.0,3.875975928427212e-06,0.0,23.349870454829926,2.418363977102832,0.02021095761571624,0.0
129,2.7586206896551726,0.0,3.2142857142857144,0,400417.8124280466,777827.9202053669,446278.58608408953,332964.1924625412,71057.79817350743,2.669452082853644e-06,0.0,0.0,0.0,2.669452082853644e-06,0.0,23.157997661095994,2.709283344481262,0.002806605269963696,0.0
130,2.7586206896551726,0.0,3.5714285714285716,0,252178.07110463173,520927.5578198972,267316.4174171095,270207.41364211094,31221.50668165602,1.6811871406975448e-06,0.0,0.0,0.0,1.6811871406975448e-06,0.0,24.009486442764043,3.0000574218351015,0.0010992377733026473,0.0
131,2.7586206896551726,0.0,3.928571428571429,0,90858.26380092381,346467.2861332656,257132.64542846495,254158.43370509765,50870.63074771662,6.057217586728254e-07,0.0,0.0,0.0,6.057217586728254e-07,0.0,22.755313596799326,3.2951590008320886,0.0017246816093031579,0.0
132,2.7586206896551726,0.0,4.285714285714286,0,387201.67634868197,570186.7419011437,125292.94107063327,309304.6017420539,42199.48722518308,2.581344508991213e-06,0.0,0.0,0.0,2.581344508991213e-06,0.0,23.253663297019454,3.5947206405132337,0.0014139631490638325,0.0
133,2.7586206896551726,0.0,4.642857142857143,0,432354.8120384795,599762.0348650947,427621.8598937832,107851.4570221268,-25787.774342122448,2.882365413589863e-06,0.0,0.0,0.0,2.882365413589863e-06,0.0,23.233925032328354,3.8968866997105858,-0.0008609514771422315,0.0
134,2.7586206896551726,0.0,5.0,0,158987.11560648374,292223.32025712985,111862.33780947507,231696.4955310056,-24774.420346784613,1.0599141040432249e-06,0.0,0.0,0.0,1.0599141040432249e-06,0.0,23.836149857731627,4.200087268185689,-0.0008262110125226439,0.0
135,3.1034482758620694,0.0,0.0,0,91564.41203509895,340269.08635747386,276956.01855017216,235280.20532818965,60421.1327045076,6.104294135673263e-07,0.0,0.0,0.0,6.104294135673263e-07,0.0,22.83392332199344,-0.04991018770100537,0.0020150059832191106,0.0
136,3.1034482758620694,0.0,0.35714285714285715,0,237130.89679164905,404040.2688655466,198748.3337494965,144478.78822662088,-15410.661471004902,1.5808726452776603e-06,0.0,0.0,0.0,1.5808726452776603e-06,0.0,23.478707434207664,0.25404291258266964,-0.0005145008476178772,0.0
137,3.1034482758620694,0.0,0.7142857142857143,0,147759.14012291573,346531.5350345928,224607.4161948977,182207.75434552305,-46476.066616101176,9.850609341527716e-07,0.0,0.0,0.0,9.850609341527716e-07,0.0,23.520908503266266,0.5590606810020822,-0.0015572569675535379,0.0
138,3.1034482758620694,0.0,1.0714285714285714,0,311437.4912628994,487112.32879073836,431425.56671012216,151588.02640355635,-8878.966679913981,2.076249941752663e-06,0.0,0.0,0.0,2.076249941752663e-06,0.0,23.948155956777367,0.8667587950990354,-0.00030102615826422635,0.0
139,3.1034482758620694,0.0,1.4285714285714286,0,52340.1209928499,439182.18829856627,380511.7687127254,422409.80719834875,75826.4502428458,3.4893413995233266e-07,0.0,0.0,0.0,3.4893413995233266e-07,0.0,23.06360441756158,1.179046993205869,0.002669675719761541,0.0
140,3.1034482758620694,0.0,1.7857142857142858,0,715700.1082155388,1055237.2583881128,373285.0633371032,309993.2451822188,10934.907127045575,4.771334054770258e-06,0.0,0.0,0.0,4.771334054770258e-06,0.0,22.84208546981262,1.4957888518123204,0.00043190147680049947,0.0
141,3.1034482758620694,0.0,2.142857142857143,0,770691.454960249,1350796.553196801,635076.2239641091,534925.879431341,364696.966652823,5.137943033068327e-06,0.0,0.0,0.0,5.137943033068327e-06,0.0,23.738045447408194,1.8123811847809177,0.019549615696440384,0.0
142,3.1034482758620694,0.0,2.5,0,795988.2768610398,1338287.7295668267,702066.3701746128,445708.49260230846,629851.405499794,5.306588512406932e-06,0.0,0.0,0.0,5.306588512406932e-06,0.0,22.807848672858675,2.1215239226921696,0.0629851405499794,0.0
143,3.1034482758620694,0.0,2.857142857142857,0,854421.7443923353,1315106.7545282717,754208.859083042,331748.36708082625,515832.48966343334,5.696144962615568e-06,0.0,0.0,0.0,5.696144962615568e-06,0.0,23.248621465433622,2.4195240419237747,0.02765124982862294,0.0
144,3.1034482758620694,0.0,3.2142857142857144,0,690900.6498591605,899249.5749948863,540926.9816081603,102797.91123164215,98764.51380861393,4.606004332394404e-06,0.0,0.0,0.0,4.606004332394404e-06,0.0,23.395416244477488,2.7100745660980348,0.00390095122654679,0.0
145,3.1034482758620694,0.0,3.5714285714285716,0,205318.41306283095,456076.63735023845,554726.4358393975,318701.7409704641,54057.19409492704,1.368789420418873e-06,0.0,0.0,0.0,1.368789420418873e-06,0.0,23.827332918146368,3.0004755646344408,0.0019032300482413752,0.0
146,3.1034482758620694,0.0,3.928571428571429,0,199472.11780442207,370138.9232060388,140109.74360251214,244923.4422874366,69512.0498760004,1.329814118696147e-06,0.0,0.0,0.0,1.329814118696147e-06,0.0,22.75331724629882,3.2953302236704647,0.0023566869976638333,0.0
147,3.1034482758620694,0.0,4.285714285714286,0,251390.03126280534,436068.19276281097,297561.15823247324,145887.5407732649,-64917.29335114478,1.6759335417520356e-06,0.0,0.0,0.0,1.6759335417520356e-06,0.0,23.380874255131626,3.594774966716368,-0.0021751605664229023,0.0
148,3.1034482758620694,0.0,4.642857142857143,0,353918.3413445793,501746.16011654155,272582.03144752746,94126.48055384091,-32490.982540265,2.359455608963862e-06,0.0,0.0,0.0,2.359455608963862e-06,0.0,23.54668674228067,3.8969000554398128,-0.0010847450051612827,0.0
149,3.1034482758620694,0.0,5.0,0,229429.989421417,439807.8372941597,380541.72157834115,186559.5615017795,-18550.69989263608,1.5295332628094468e-06,0.0,0.0,0.0,1.5295332628094468e-06,0.0,23.107884379814035,4.2000898122989945,-0.0006186539312225632,0.0
150,3.4482758620689657,0.0,0.0,0,178995.18730373614,282469.56012240535,318103.31848291314,123971.51217869652,2840.3042125628017,1.1933012486915742e-06,0.0,0.0,0.0,1.1933012486915742e-06,0.0,23.325404865627828,-0.04990801869620095,9.47223219145231e-05,0.0
151,3.4482758620689657,0.0,0.35714285714285715,0,195416.90026109165,346423.546384189,337607.4608289379,146747.8094422053,20877.765448973496,1.3027793350739444e-06,0.0,0.0,0.0,1.3027793350739444e-06,0.0,23.953473509795497,0.2540542991198927,0.0006970257597361687,0.0
152,3.4482758620689657,0.0,0.7142857142857143,0,311933.56864427443,407878.9983126065,318376.22054226784,60977.82732310188,-20340.596929118554,2.079557124295163e-06,0.0,0.0,0.0,2.079557124295163e-06,0.0,23.260146110356533,0.5591069972551037,-0.0006815451176992308,0.0
153,3.4482758620689657,0.0,1.0714285714285714,0,217528.44465670252,420076.35256402515,219067.12963899944,189129.82506578366,-29240.093474718316,1.4501896310446834e-06,0.0,0.0,0.0,1.4501896310446834e-06,0.0,23.336443988610167,0.8669047725435793,-0.0009913352897126316,0.0
154,3.4482758620689657,0.0,1.4285714285714286,0,406698.5548527763,691221.6993847917,467050.4473360039,221764.9051955669,53649.744112396445,2.7113236990185084e-06,0.0,0.0,0.0,2.7113236990185084e-06,0.0,23.965958240627565,1.179403484301805,0.0018888846671521185,0.0
155,3.4482758620689657,0.0,1.7857142857142858,0,148509.10004412234,513221.907945221,610425.9900901257,439478.21919153637,113569.11350820615,9.900606669608156e-07,0.0,0.0,0.0,9.900606669608156e-07,0.0,23.41883310191212,1.4964634143343525,0.004485695879556176,0.0
156,3.4482758620689657,0.0,2.142857142857143,0,684087.1624593354,1158376.342409709,929027.7616558321,389084.09687014134,430004.2896818459,4.560581083062236e-06,0.0,0.0,0.0,4.560581083062236e-06,0.0,24.201793603981233,1.8133702076219869,0.02305042097896989,0.0
157,3.4482758620689657,0.0,2.5,0,1047818.7435703235,1606451.6914349082,1179393.2894573326,412545.0323451292,448610.4684987443,6.985458290468823e-06,0.0,0.0,0.0,6.985458290468823e-06,0.0,22.718164613434055,2.1226474949976244,0.04486104684987443,0.0
158,3.4482758620689657,0.0,2.857142857142857,0,1244245.3140016936,1529913.5097318192,824279.1015643463,93257.54322870025,523715.9235260611,8.294968760011291e-06,0.0,0.0,0.0,8.294968760011291e-06,0.0,23.405400140134493,2.420513064764844,0.028073842053058393,0.0
159,3.4482758620689657,0.0,3.2142857142857144,0,244259.39293600313,652616.5062650972,707345.2950233797,440364.0798693746,87856.3855477982,1.6283959529066877e-06,0.0,0.0,0.0,1.6283959529066877e-06,0.0,23.93497339962461,2.710749128620067,0.0034701074479724704,0.0
160,3.4482758620689657,0.0,3.5714285714285716,0,225266.68128034356,544391.8591122176,384409.0930470504,286779.4930380367,-1798.273674135833,1.5017778752022904e-06,0.0,0.0,0.0,1.5017778752022904e-06,0.0,23.191892152417626,3.0008320557303767,-6.331309918836356e-05,0.0
161,3.4482758620689657,0.0,3.928571428571429,0,265311.53697115154,475135.2015336455,279884.7093994304,173064.00749738686,-34673.720623157315,1.768743579807677e-06,0.0,0.0,0.0,1.768743579807677e-06,0.0,23.439108898464127,3.2954762011150085,-0.00117555311199988,0.0
162,3.4482758620689657,0.0,4.285714285714286,0,327755.9978999771,430190.05493414076,289255.99844358896,55540.206742951,-26197.129067679554,2.1850399859998474e-06,0.0,0.0,0.0,2.1850399859998474e-06,0.0,24.192686775624818,3.5948212829693893,-0.0008777778487048224,0.0
163,3.4482758620689657,0.0,4.642857142857143,0,298787.50853269413,404528.0937361583,286912.556681649,64830.819641840324,-36766.768996569386,1.991916723551294e-06,0.0,0.0,0.0,1.991916723551294e-06,0.0,23.178423913794774,3.896911441977036,-0.001227496551559258,0.0
164,3.4482758620689657,0.0,5.0,0,287213.7150553235,448581.945393717,245962.71016543158,119894.2236171261,-82420.90488912763,1.9147581003688235e-06,0.0,0.0,0.0,1.9147581003688235e-06,0.0,23.811800871246234,4.2000919813038,-0.0027486842609545357,0.0
165,3.793103448275862,0.0,0.0,0,193789.5901034711,194913.83385524453,405338.68647265923,234206.29897482635,-32285.69642093541,1.2919306006898072e-06,0.0,0.0,0.0,1.2919306006898072e-06,0.0,23.903726728713806,-0.049906249384656744,-0.0010767072470941495,0.0
166,3.793103448275862,0.0,0.35714285714285715,0,232533.0642036392,448883.1624078777,299907.1151949028,180936.54125263332,-63161.89954534784,1.5502204280242613e-06,0.0,0.0,0.0,1.5502204280242613e-06,0.0,23.573453341120906,0.25406358740349455,-0.002108725242870293,0.0
167,3.793103448275862,0.0,0.7142857142857143,0,323003.5380341514,406260.6178023372,284890.75125278975,40152.53183136028,-2390.5491707139868,2.153356920227676e-06,0.0,0.0,0.0,2.153356920227676e-06,0.0,23.559876676369495,0.5591447785827378,-8.009927740063948e-05,0.0
168,3.793103448275862,0.0,1.0714285714285714,0,169567.45111659906,390085.8361311509,317478.33471714775,196304.3615010755,-46718.27334153701,1.1304496741106604e-06,0.0,0.0,0.0,1.1304496741106604e-06,0.0,23.03214729127274,0.8670238500012687,-0.0015839030431947913,0.0
169,3.793103448275862,0.0,1.4285714285714286,0,533637.9648326825,668649.4603082092,614848.2977464533,110148.88496128542,40593.89420482273,3.5575864322178835e-06,0.0,0.0,0.0,3.5575864322178835e-06,0.0,23.91485875027027,1.179694283017494,0.0014292180813173284,0.0
170,3.793103448275862,0.0,1.7857142857142858,0,342905.19847978203,587874.7852949498,321902.5189892881,200864.95184698634,-41521.23980597682,2.28603465653188e-06,0.0,0.0,0.0,2.28603465653188e-06,0.0,22.92690749534578,1.497013671878776,-0.0016399851029767535,0.0
171,3.793103448275862,0.0,2.142857142857143,0,363405.1657023531,925741.4371351522,534663.5832691008,598456.9272750422,500069.2549394765,2.422701104682354e-06,0.0,0.0,0.0,2.422701104682354e-06,0.0,23.75442900823114,1.8141769783246733,0.02680626012713332,0.0
172,3.793103448275862,0.0,2.5,0,1086034.036373737,1656656.6386378082,502201.14791381033,655289.3901460704,782722.5191818381,7.240226909158247e-06,0.0,0.0,0.0,7.240226909158247e-06,0.0,23.304343895384672,2.1235640210683577,0.07827225191818382,0.0
173,3.793103448275862,0.0,2.857142857142857,0,201212.95638348968,839351.17229722,657998.3200749094,622897.1207524897,272407.94395145366,1.3414197092232646e-06,0.0,0.0,0.0,1.3414197092232646e-06,0.0,23.37090789458936,2.4213198354675303,0.01460245382840825,0.0
174,3.793103448275862,0.0,3.2142857142857144,0,299956.56948443636,604840.4889072783,509101.1004816196,268701.0933646315,65181.7439344661,1.9997104632295756e-06,0.0,0.0,0.0,1.9997104632295756e-06,0.0,23.47237952596348,2.7112993861644905,0.0025745158270341997,0.0
175,3.793103448275862,0.0,3.5714285714285716,0,180157.57334376004,460479.9613483969,287948.79252119636,273559.03395464335,-34570.717059817616,1.2010504889584002e-06,0.0,0.0,0.0,1.2010504889584002e-06,0.0,23.82749777971599,3.0011228544460655,-0.0012171558032027083,0.0
176,3.793103448275862,0.0,3.928571428571429,0,317731.64355369133,476897.08475735976,241706.87168988193,115442.24379973985,23883.022298902146,2.118210957024609e-06,0.0,0.0,0.0,2.118210957024609e-06,0.0,24.363455346419688,3.295595278572698,0.000809712966559642,0.0
177,3.793103448275862,0.0,4.285714285714286,0,238212.61737274672,412729.5431004288,288668.41518424294,138091.64511855989,71326.79368027404,1.5880841158183115e-06,0.0,0.0,0.0,1.5880841158183115e-06,0.0,23.642886283756752,3.5948590642970237,0.002389921405125533,0.0
178,3.793103448275862,0.0,4.642857142857143,0,141238.08231406292,292882.38401722827,236833.30914938237,132222.7388606591,46652.04575636175,9.415872154270861e-07,0.0,0.0,0.0,9.415872154270861e-07,0.0,23.231939053477785,3.896920730260638,0.0015575267245936685,0.0
179,3.793103448275862,0.0,5.0,0,173013.3997108436,352888.57173483196,300944.0988790398,159853.5767869577,-27159.86450037261,1.1534226647389574e-06,0.0,0.0,0.0,1.1534226647389574e-06,0.0,22.87691160300328,4.200093750615343,-0.0009057640435063922,0.0
180,4.137931034482759,0.0,0.0,0,284894.2369145438,329778.61960334546,346414.43527798145,53566.80411680774,4303.106883692281,1.8992949127636251e-06,0.0,0.0,0.0,1.8992949127636251e-06,0.0,24.130323615480382,-0.04990490142894272,0.00014350585182631672,0.0
181,4.137931034482759,0.0,0.35714285714285715,0,213937.1431826872,369651.6328527971,313653.3547051603,133284.43992583995,57153.41265891911,1.4262476212179147e-06,0.0,0.0,0.0,1.4262476212179147e-06,0.0,23.642772618380967,0.25407066371235354,0.001908125703273314,0.0
182,4.137931034482759,0.0,0.7142857142857143,0,128864.36852965462,408727.4870431838,330020.6730508091,260012.50750012818,19751.853628486628,8.590957901976974e-07,0.0,0.0,0.0,8.590957901976974e-07,0.0,23.444013825447275,0.559173562409212,0.0006618183061645405,0.0
183,4.137931034482759,0.0,1.0714285714285714,0,322663.52676003607,420502.1456365047,355909.06263700745,70428.08491506924,39445.675920922884,2.1510901784002406e-06,0.0,0.0,0.0,2.1510901784002406e-06,0.0,23.593813119018566,0.8671145695469745,0.0013373380834363206,0.0
184,4.137931034482759,0.0,1.4285714285714286,0,259185.68067154288,290771.40063356137,341173.1552852276,60488.49293342469,35035.57332407804,1.727904537810286e-06,0.0,0.0,0.0,1.727904537810286e-06,0.0,23.952622001137446,1.1799158289581873,0.0012335223280485973,0.0
185,4.137931034482759,0.0,1.7857142857142858,0,594473.9166370892,783434.2989320162,431688.76983004337,97066.13809481372,72971.29445802291,3.963159444247261e-06,0.0,0.0,0.0,3.963159444247261e-06,0.0,23.368989449635823,1.4974328873660738,0.0028821835864077786,0.0
186,4.137931034482759,0.0,2.142857142857143,0,437845.8096489242,1005424.9341811371,522133.999016569,892353.7914772668,354324.58295559505,2.9189720643261613e-06,0.0,0.0,0.0,2.9189720643261613e-06,0.0,23.245753565437926,1.8147916191900126,0.018993603078628116,0.0
187,4.137931034482759,0.0,2.5,0,819964.2758260774,1437948.7992621392,700180.7796398539,555143.4184729627,513408.5560891089,5.466428505507183e-06,0.0,0.0,0.0,5.466428505507183e-06,0.0,22.928526923891877,2.124262279415303,0.05134085560891089,0.0
188,4.137931034482759,0.0,2.857142857142857,0,626746.6612509544,1042105.8543682342,569713.7658065116,331098.62299566285,287678.44902499026,4.178311075006363e-06,0.0,0.0,0.0,4.178311075006363e-06,0.0,23.048619903756848,2.42193447633287,0.015421030709971334,0.0
189,4.137931034482759,0.0,3.2142857142857144,0,451637.793439709,788263.8837938658,546713.3089383475,267217.8301299053,9790.577947917482,3.0109186229313935e-06,0.0,0.0,0.0,3.0109186229313935e-06,0.0,23.42058594773376,2.7117186016517882,0.0003867033368740142,0.0
190,4.137931034482759,0.0,3.5714285714285716,0,252980.59242718617,493027.5533210007,346941.2001537725,200910.72882752275,-10175.5275154697,1.6865372828479077e-06,0.0,0.0,0.0,1.6865372828479077e-06,0.0,24.13503681711393,3.001344400386759,-0.0003582570284750732,0.0
191,4.137931034482759,0.0,3.928571428571429,0,336222.59835203737,492524.9551988555,325706.6574244588,105513.47218305565,4111.61603015278,2.2414839890135825e-06,0.0,0.0,0.0,2.2414839890135825e-06,0.0,23.34819264700816,3.2956859981184037,0.00013939729953198695,0.0
192,4.137931034482759,0.0,4.285714285714286,0,277702.3262488901,415989.8012712271,176246.25726411503,111697.70274635874,-4060.066008817617,1.8513488416592671e-06,0.0,0.0,0.0,1.8513488416592671e-06,0.0,23.737464876805845,3.594887848123498,-0.00013603918191235502,0.0
193,4.137931034482759,0.0,4.642857142857143,0,230879.89281209148,368097.7046058093,370325.2302038929,138339.6339079837,8104.658934876204,1.5391992854139432e-06,0.0,0.0,0.0,1.5391992854139432e-06,0.0,24.174163563682722,3.8969278065694968,0.00027058240812655393,0.0
194,4.137931034482759,0.0,5.0,0,400205.476359457,545979.284419757,230707.4758684814,95739.2305534037,24933.7862122073,2.6680365090630467e-06,0.0,0.0,0.0,2.6680365090630467e-06,0.0,23.807520805841087,4.200095098571057,0.0008315257618160422,0.0
195,4.482758620689656,0.0,0.0,0,280018.6125433227,417658.3522883966,170210.01463862552,113691.53169523187,-14736.944485419255,1.866790750288818e-06,0.0,0.0,0.0,1.866790750288818e-06,0.0,24.550657034567994,-0.0499039923898561,-0.0004914676369559741,0.0
196,4.482758620689656,0.0,0.35714285714285715,0,207953.2395880129,395375.6234440636,217117.7207013045,166917.42195820066,26175.078395725915,1.3863549305867526e-06,0.0,0.0,0.0,1.3863549305867526e-06,0.0,23.602415082589165,0.2540754358582593,0.0008738820229361123,0.0
197,4.482758620689656,0.0,0.7142857142857143,0,307401.3691349674,264984.9963039525,425815.74510865,71364.41608493647,40501.98764588962,2.0493424608997826e-06,0.0,0.0,0.0,2.0493424608997826e-06,0.0,23.494784215783046,0.5591929737467328,0.0013570856368356752,0.0
198,4.482758620689656,0.0,1.0714285714285714,0,95719.86022334459,272122.99606689374,228177.26352635177,337978.7759479952,15453.262450646871,6.381324014889639e-07,0.0,0.0,0.0,6.381324014889639e-07,0.0,23.38716680630514,0.8671757493113467,0.0005239163965656551,0.0
199,4.482758620689656,0.0,1.4285714285714286,0,200829.21129775202,450938.51733840234,270501.2757020502,234568.50539244033,-17842.03563110643,1.33886140865168e-06,0.0,0.0,0.0,1.33886140865168e-06,0.0,24.578906984472525,1.1800652358841561,-0.0006281772279057626,0.0
200,4.482758620689656,0.0,1.7857142857142858,0,468893.7797031937,627996.9464412172,403719.67772919935,89084.18365348718,122050.04173945318,3.1259585313546246e-06,0.0,0.0,0.0,3.1259585313546246e-06,0.0,24.197204035507664,1.4977155993718982,0.004820671328835944,0.0
201,4.482758620689656,0.0,2.142857142857143,0,802483.692550051,793076.231635014,606013.1767206164,-86416.89598044624,384638.1003043568,5.349891283667007e-06,0.0,0.0,0.0,5.349891283667007e-06,0.0,22.862529690544424,1.8152061228454521,0.020618562068593662,0.0
202,4.482758620689656,0.0,2.5,0,713666.8351286653,1093807.8579488618,578399.6980719321,279249.9613656931,679650.8198084357,4.757778900857769e-06,0.0,0.0,0.0,4.757778900857769e-06,0.0,24.65199320146555,2.1247331733202994,0.06796508198084358,0.0
203,4.482758620689656,0.0,2.857142857142857,0,637240.1331139893,1191388.3808181933,658783.9596292723,485399.48046766844,479799.3640706109,4.248267554093262e-06,0.0,0.0,0.0,4.248267554093262e-06,0.0,23.850674105909633,2.422348979988309,0.025719690692975285,0.0
204,4.482758620689656,0.0,3.2142857142857144,0,343832.469283943,695108.4691522899,558438.9841298941,303955.11529459845,107573.08416839788,2.2922164618929533e-06,0.0,0.0,0.0,2.2922164618929533e-06,0.0,23.67094157439763,2.7120013136576127,0.004248867720275593,0.0
205,4.482758620689656,0.0,3.5714285714285716,0,165958.52572084524,328785.4612448205,324976.84306386043,160955.40647242346,72418.62437192383,1.1063901714723017e-06,0.0,0.0,0.0,1.1063901714723017e-06,0.0,23.87029151218875,3.0014938073127277,0.002549693972552769,0.0
206,4.482758620689656,0.0,3.928571428571429,0,228388.9134509473,358400.08467925806,175137.58926532278,102535.34733544046,-5208.602640300729,1.5225927563396486e-06,0.0,0.0,0.0,1.5225927563396486e-06,0.0,23.136494556360798,3.295747177882776,-0.00017658875173860033,0.0
207,4.482758620689656,0.0,4.285714285714286,0,194415.43024275027,298526.2668901746,224562.12382977214,77984.01810880884,-15345.660801309039,1.2961028682850018e-06,0.0,0.0,0.0,1.2961028682850018e-06,0.0,23.719070452926758,3.5949072594610185,-0.0005141815765509033,0.0
208,4.482758620689656,0.0,4.642857142857143,0,185541.72058419723,327175.2135223403,209150.99515497396,113313.3610827399,40749.90047599873,1.2369448038946482e-06,0.0,0.0,0.0,1.2369448038946482e-06,0.0,23.471009179611602,3.8969325787154023,0.001360477509332916,0.0
209,4.482758620689656,0.0,5.0,0,227612.0474069756,325272.48245853337,251979.19681458446,70043.32699103373,-34955.211634214575,1.5174136493798372e-06,0.0,0.0,0.0,1.5174136493798372e-06,0.0,23.44992122041825,4.200096007610144,-0.0011657338655350624,0.0
210,4.827586206896552,0.0,0.0,0,205798.2389322883,301503.9149995717,322044.65987671743,106746.30520754699,62949.82362140657,1.3719882595485888e-06,0.0,0.0,0.0,1.3719882595485888e-06,0.0,24.050012635990537,-0.04990353466181586,0.002099336201789857,0.0
211,4.827586206896552,0.0,0.35714285714285715,0,26953.753597269373,249718.34276715398,223462.13220453387,222117.3874503178,43407.50740138821,1.796916906484625e-07,0.0,0.0,0.0,1.796916906484625e-07,0.0,23.443080188961172,0.2540778387747294,0.0014492044610163774,0.0
212,4.827586206896552,0.0,0.7142857142857143,0,212464.52257046782,325939.24650973274,228237.97546328133,82198.84835637885,2935.2067837072655,1.4164301504697854e-06,0.0,0.0,0.0,1.4164301504697854e-06,0.0,23.629869170768306,0.5592027479287373,9.834892554257197e-05,0.0
213,4.827586206896552,0.0,1.0714285714285714,0,162786.3632571057,305962.55631129467,363734.84656857606,179941.72315523803,41616.694563070196,1.085242421714038e-06,0.0,0.0,0.0,1.085242421714038e-06,0.0,23.748653878734252,0.867206555130437,0.0014109427521917567,0.0
214,4.827586206896552,0.0,1.4285714285714286,0,164112.64902100427,165835.02597743913,350500.000075965,221328.71453130577,31557.657688985117,1.094084326806695e-06,0.0,0.0,0.0,1.094084326806695e-06,0.0,24.06132225819819,1.1801404666860311,0.0011110728807033731,0.0
215,4.827586206896552,0.0,1.7857142857142858,0,609413.1462526951,809192.4154310377,467422.1961858837,105597.98473978603,-13576.35171888602,4.062754308351301e-06,0.0,0.0,0.0,4.062754308351301e-06,0.0,24.22826620502504,1.4978579532203558,-0.0005362319303514861,0.0
216,4.827586206896552,0.0,2.142857142857143,0,790261.3658459601,1034997.9025919911,927799.0619986994,196609.12662064395,251179.56152076265,5.268409105639734e-06,0.0,0.0,0.0,5.268409105639734e-06,0.0,23.60640027328766,1.8154148376836474,0.013464504362620273,0.0
217,4.827586206896552,0.0,2.5,0,270826.6586836454,924774.7396017533,797992.353028285,613811.8417629853,605597.5707864295,1.8055110578909695e-06,0.0,0.0,0.0,1.8055110578909695e-06,0.0,23.414586396634405,2.124970282315356,0.060559757078642945,0.0
218,4.827586206896552,0.0,2.857142857142857,0,636480.109261355,853122.6314946748,257267.2843023974,182603.71618434295,334118.0668202308,4.2432007284090335e-06,0.0,0.0,0.0,4.2432007284090335e-06,0.0,24.56035614169524,2.422557694826504,0.017910430853106576,0.0
219,4.827586206896552,0.0,3.2142857142857144,0,250359.14719817782,439228.7754775119,497089.77402647125,222866.01919655062,135468.02739328373,1.6690609813211854e-06,0.0,0.0,0.0,1.6690609813211854e-06,0.0,22.323032780155618,2.71214366750607,0.0053506481957856225,0.0
220,4.827586206896552,0.0,3.5714285714285716,0,332747.7615813633,536275.2287364057,152815.25531420388,323571.2241772386,17130.014714809156,2.2183184105424218e-06,0.0,0.0,0.0,2.2183184105424218e-06,0.0,24.051622699322856,3.001569038114603,0.000603108601508069,0.0
221,4.827586206896552,0.0,3.928571428571429,0,243504.31713737122,475360.569204365,272371.8847569359,205369.79391969813,-43499.11720367385,1.6233621142491416e-06,0.0,0.0,0.0,1.6233621142491416e-06,0.0,23.550636593235286,3.2957779837018664,-0.001474763067793618,0.0
222,4.827586206896552,0.0,4.285714285714286,0,216162.96471768245,344960.94968692673,119492.98242738197,139493.07731940827,-18235.383824488665,1.4410864314512164e-06,0.0,0.0,0.0,1.4410864314512164e-06,0.0,23.91265044480025,3.594917033643023,-0.0006110064939716765,0.0
223,4.827586206896552,0.0,4.642857142857143,0,206122.62709224975,401666.3456445895,202258.80386155052,189428.08399825828,24774.85683821614,1.374150847281665e-06,0.0,0.0,0.0,1.374150847281665e-06,0.0,23.65254962402928,3.8969349816318726,0.0008271341802463574,0.0
224,4.827586206896552,0.0,5.0,0,188686.46517946429,345034.7056152607,209090.47706820813,129611.0495204254,-60756.59766476779,1.2579097678630953e-06,0.0,0.0,0.0,1.2579097678630953e-06,0.0,24.277609685030463,4.200096465338184,-0.002026193524263574,0.0
225,5.172413793103448,0.0,0.0,0,51720.39085390734,228883.5857403733,170564.59103878945,188580.9302722244,-44091.27377453928,3.448026056927156e-07,0.0,0.0,0.0,3.448026056927156e-07,0.0,23.780141618144206,-0.04990353466181586,-0.0014704156722440997,0.0
226,5.172413793103448,0.0,0.35714285714285715,0,256779.01709140997,286728.76711805403,196924.5856273419,-2891.2640373137265,-11644.112753853902,1.7118601139427332e-06,0.0,0.0,0.0,1.7118601139427332e-06,0.0,22.8648401170568,0.2540778387747294,-0.000388750729025346,0.0
227,5.172413793103448,0.0,0.7142857142857143,0,189112.20730973076,321733.2650347051,284157.5117002651,116654.01974142513,29053.41369356982,1.2607480487315384e-06,0.0,0.0,0.0,1.2607480487315384e-06,0.0,22.847065876461826,0.5592027479287373,0.0009734823576884356,0.0
228,5.172413793103448,0.0,1.0714285714285714,0,261565.7807262676,293588.2503670168,179949.24142798016,-5576.646842815581,-6792.842210772048,1.7437718715084507e-06,0.0,0.0,0.0,1.7437718715084507e-06,0.0,23.477261307757963,0.867206555130437,-0.0002302996810461726,0.0
229,5.172413793103448,0.0,1.4285714285714286,0,175670.29903425023,358886.66500602313,303627.2422737576,162230.76894575643,22016.24151256387,1.1711353268950016e-06,0.0,0.0,0.0,1.1711353268950016e-06,0.0,23.893334768518315,1.1801404666860311,0.0007751414607733582,0.0
230,5.172413793103448,0.0,1.7857142857142858,0,305259.7032625607,527781.4746138434,272497.8710464002,189649.29835147245,56888.81146648038,2.0350646884170714e-06,0.0,0.0,0.0,2.0350646884170714e-06,0.0,24.247857788113453,1.4978579532203558,0.00224696574011384,0.0
231,5.172413793103448,0.0,2.142857142857143,0,252354.0984543516,783635.844134934,527376.0350984024,535377.7842527868,289197.18463569786,1.682360656362344e-06,0.0,0.0,0.0,1.682360656362344e-06,0.0,23.26428360320027,1.8154148376836474,0.01550244267729953,0.0
232,5.172413793103448,0.0,2.5,0,380074.4538531288,946997.3391138508,716741.9515889789,508305.99958974647,479492.5397834841,2.5338296923541922e-06,0.0,0.0,0.0,2.5338296923541922e-06,0.0,22.49803188352998,2.124970282315356,0.04794925397834841,0.0
233,5.172413793103448,0.0,2.857142857142857,0,341677.8424467273,627561.460483468,398813.09430142207,234800.16069011972,367310.137537943,2.277852282978182e-06,0.0,0.0,0.0,2.277852282978182e-06,0.0,23.823998916751414,2.422557694826504,0.019689694971083367,0.0
234,5.172413793103448,0.0,3.2142857142857144,0,263077.13784378587,460514.06282590935,235287.7220945006,171366.47078377148,-10800.604560473017,1.753847585625239e-06,0.0,0.0,0.0,1.753847585625239e-06,0.0,23.63437447962144,2.71214366750607,-0.0004265968613916206,0.0
235,5.172413793103448,0.0,3.5714285714285716,0,112010.3300474131,278878.1570056333,299629.355430457,178694.4741098449,-4051.6220600904508,7.467355336494206e-07,0.0,0.0,0.0,7.467355336494206e-07,0.0,23.6895428714899,3.001569038114603,-0.00014264833715454383,0.0
236,5.172413793103448,0.0,3.928571428571429,0,261381.25839207362,386103.80214220565,298602.2076054568,92197.52231594532,37220.90772101993,1.7425417226138242e-06,0.0,0.0,0.0,1.7425417226138242e-06,0.0,23.07205929082759,3.2957779837018664,0.00126191112798212,0.0
237,5.172413793103448,0.0,4.285714285714286,0,79895.5612289163,181454.15633155074,214466.8802598317,123355.41962133892,-23951.856766608285,5.32637074859442e-07,0.0,0.0,0.0,5.32637074859442e-07,0.0,24.223794580107594,3.594917033643023,-0.0008025463114970915,0.0
238,5.172413793103448,0.0,4.642857142857143,0,186438.41374560873,384556.113326939,190146.54168445873,207270.30003776934,-48630.02809447842,1.2429227583040583e-06,0.0,0.0,0.0,1.2429227583040583e-06,0.0,23.223976593013912,3.8969349816318726,-0.0016235637075907297,0.0
239,5.172413793103448,0.0,5.0,0,282312.9894432373,399022.93028995954,228408.78483872092,73156.64648038466,-66130.32579514413,1.8820865962882487e-06,0.0,0.0,0.0,1.8820865962882487e-06,0.0,23.79089433532637,4.200096465338184,-0.002205403907290593,0.0
240,5.517241379310345,0.0,0.0,0,161395.82454031,274925.3379596437,208073.4554348189,90845.05214915065,19495.82950429117,1.0759721636020667e-06,0.0,0.0,0.0,1.0759721636020667e-06,0.0,23.701651143427455,-0.0499039923898561,0.0006501733969650597,0.0
241,5.517241379310345,0.0,0.35714285714285715,0,105617.89932461773,140296.7481847726,219085.14357139656,99071.88968138973,21470.578596559233,7.041193288307848e-07,0.0,0.0,0.0,7.041193288307848e-07,0.0,23.8434811703285,0.2540754358582593,0.0007168174388594656,0.0
242,5.517241379310345,0.0,0.7142857142857143,0,232080.7662725756,272385.4985910124,57061.794369998854,302883.91165856604,-10102.561382485288,1.5472051084838374e-06,0.0,0.0,0.0,1.5472051084838374e-06,0.0,23.20097198698112,0.5591929737467328,-0.00033850291662939957,0.0
243,5.517241379310345,0.0,1.0714285714285714,0,146471.01867157427,298602.7383205885,147062.23630481886,157791.21966442475,-38252.926078571494,9.764734578104952e-07,0.0,0.0,0.0,9.764734578104952e-07,0.0,23.116327698576434,0.8671757493113467,-0.0012968999428556673,0.0
244,5.517241379310345,0.0,1.4285714285714286,0,82349.97662208643,280471.10900458,186641.0799232234,220197.0944413696,-717.003298233566,5.489998441472428e-07,0.0,0.0,0.0,5.489998441472428e-07,0.0,24.009273886575006,1.1800652358841561,-2.5244044659253913e-05,0.0
245,5.517241379310345,0.0,1.7857142857142858,0,149741.49475190425,451659.3759035143,367676.4532576819,278776.1013208198,112364.50668271085,9.982766316793616e-07,0.0,0.0,0.0,9.982766316793616e-07,0.0,23.863796684909527,1.4977155993718982,0.004438116923388493,0.0
246,5.517241379310345,0.0,2.142857142857143,0,500078.7841038976,974375.1001256424,549972.4774736385,423071.1484008842,186685.97630628146,3.3338585606926506e-06,0.0,0.0,0.0,3.3338585606926506e-06,0.0,23.759747973365386,1.8152061228454521,0.010007319573285316,0.0
247,5.517241379310345,0.0,2.5,0,485365.98560389434,994559.5624848759,726166.0634507838,434271.4645008405,599392.187122179,3.2357732373592955e-06,0.0,0.0,0.0,3.2357732373592955e-06,0.0,24.159827324140103,2.1247331733202994,0.0599392187122179,0.0
248,5.517241379310345,0.0,2.857142857142857,0,235077.57796638407,608098.7058089273,560671.4625857574,352923.51046915504,154909.16026014875,1.5671838531092272e-06,0.0,0.0,0.0,1.5671838531092272e-06,0.0,23.772532600268566,2.422348979988309,0.008303920317020716,0.0
249,5.517241379310345,0.0,3.2142857142857144,0,249857.67757904078,342653.52709984756,221486.50988577705,55315.14092724425,-4210.483412350346,1.6657178505269385e-06,0.0,0.0,0.0,1.6657178505269385e-06,0.0,23.421397810469234,2.7120013136576127,-0.00016630356186019587,0.0
250,5.517241379310345,0.0,3.5714285714285716,0,173200.0365390625,328529.6161034525,347794.46840276296,165767.43167450844,8259.911874942647,1.1546669102604166e-06,0.0,0.0,0.0,1.1546669102604166e-06,0.0,23.870148308751027,3.0014938073127277,0.00029081258728691365,0.0
251,5.517241379310345,0.0,3.928571428571429,0,174691.66835900393,289572.17195303907,288687.4062983924,114439.8011860674,28858.99733495648,1.1646111223933595e-06,0.0,0.0,0.0,1.1646111223933595e-06,0.0,23.841123065132155,3.295747177882776,0.0009784148777978812,0.0
252,5.517241379310345,0.0,4.285714285714286,0,182837.2303653538,322738.77697671327,131639.45486242155,149470.13739265228,43211.79155066992,1.2189148691023588e-06,0.0,0.0,0.0,1.2189148691023588e-06,0.0,23.85840085728258,3.5949072594610185,0.001447882068605161,0.0
253,5.517241379310345,0.0,4.642857142857143,0,133809.71480415645,261333.48875337144,224341.612038142,112919.34316988848,29025.52252869108,8.92064765361043e-07,0.0,0.0,0.0,8.92064765361043e-07,0.0,23.183826159762553,3.8969325787154023,0.000969047043935198,0.0
254,5.517241379310345,0.0,5.0,0,156863.7944687449,322543.4505256039,169981.29606763783,161705.63621736492,45420.74950990811,1.0457586297916325e-06,0.0,0.0,0.0,1.0457586297916325e-06,0.0,23.140559788010968,4.200096007610144,0.0015147528344488222,0.0
255,5.862068965517242,0.0,0.0,0,203123.57803857257,381174.8732171814,200001.83294069124,161586.66679956234,5003.269211736806,1.3541571869238171e-06,0.0,0.0,0.0,1.3541571869238171e-06,0.0,23.99043070512221,-0.04990490142894272,0.0001668558159379476,0.0
256,5.862068965517242,0.0,0.35714285714285715,0,340494.5392534519,319698.9790246637,250311.82042027806,-50144.71280477841,-17085.424928478733,2.2699635950230127e-06,0.0,0.0,0.0,2.2699635950230127e-06,0.0,23.4808853287486,0.25407066371235354,-0.0005704145551541147,0.0
257,5.862068965517242,0.0,0.7142857142857143,0,207962.8732001338,273093.43646148726,310495.15404349216,86369.3934730514,32654.49570768233,1.3864191546675585e-06,0.0,0.0,0.0,1.3864191546675585e-06,0.0,22.588221789003832,0.559173562409212,0.0010941425267928853,0.0
258,5.862068965517242,0.0,1.0714285714285714,0,251059.8045352061,273682.8740796752,241548.31780861065,8102.964654257636,38917.73404084413,1.6737320302347072e-06,0.0,0.0,0.0,1.6737320302347072e-06,0.0,22.878875769859086,0.8671145695469745,0.0013194391181990236,0.0
259,5.862068965517242,0.0,1.4285714285714286,0,139458.32356807668,306590.9384116856,250573.0557573004,147833.68302420378,34880.20044371608,9.297221571205112e-07,0.0,0.0,0.0,9.297221571205112e-07,0.0,22.91002745962222,1.1799158289581873,0.001228052004633967,0.0
260,5.862068965517242,0.0,1.7857142857142858,0,374414.8453587906,584592.1059281338,298903.5642899382,160726.44925463566,78785.37624663828,2.496098969058604e-06,0.0,0.0,0.0,2.496098969058604e-06,0.0,24.107687546002758,1.4974328873660738,0.0031118252725754717,0.0
261,5.862068965517242,0.0,2.142857142857143,0,126018.72905584087,612770.8032475058,515999.652544508,470272.3787915265,361801.8520009537,8.401248603722724e-07,0.0,0.0,0.0,8.401248603722724e-07,0.0,23.554571508023834,1.8147916191900126,0.019394422799278017,0.0
262,5.862068965517242,0.0,2.5,0,453430.1809252647,831891.1657520286,801312.7544237112,363945.744462374,503892.0085936814,3.022867872835098e-06,0.0,0.0,0.0,3.022867872835098e-06,0.0,23.601172551820344,2.124262279415303,0.05038920085936814,0.0
263,5.862068965517242,0.0,2.857142857142857,0,429901.86054116645,707854.6695353454,484210.69390717684,212231.77132541945,262830.60066984216,2.866012403607776e-06,0.0,0.0,0.0,2.866012403607776e-06,0.0,23.411604915612514,2.42193447633287,0.014089059427937053,0.0
264,5.862068965517242,0.0,3.2142857142857144,0,165030.14973176696,425460.96576256753,247232.92154524015,277942.97536972625,84127.53917953058,1.1002009982117797e-06,0.0,0.0,0.0,1.1002009982117797e-06,0.0,23.06357922112829,2.7117186016517882,0.0033228273444923326,0.0
265,5.862068965517242,0.0,3.5714285714285716,0,122447.2557555503,239519.90112556846,124153.66509728535,111046.21784623778,19916.757229340874,8.163150383703353e-07,0.0,0.0,0.0,8.163150383703353e-07,0.0,23.97759827268399,3.001344400386759,0.0007012234256155642,0.0
266,5.862068965517242,0.0,3.928571428571429,0,191084.8493360452,302439.7901674694,228012.61853249397,85340.49969952168,25332.227625482425,1.2738989955736347e-06,0.0,0.0,0.0,1.2738989955736347e-06,0.0,23.928598069834397,3.2956859981184037,0.0008588457911014209,0.0
267,5.862068965517242,0.0,4.285714285714286,0,121650.21563641724,272381.16028374375,206659.54816720347,132006.27496145776,-3634.234624865722,8.110014375761149e-07,0.0,0.0,0.0,8.110014375761149e-07,0.0,23.254915628117175,3.594887848123498,-0.00012177100179419675,0.0
268,5.862068965517242,0.0,4.642857142857143,0,129741.08559788727,302367.9740890049,156899.67889768796,198618.0141919216,24992.413506318455,8.649405706525818e-07,0.0,0.0,0.0,8.649405706525818e-07,0.0,24.31293236302659,3.8969278065694968,0.000834397534279159,0.0
269,5.862068965517242,0.0,5.0,0,90329.35441277937,245485.4394143382,248762.01027117608,156838.95131369194,23568.46348175621,6.021956960851958e-07,0.0,0.0,0.0,6.021956960851958e-07,0.0,23.98910346276137,4.200095098571057,0.0007859931253403485,0.0
270,6.206896551724139,0.0,0.0,0,178091.56228140864,323281.3626270013,159967.97238663674,133397.32816050763,5543.62864824016,1.1872770818760576e-06,0.0,0.0,0.0,1.1872770818760576e-06,0.0,23.103483103521945,-0.049906249384656744,0.00018487645621571478,0.0
271,6.206896551724139,0.0,0.35714285714285715,0,62462.990352503715,214316.72551217803,174924.2025908423,246944.42622178164,-19499.51725557228,4.164199356833581e-07,0.0,0.0,0.0,4.164199356833581e-07,0.0,23.39148115199202,0.25406358740349455,-0.000651011520498812,0.0
272,6.206896551724139,0.0,0.7142857142857143,0,247274.35859581054,349991.68969162693,181634.57818532523,66097.03375396287,32349.11065172678,1.6484957239720703e-06,0.0,0.0,0.0,1.6484957239720703e-06,0.0,23.3558903690943,0.5591447785827378,0.0010839100987756498,0.0
273,6.206896551724139,0.0,1.0714285714285714,0,105158.47175030025,174722.32846781638,169172.01014323652,66898.61074458963,-32320.244967675877,7.01056478335335e-07,0.0,0.0,0.0,7.01056478335335e-07,0.0,23.700801893570205,0.8670238500012687,-0.0010957625507017244,0.0
274,6.206896551724139,0.0,1.4285714285714286,0,177866.7392819179,339293.8767376487,233230.86829254284,133948.3691455375,-25971.15601224565,1.1857782618794527e-06,0.0,0.0,0.0,1.1857782618794527e-06,0.0,22.835023259391185,1.179694283017494,-0.0009143849461233729,0.0
275,6.206896551724139,0.0,1.7857142857142858,0,152472.9717968392,489668.88542709715,415985.95053443976,314349.5282013418,54614.576982702936,1.0164864786455947e-06,0.0,0.0,0.0,1.0164864786455947e-06,0.0,23.201551940065183,1.497013671878776,0.002157139167220076,0.0
276,6.206896551724139,0.0,2.142857142857143,0,362831.05440239445,557086.9290475772,312370.16193916416,140226.16526401095,83720.56778017871,2.418873696015963e-06,0.0,0.0,0.0,2.418873696015963e-06,0.0,23.956008551462094,1.8141769783246733,0.004487849024388407,0.0
277,6.206896551724139,0.0,2.5,0,244143.52542113236,845672.4487153966,621817.2261994759,585344.397702967,570051.5392439661,1.6276235028075492e-06,0.0,0.0,0.0,1.6276235028075492e-06,0.0,22.770114948820403,2.1235640210683577,0.05700515392439662,0.0
278,6.206896551724139,0.0,2.857142857142857,0,657051.3392291848,832033.5959276201,486559.4870197478,74316.03544070595,250841.74274608545,4.380342261527898e-06,0.0,0.0,0.0,4.380342261527898e-06,0.0,23.469406339630584,2.4213198354675303,0.013446395554969374,0.0
279,6.206896551724139,0.0,3.2142857142857144,0,137478.58399896263,248900.46023673005,326756.8463128469,168019.85385364908,115939.56874725652,9.165238933264175e-07,0.0,0.0,0.0,9.165238933264175e-07,0.0,22.95988010387036,2.7112993861644905,0.004579322931577781,0.0
280,6.206896551724139,0.0,3.5714285714285716,0,183059.53931106947,343537.55471782765,272935.2070073195,135689.9340544623,60236.83871898311,1.2203969287404631e-06,0.0,0.0,0.0,1.2203969287404631e-06,0.0,24.034350785087142,3.0011228544460655,0.002120801188084546,0.0
281,6.206896551724139,0.0,3.928571428571429,0,113526.65102640595,134665.6240711338,190674.1089772906,60026.85552414964,-3986.745913192872,7.568443401760396e-07,0.0,0.0,0.0,7.568443401760396e-07,0.0,23.75413787075635,3.295595278572698,-0.0001351637920816797,0.0
282,6.206896551724139,0.0,4.285714285714286,0,137082.77765409232,210365.8101634764,207544.51787952357,71894.16241364766,35168.18333886724,9.138851843606155e-07,0.0,0.0,0.0,9.138851843606155e-07,0.0,22.853367724708846,3.5948590642970237,0.0011783677606159156,0.0
283,6.206896551724139,0.0,4.642857142857143,0,174442.20041317065,344570.2837567337,219131.87748351425,145363.03733898213,-27551.160083231352,1.162948002754471e-06,0.0,0.0,0.0,1.162948002754471e-06,0.0,23.070742804525135,3.896920730260638,-0.0009198239311368132,0.0
284,6.206896551724139,0.0,5.0,0,65492.18284962304,229604.3329360136,155676.05199310282,178849.50821655957,11258.713201523464,4.3661455233082024e-07,0.0,0.0,0.0,4.3661455233082024e-07,0.0,23.603646039655985,4.200093750615343,0.0003754708567839426,0.0
285,6.551724137931035,0.0,0.0,0,195155.69782927644,190126.3353675011,188787.81169283646,-5695.181545223907,-11761.76354711232,1.3010379855285095e-06,0.0,0.0,0.0,1.3010379855285095e-06,0.0,22.350705206650105,-0.04990801869620095,-0.0003922472628334499,0.0
286,6.551724137931035,0.0,0.35714285714285715,0,113489.49091617181,238669.7807886022,161490.78578247665,108361.05631651629,17308.235326722086,7.565966061078121e-07,0.0,0.0,0.0,7.565966061078121e-07,0.0,22.958883171112614,0.2540542991198927,0.00057785331039314,0.0
287,6.551724137931035,0.0,0.7142857142857143,0,230469.52369023752,352407.14751417853,167895.12367671847,94070.77509319529,22006.121800567027,1.53646349126825e-06,0.0,0.0,0.0,1.53646349126825e-06,0.0,23.101697781602457,0.5591069972551037,0.0007373512648097589,0.0
288,6.551724137931035,0.0,1.0714285714285714,0,54747.12049447461,162752.92659833975,163247.13890104115,108254.58528520793,-3942.532632191707,3.649808032964974e-07,0.0,0.0,0.0,3.649808032964974e-07,0.0,24.16083793112276,0.8669047725435793,-0.00013366481651348145,0.0
289,6.551724137931035,0.0,1.4285714285714286,0,135912.04324463545,235721.198935372,237057.8123316583,100482.39177480902,20013.73238822868,9.060802882975697e-07,0.0,0.0,0.0,9.060802882975697e-07,0.0,23.234819379856166,1.179403484301805,0.0007046376989499173,0.0
290,6.551724137931035,0.0,1.7857142857142858,0,428639.447083039,555618.4899724113,306279.17643122416,60672.982466503665,85431.18179067242,2.8575963138869265e-06,0.0,0.0,0.0,2.8575963138869265e-06,0.0,23.85757798062373,1.4964634143343525,0.0033743179664455485,0.0
291,6.551724137931035,0.0,2.142857142857143,0,399610.0394252723,868848.1520728143,493425.8178427495,448797.2835927228,250823.34696963037,2.6640669295018156e-06,0.0,0.0,0.0,2.6640669295018156e-06,0.0,23.296153915578852,1.8133702076219869,0.013445409447617193,0.0
292,6.551724137931035,0.0,2.5,0,238566.4418290581,729950.7567556134,519147.3770271071,470973.68315992766,619330.65236658,1.590442945527054e-06,0.0,0.0,0.0,1.590442945527054e-06,0.0,23.90962930630561,2.1226474949976244,0.061933065236657994,0.0
293,6.551724137931035,0.0,2.857142857142857,0,236289.62137921766,476499.5541884724,240201.58244708343,240218.28405681334,230237.74821865122,1.5752641425281178e-06,0.0,0.0,0.0,1.5752641425281178e-06,0.0,22.76598681931746,2.420513064764844,0.012341916462313937,0.0
294,6.551724137931035,0.0,3.2142857142857144,0,418786.8843786103,606790.812708689,301979.87182674033,129269.71319624204,115837.66351532133,2.7919125625240685e-06,0.0,0.0,0.0,2.7919125625240685e-06,0.0,23.18519133082774,2.710749128620067,0.004575297929842042,0.0
295,6.551724137931035,0.0,3.5714285714285716,0,270247.83396583307,393662.1593766834,212729.13813046415,83010.90102962074,37939.55844671066,1.8016522264388871e-06,0.0,0.0,0.0,1.8016522264388871e-06,0.0,23.49690393179472,3.0008320557303767,0.0013357649959779524,0.0
296,6.551724137931035,0.0,3.928571428571429,0,285382.6921144569,291721.1322759745,192252.9523150359,-30084.34877665195,-47605.75859560621,1.9025512807630461e-06,0.0,0.0,0.0,1.9025512807630461e-06,0.0,23.64521616218266,3.2954762011150085,-0.001613991710736811,0.0
297,6.551724137931035,0.0,4.285714285714286,0,81241.05838953241,208794.41132088887,144907.21237019871,117361.91434418128,37223.44908328665,5.41607055930216e-07,0.0,0.0,0.0,5.41607055930216e-07,0.0,23.722925932687655,3.5948212829693893,0.0012472328159810447,0.0
298,6.551724137931035,0.0,4.642857142857143,0,121447.43782609301,246070.75361043727,114538.65162557426,138186.30087832166,26688.380092106137,8.096495855072867e-07,0.0,0.0,0.0,8.096495855072867e-07,0.0,23.66212036652756,3.896911441977036,0.000891019130150375,0.0
299,6.551724137931035,0.0,5.0,0,120483.90585100069,240489.84185805352,204958.63666887197,106235.94945514765,2836.051406429211,8.032260390066712e-07,0.0,0.0,0.0,8.032260390066712e-07,0.0,23.823478674523823,4.2000919813038,9.458049356041784e-05,0.0
300,6.8965517241379315,0.0,0.0,0,144139.73137760608,257353.2488109087,155758.01821732172,92384.40683205947,8903.905474459683,9.60931542517374e-07,0.0,0.0,0.0,9.60931542517374e-07,0.0,23.466312149967727,-0.04991018770100537,0.00029693953095512174,0.0
301,6.8965517241379315,0.0,0.35714285714285715,0,183021.14459125663,311491.48939497425,177268.79885444403,103012.03819009793,11897.42294523184,1.220140963941711e-06,0.0,0.0,0.0,1.220140963941711e-06,0.0,23.563870083655832,0.25404291258266964,0.00039720775135494604,0.0
302,6.8965517241379315,0.0,0.7142857142857143,0,199047.33570728533,284798.4288901994,155905.78218123363,55549.62961245544,33313.294664626694,1.3269822380485688e-06,0.0,0.0,0.0,1.3269822380485688e-06,0.0,22.974980276216186,0.5590606810020822,0.0011162166681868387,0.0
303,6.8965517241379315,0.0,1.0714285714285714,0,111730.31432638282,195760.98810520017,174367.15902127087,74880.63017305089,-10147.497708028814,7.448687621758855e-07,0.0,0.0,0.0,7.448687621758855e-07,0.0,22.677285007240222,0.8667587950990354,-0.00034403353015765,0.0
304,6.8965517241379315,0.0,1.4285714285714286,0,236218.43893614731,369808.69134832826,176928.00458684054,106344.60295136523,49635.59327971621,1.5747895929076488e-06,0.0,0.0,0.0,1.5747895929076488e-06,0.0,22.932122468134942,1.179046993205869,0.0017475556061299312,0.0
305,6.8965517241379315,0.0,1.7857142857142858,0,224526.1496821519,441402.6996611417,210345.74514856347,224033.63756942787,-1274.894430855682,1.4968409978810127e-06,0.0,0.0,0.0,1.4968409978810127e-06,0.0,22.65228259239095,1.4957888518123204,-5.035514074823897e-05,0.0
306,6.8965517241379315,0.0,2.142857142857143,0,255495.33866569583,700007.8393356602,489117.48409519874,415895.9003136159,123794.01911397086,1.7033022577713055e-06,0.0,0.0,0.0,1.7033022577713055e-06,0.0,23.612740154103083,1.8123811847809177,0.006635990206904542,0.0
307,6.8965517241379315,0.0,2.5,0,614962.2069013169,936533.0976344565,419547.9432184834,256468.1322153142,460803.9458886668,4.099748046008779e-06,0.0,0.0,0.0,4.099748046008779e-06,0.0,23.974802261015792,2.1215239226921696,0.046080394588866674,0.0
308,6.8965517241379315,0.0,2.857142857142857,0,348050.30647480424,478616.63741434424,450987.3547514511,117575.14963830664,309604.72587200045,2.320335376498695e-06,0.0,0.0,0.0,2.320335376498695e-06,0.0,23.036058636398618,2.4195240419237747,0.01659639087253848,0.0
309,6.8965517241379315,0.0,3.2142857142857144,0,213442.66044798613,412412.1014506384,324871.9688083667,169116.81571640578,36295.96333129123,1.422951069653241e-06,0.0,0.0,0.0,1.422951069653241e-06,0.0,24.018978898065424,2.7100745660980348,0.0014335997537563833,0.0
310,6.8965517241379315,0.0,3.5714285714285716,0,80301.47958054786,259155.942067107,168952.0233783104,232648.80492443664,-62012.333038139,5.353431972036524e-07,0.0,0.0,0.0,5.353431972036524e-07,0.0,23.74535703127807,3.0004755646344408,-0.0021833122783339837,0.0
311,6.8965517241379315,0.0,3.928571428571429,0,103334.28584597,171283.1113541845,114589.01639292906,52011.31845906719,-37043.22896369308,6.888952389731332e-07,0.0,0.0,0.0,6.888952389731332e-07,0.0,23.247321217759882,3.2953302236704647,-0.0012558872340256014,0.0
312,6.8965517241379315,0.0,4.285714285714286,0,135435.43280944266,258994.14698754784,287059.05032510846,139789.8643794363,10570.156414587991,9.029028853962844e-07,0.0,0.0,0.0,9.029028853962844e-07,0.0,23.35423580967959,3.594774966716368,0.00035417045639239426,0.0
313,6.8965517241379315,0.0,4.642857142857143,0,210952.41576180884,362701.19614255975,143516.2856592965,161079.38157426563,-242.72411387749042,1.4063494384120588e-06,0.0,0.0,0.0,1.4063494384120588e-06,0.0,24.09140555297462,3.8969000554398128,-8.103595200130215e-06,0.0
314,6.8965517241379315,0.0,5.0,0,104693.51651505208,152549.0417894862,199062.9153452214,79172.25218045361,31000.090688030476,6.979567767670139e-07,0.0,0.0,0.0,6.979567767670139e-07,0.0,22.37653394796607,4.2000898122989945,0.0010338331213055251,0.0
315,7.241379310344828,0.0,0.0,0,187826.2811116735,237686.09334899922,260257.22062468092,62165.2865484363,1744.5747982141245,1.2521752074111568e-06,0.0,0.0,0.0,1.2521752074111568e-06,0.0,23.9901680300831,-0.04991273181431152,5.818044944252557e-05,0.0
316,7.241379310344828,0.0,0.35714285714285715,0,127349.34381725184,269931.51130586845,205296.06720486272,123226.07184180783,-17720.613820848783,8.489956254483456e-07,0.0,0.0,0.0,8.489956254483456e-07,0.0,23.88720341250768,0.25402955685344253,-0.0005916209922779679,0.0
317,7.241379310344828,0.0,0.7142857142857143,0,118028.15075571089,245950.62916327448,153605.5225466487,112974.09936893977,7422.5918280604765,7.868543383714059e-07,0.0,0.0,0.0,7.868543383714059e-07,0.0,23.149314571263055,0.5590063547989481,0.00024870613378346154,0.0
318,7.241379310344828,0.0,1.0714285714285714,0,95551.8650934943,241709.692179851,169793.9397993231,133286.29078965297,25275.10470562857,6.370124339566286e-07,0.0,0.0,0.0,6.370124339566286e-07,0.0,23.40223553034208,0.8665875722606593,0.0008569091363382782,0.0
319,7.241379310344828,0.0,1.4285714285714286,0,72531.66919400162,212717.05762004358,153318.86418045487,234152.4306653009,42446.295248400034,4.835444612933441e-07,0.0,0.0,0.0,4.835444612933441e-07,0.0,24.26678867668297,1.1786288504065299,0.0014944368812672294,0.0
320,7.241379310344828,0.0,1.7857142857142858,0,225699.49307400518,430854.8976062425,360778.1968041315,178429.32776167538,38795.71958370559,1.5046632871600345e-06,0.0,0.0,0.0,1.5046632871600345e-06,0.0,22.803190448631508,1.4949976301955474,0.0015323338723469953,0.0
321,7.241379310344828,0.0,2.142857142857143,0,408729.4943310415,517637.1894476272,496048.9893683702,98541.40958153465,234164.085054982,2.724863295540277e-06,0.0,0.0,0.0,2.724863295540277e-06,0.0,23.37184723377706,1.811221119959975,0.01255238812307254,0.0
322,7.241379310344828,0.0,2.5,0,121284.30785331836,403351.01573046646,428541.21925225266,296639.89985641505,470032.3636189969,8.085620523554557e-07,0.0,0.0,0.0,8.085620523554557e-07,0.0,23.791219012164365,2.12020603937217,0.04700323636189969,0.0
323,7.241379310344828,0.0,2.857142857142857,0,469600.0388169447,755685.3518004032,299832.89124520816,273450.0632665047,184389.71674915034,3.130666925446298e-06,0.0,0.0,0.0,3.130666925446298e-06,0.0,23.577190355270275,2.418363977102832,0.009884228360618537,0.0
324,7.241379310344828,0.0,3.2142857142857144,0,277471.43358345266,490598.95585656696,179394.30001295963,269010.69692820095,73697.90221687494,1.8498095572230177e-06,0.0,0.0,0.0,1.8498095572230177e-06,0.0,23.503099828188645,2.709283344481262,0.0029108827752035117,0.0
325,7.241379310344828,0.0,3.5714285714285716,0,172779.5843803239,290364.03222164593,257879.9928841448,103648.04043434224,-3056.178859236469,1.151863895868826e-06,0.0,0.0,0.0,1.151863895868826e-06,0.0,24.390191030928747,3.0000574218351015,-0.00010760106097043523,0.0
326,7.241379310344828,0.0,3.928571428571429,0,156185.00994939855,258635.39025660575,179067.36333178106,78689.13454842487,-1710.5275435250294,1.041233399662657e-06,0.0,0.0,0.0,1.041233399662657e-06,0.0,22.932450714349095,3.2951590008320886,-5.799250674037581e-05,0.0
327,7.241379310344828,0.0,4.285714285714286,0,227076.4226496324,291618.1011022301,178350.34877029504,30187.950715738596,67.596411734055,1.5138428176642161e-06,0.0,0.0,0.0,1.5138428176642161e-06,0.0,22.95959827816572,3.5947206405132337,2.264928829368853e-06,0.0
328,7.241379310344828,0.0,4.642857142857143,0,125119.35900072102,250013.85777246914,128111.87355226581,121907.94269216164,3100.8315051992754,8.341290600048068e-07,0.0,0.0,0.0,8.341290600048068e-07,0.0,22.239492857880396,3.8968866997105858,0.00010352446199320821,0.0
329,7.241379310344828,0.0,5.0,0,173286.41789026922,282484.32686766284,97438.47298814413,255890.9577661059,45783.56581651339,1.1552427859351282e-06,0.0,0.0,0.0,1.1552427859351282e-06,0.0,22.961413804100278,4.200087268185689,0.0015268525253333749,0.0
330,7.586206896551724,0.0,0.0,0,136447.05563863547,228112.75544450703,216475.32715361522,86219.6987890433,-11374.832128529022,9.096470375909032e-07,0.0,0.0,0.0,9.096470375909032e-07,0.0,23.059102645467675,-0.04991562469392928,-0.0003793433484471737,0.0
331,7.586206896551724,0.0,0.35714285714285715,0,167232.11901963214,306246.3731270465,171853.51760742822,118964.55108150974,-10128.005692751844,1.1148807934642143e-06,0.0,0.0,0.0,1.1148807934642143e-06,0.0,23.556308241739032,0.25401437021974665,-0.0003381339291245697,0.0
332,7.586206896551724,0.0,0.7142857142857143,0,170471.4056911139,258979.3450318071,214513.9467090883,70681.53387426167,35212.02805010298,1.1364760379407593e-06,0.0,0.0,0.0,1.1364760379407593e-06,0.0,23.880987915177702,0.558944581148625,0.0011798368496983933,0.0
333,7.586206896551724,0.0,1.0714285714285714,0,194514.06340170518,260460.45832417585,156157.71538796055,36040.621305843575,11310.40647744363,1.2967604226780344e-06,0.0,0.0,0.0,1.2967604226780344e-06,0.0,22.92388641197827,0.8663928768993978,0.00038345996026923506,0.0
334,7.586206896551724,0.0,1.4285714285714286,0,66236.97803537615,217361.5622045125,190161.39091416847,141854.68960838608,26027.15806071642,4.415798535691743e-07,0.0,0.0,0.0,4.415798535691743e-07,0.0,23.339245063548237,1.1781533854268094,0.0009163566500417352,0.0
335,7.586206896551724,0.0,1.7857142857142858,0,240112.73735408482,441342.8427997838,351716.38388467225,169308.4654786872,964.8602322583756,1.6007515823605655e-06,0.0,0.0,0.0,1.6007515823605655e-06,0.0,24.113280016590657,1.4940979419297968,3.810956548389609e-05,0.0
336,7.586206896551724,0.0,2.142857142857143,0,567209.0487484245,515505.2525548409,523458.26940736664,-47685.469317245086,248476.55538375818,3.78139365832283e-06,0.0,0.0,0.0,3.78139365832283e-06,0.0,23.326303493246808,1.8099020246713888,0.013319609460728035,0.0
337,7.586206896551724,0.0,2.5,0,105033.16030147175,634738.2226995704,625402.5637721736,525348.8631324202,478804.0746606751,7.002210686764784e-07,0.0,0.0,0.0,7.002210686764784e-07,0.0,23.684137150016454,2.11870749062995,0.047880407466067504,0.0
338,7.586206896551724,0.0,2.857142857142857,0,189809.56391013015,517555.7847553988,396370.61372992786,298807.3068630264,191533.8891699586,1.265397092734201e-06,0.0,0.0,0.0,1.265397092734201e-06,0.0,23.98995874951246,2.417044881814246,0.010267192404925672,0.0
339,7.586206896551724,0.0,3.2142857142857144,0,163326.9907735172,328381.606714094,343472.8839699523,173124.00235152652,70198.88978527038,1.0888466051567814e-06,0.0,0.0,0.0,1.0888466051567814e-06,0.0,22.969313513105764,2.7083836562155112,0.002772680537269954,0.0
340,7.586206896551724,0.0,3.5714285714285716,0,280332.97013224725,415194.8542168068,268594.4955130812,91959.0326205421,-2293.0473710404376,1.868886467548315e-06,0.0,0.0,0.0,1.868886467548315e-06,0.0,22.872319854163358,2.9995819568553808,-8.073294834617776e-05,0.0
341,7.586206896551724,0.0,3.928571428571429,0,177344.13447026553,317490.755155295,170256.7951868753,120615.66061053803,-16021.913225444941,1.1822942298017703e-06,0.0,0.0,0.0,1.1822942298017703e-06,0.0,24.254242987380223,3.294964305470827,-0.0005431955271562317,0.0
342,7.586206896551724,0.0,4.285714285714286,0,205736.23433453788,336836.0117096356,145362.89700786409,119317.13676724739,24661.002032737753,1.3715748955635859e-06,0.0,0.0,0.0,1.3715748955635859e-06,0.0,23.73806770434025,3.5946588668629107,0.0008263073886942985,0.0
343,7.586206896551724,0.0,4.642857142857143,0,102859.46179341292,183258.50463020187,234961.61443225207,116507.89860596332,27604.805450938176,6.857297452894195e-07,0.0,0.0,0.0,6.857297452894195e-07,0.0,22.789708708902804,3.89687151307689,0.0009216149371366442,0.0
344,7.586206896551724,0.0,5.0,0,102995.34452813897,245999.63591109202,138033.97503505574,148824.17822986725,3122.2319604203917,6.866356301875931e-07,0.0,0.0,0.0,6.866356301875931e-07,0.0,22.929600351358882,4.200084375306071,0.00010412443129811881,0.0
345,7.931034482758621,0.0,0.0,0,36378.722684733875,186634.79254918726,207933.51542188003,165928.3767321,11347.267682061556,2.4252481789822585e-07,0.0,0.0,0.0,2.4252481789822585e-07,0.0,23.243879997038654,-0.04991883929012872,0.00037842409185482044,0.0
346,7.931034482758621,0.0,0.35714285714285715,0,38217.21120821043,216779.6483790233,173329.7199220774,201735.4790394597,33355.469441220266,2.547814080547362e-07,0.0,0.0,0.0,2.547814080547362e-07,0.0,24.045623663128847,0.25399749468346045,0.0011136067930951027,0.0
347,7.931034482758621,0.0,0.7142857142857143,0,136683.00298073643,206233.50527433335,83791.12598317568,58767.65713344698,-9987.313116296418,9.112200198715762e-07,0.0,0.0,0.0,9.112200198715762e-07,0.0,23.844401838871413,0.5588759376626208,-0.00033464133412923795,0.0
348,7.931034482758621,0.0,1.0714285714285714,0,220882.76637451173,324789.1577301772,240932.2748278223,74257.71085078767,9239.165105971062,1.4725517758300783e-06,0.0,0.0,0.0,1.4725517758300783e-06,0.0,23.89180222979238,0.8661765295047404,0.0003132380689873596,0.0
349,7.931034482758621,0.0,1.4285714285714286,0,203175.41283059443,278487.07999691914,44893.24210084551,142830.48046782165,-7883.308356609005,1.354502752203963e-06,0.0,0.0,0.0,1.354502752203963e-06,0.0,23.144792355062414,1.1776250440788345,-0.0002775532395836766,0.0
350,7.931034482758621,0.0,1.7857142857142858,0,407866.5567504218,525839.8549959689,131353.99646867727,105794.75186066996,1512.479927901455,2.7191103783361455e-06,0.0,0.0,0.0,2.7191103783361455e-06,0.0,23.363909993592124,1.4930981995063628,5.9739173538664184e-05,0.0
351,7.931034482758621,0.0,2.142857142857143,0,474418.1608592129,719479.7199954261,517044.9344333587,177424.8179789964,216774.04810476824,3.1627877390614193e-06,0.0,0.0,0.0,3.1627877390614193e-06,0.0,22.973299249740823,1.808436233051387,0.011620193533016588,0.0
352,7.931034482758621,0.0,2.5,0,644951.1300432459,1103282.6774434056,608326.6225417319,373906.4886231895,350839.5256712815,4.2996742002883056e-06,0.0,0.0,0.0,4.2996742002883056e-06,0.0,23.169381218054923,2.1170422885725118,0.03508395256712815,0.0
353,7.931034482758621,0.0,2.857142857142857,0,82138.88049573806,451983.19851906237,367489.08221977233,372421.88140324363,269424.5891527714,5.475925366382537e-07,0.0,0.0,0.0,5.475925366382537e-07,0.0,22.820539426790024,2.4155790901942438,0.014442530809756188,0.0
354,7.931034482758621,0.0,3.2142857142857144,0,243999.197329892,542377.8109783862,316092.6721185207,283867.1389742982,12182.763643724902,1.6266613155326132e-06,0.0,0.0,0.0,1.6266613155326132e-06,0.0,22.95072621603207,2.707383913792077,0.000481188687576705,0.0
355,7.931034482758621,0.0,3.5714285714285716,0,291179.4964446618,371804.90135004075,58589.85124453719,109330.72224455142,-38452.79106996452,1.9411966429644123e-06,0.0,0.0,0.0,1.9411966429644123e-06,0.0,23.02833837909554,2.999053615507406,-0.0013538347416735795,0.0
356,7.931034482758621,0.0,3.928571428571429,0,86460.33466065282,209597.77035545473,218985.75550650756,128214.53730924777,19496.86955153693,5.764022310710188e-07,0.0,0.0,0.0,5.764022310710188e-07,0.0,23.323598811935398,3.2947479580761696,0.0006610079698299747,0.0
357,7.931034482758621,0.0,4.285714285714286,0,165798.66384024438,303505.8071620541,189452.00594673256,113313.61545921983,17122.978271211745,1.105324425601629e-06,0.0,0.0,0.0,1.105324425601629e-06,0.0,23.611233073566,3.5945902233769065,0.0005737335183368236,0.0
358,7.931034482758621,0.0,4.642857142857143,0,145172.54494963627,268746.6607922634,173973.33745295217,101616.18636148456,-8316.609382070066,9.678169663309085e-07,0.0,0.0,0.0,9.678169663309085e-07,0.0,24.238762591126907,3.8968546375406037,-0.00027765859268484854,0.0
359,7.931034482758621,0.0,5.0,0,158853.6518679795,240313.1824083987,177286.62389425244,59618.059741377045,17704.32705775017,1.05902434578653e-06,0.0,0.0,0.0,1.05902434578653e-06,0.0,23.227602943073798,4.200081160709871,0.0005904279405800211,0.0
360,8.275862068965518,0.0,0.0,0,162074.36981810682,223229.4026698081,213457.36917601834,56490.11325602012,-21544.723930309498,1.0804957987873788e-06,0.0,0.0,0.0,1.0804957987873788e-06,0.0,23.58609117854964,-0.04992234871934774,-0.0007185027106110319,0.0
361,8.275862068965518,0.0,0.35714285714285715,0,74741.73515493378,228878.1225730079,185582.53091445685,142573.95984013757,-9952.927862560313,4.982782343662252e-07,0.0,0.0,0.0,4.982782343662252e-07,0.0,23.20724944972025,0.25397907137413783,-0.00033228877496281476,0.0
362,8.275862068965518,0.0,0.7142857142857143,0,303964.2099339875,378122.02539567306,87208.76785577371,62602.61891867661,10927.475140660095,2.0264280662265836e-06,0.0,0.0,0.0,2.0264280662265836e-06,0.0,23.78303178746287,0.5588009984041468,0.00036614300734876903,0.0
363,8.275862068965518,0.0,1.0714285714285714,0,285174.1488044375,276331.1832162735,314771.85883322294,12327.173572203445,28740.344351009608,1.9011609920295833e-06,0.0,0.0,0.0,1.9011609920295833e-06,0.0,22.678676493321838,0.8659403393828203,0.0009743921515942887,0.0
364,8.275862068965518,0.0,1.4285714285714286,0,218628.0865776134,371307.69963070215,301868.60866528394,126393.2452538652,-8243.446962444634,1.4575205771840893e-06,0.0,0.0,0.0,1.4575205771840893e-06,0.0,23.043277509900065,1.1770482448638897,-0.0002902328954118071,0.0
365,8.275862068965518,0.0,1.7857142857142858,0,160422.18287615397,387190.5839190945,203760.52927207018,317843.7940740346,21040.501583295118,1.0694812191743599e-06,0.0,0.0,0.0,1.0694812191743599e-06,0.0,23.647222227044402,1.4920067637381913,0.0008310471777096542,0.0
366,8.275862068965518,0.0,2.142857142857143,0,623708.1194969724,575166.187369771,429978.0002208699,-108330.60799995021,323970.6386323315,4.158054129979816e-06,0.0,0.0,0.0,4.158054129979816e-06,0.0,23.611319408672397,1.8068360034669901,0.017366476996836896,0.0
367,8.275862068965518,0.0,2.5,0,615366.1658855211,975320.9362547992,523416.99122942344,274487.25587211625,511771.06553898024,4.102441105903474e-06,0.0,0.0,0.0,4.102441105903474e-06,0.0,23.625242015715678,2.1152243592297943,0.051177106553898025,0.0
368,8.275862068965518,0.0,2.857142857142857,0,224710.68267818468,497518.28690566996,624053.9521841514,364606.5207862862,267152.2277097227,1.4980712178545645e-06,0.0,0.0,0.0,1.4980712178545645e-06,0.0,24.0346245313049,2.413978860609847,0.014320720657775133,0.0
369,8.275862068965518,0.0,3.2142857142857144,0,363980.23198979546,421749.494563585,123332.39114100135,16236.370969539548,102773.9656066478,2.4265348799319696e-06,0.0,0.0,0.0,2.4265348799319696e-06,0.0,22.467879687704528,2.706292478023906,0.004059314542541328,0.0
370,8.275862068965518,0.0,3.5714285714285716,0,182498.77507810624,323267.2280609496,192712.95139510717,114733.36723933251,66550.86036840445,1.2166585005207082e-06,0.0,0.0,0.0,1.2166585005207082e-06,0.0,22.712250677799474,2.9984768162924613,0.0023431034353547757,0.0
371,8.275862068965518,0.0,3.928571428571429,0,214772.00242016872,282447.75564872974,96114.95210888315,47552.46561919769,10287.11797901686,1.4318133494677916e-06,0.0,0.0,0.0,1.4318133494677916e-06,0.0,23.624835761128242,3.2945117679542495,0.00034876711631767255,0.0
372,8.275862068965518,0.0,4.285714285714286,0,178580.2093635298,258572.99266216435,172433.8434119782,53250.755805714456,-15815.365746016181,1.1905347290901988e-06,0.0,0.0,0.0,1.1905347290901988e-06,0.0,23.75564903138096,3.5945152841184327,-0.0005299198124020874,0.0
373,8.275862068965518,0.0,4.642857142857143,0,177646.5756857307,288487.8945708168,161865.4585590277,85414.82598796285,13294.368403368673,1.184310504571538e-06,0.0,0.0,0.0,1.184310504571538e-06,0.0,23.681224243242156,3.896836214231281,0.0004438462180839461,0.0
374,8.275862068965518,0.0,5.0,0,223503.3780266948,304308.7064129529,191350.72408713546,46871.68316124244,-21914.574116266995,1.4900225201779653e-06,0.0,0.0,0.0,1.4900225201779653e-06,0.0,24.712759265933883,4.200077651280653,-0.0007308369768559853,0.0
375,8.620689655172415,0.0,0.0,0,248554.578445131,331877.9933988561,167548.24825071477,45933.38775327272,35943.5522089903,1.6570305229675398e-06,0.0,0.0,0.0,1.6570305229675398e-06,0.0,22.77826854366441,-0.0499261269373935,0.0011986943891546854,0.0
376,8.620689655172415,0.0,0.35714285714285715,0,104777.09121828343,232357.6826968198,159121.72801705607,112339.4052928963,-20307.09596220344,6.985139414552229e-07,0.0,0.0,0.0,6.985139414552229e-07,0.0,23.425543993350814,0.25395923701492984,-0.0006779733695967006,0.0
377,8.620689655172415,0.0,0.7142857142857143,0,31959.631291903035,273843.37022057944,239223.4469222478,245464.81717830434,-5603.660849033215,2.130642086126869e-07,0.0,0.0,0.0,2.130642086126869e-07,0.0,23.21023028611202,0.5587203195127853,-0.00018775986300744292,0.0
378,8.620689655172415,0.0,1.0714285714285714,0,180787.6736477502,370606.9482326351,236591.6546699662,164984.33558740417,-24865.639391120792,1.205251157651668e-06,0.0,0.0,0.0,1.205251157651668e-06,0.0,23.56110090831966,0.8656860593488953,-0.0008430269161416906,0.0
379,8.620689655172415,0.0,1.4285714285714286,0,175876.90902289248,409819.1077535226,281669.1824222383,209304.10475647153,10702.275520105075,1.172512726819283e-06,0.0,0.0,0.0,1.172512726819283e-06,0.0,23.443056820878773,1.1764272683270574,0.00037680261980770427,0.0
380,8.620689655172415,0.0,1.7857142857142858,0,72423.31575869056,361233.60709068103,330953.6399202596,278584.5177744532,63281.72188945385,4.82822105057937e-07,0.0,0.0,0.0,4.82822105057937e-07,0.0,23.00107851516633,1.4908317343936055,0.0024994697093433946,0.0
381,8.620689655172415,0.0,2.142857142857143,0,520740.53582517884,789637.8274057896,432079.72879720974,192188.43016525384,333050.6204726402,3.471603572167859e-06,0.0,0.0,0.0,3.471603572167859e-06,0.0,23.458515540744905,1.8051132115496138,0.017853210289789333,0.0
382,8.620689655172415,0.0,2.5,0,163796.78429194159,524629.355327131,587022.3259547626,401198.14436186664,511268.946095034,1.0919785619462772e-06,0.0,0.0,0.0,1.0919785619462772e-06,0.0,23.31108409017562,2.113267193827696,0.0511268946095034,0.0
383,8.620689655172415,0.0,2.857142857142857,0,249307.63335984302,744700.6781916749,590391.6267908185,457080.39864204725,281673.51198571903,1.66205088906562e-06,0.0,0.0,0.0,1.66205088906562e-06,0.0,23.33818228570271,2.412256068692471,0.015099135486996177,0.0
384,8.620689655172415,0.0,3.2142857142857144,0,497467.0093705196,686961.3203568051,131781.94646709407,281679.3371775252,23876.49794616747,3.3164467291367972e-06,0.0,0.0,0.0,3.3164467291367972e-06,0.0,23.845710037980375,2.70511744867932,0.0009430619395265066,0.0
385,8.620689655172415,0.0,3.5714285714285716,0,124017.78459255221,281718.4707222247,270734.01104668435,152573.83642149228,-5584.423071152551,8.267852306170148e-07,0.0,0.0,0.0,8.267852306170148e-07,0.0,24.52389504670128,2.997855839755629,-0.00019661475163594065,0.0
386,8.620689655172415,0.0,3.928571428571429,0,89708.62532065039,249215.1609118449,227884.92642587045,150763.9213060329,-41474.388398173265,5.980575021376693e-07,0.0,0.0,0.0,5.980575021376693e-07,0.0,22.331393980558047,3.2942574879203246,-0.0014061181053988878,0.0
387,8.620689655172415,0.0,4.285714285714286,0,111339.06548493657,334710.1896299536,206849.76491240805,259153.65599806764,40469.31100547722,7.422604365662438e-07,0.0,0.0,0.0,7.422604365662438e-07,0.0,23.937444632164024,3.5944346052270713,0.001355990752314169,0.0
388,8.620689655172415,0.0,4.642857142857143,0,33108.83466658075,200116.43433956162,193951.10045153467,164358.29606741213,-2729.245149396801,2.2072556444387165e-07,0.0,0.0,0.0,2.2072556444387165e-07,0.0,23.618995793660964,3.896816379872073,-9.111866777189471e-05,0.0
389,8.620689655172415,0.0,5.0,0,180925.60648590134,252743.5231736006,54046.03548418629,97505.99358678314,47475.628310957036,1.206170709906009e-06,0.0,0.0,0.0,1.206170709906009e-06,0.0,22.93165659466533,4.200073873062607,0.0015832817231598872,0.0
390,8.965517241379311,0.0,0.0,0,207218.02714711052,356264.77726174536,194806.39013401305,122605.1985733915,-3852.303967854698,1.3814535143140702e-06,0.0,0.0,0.0,1.3814535143140702e-06,0.0,22.99538449614922,-0.04993014921654327,-0.00012847186401434072,0.0
391,8.965517241379311,0.0,0.35714285714285715,0,252350.4320567924,277972.7373032346,336787.9128178123,60223.85254535367,-60555.76748989827,1.6823362137119493e-06,0.0,0.0,0.0,1.6823362137119493e-06,0.0,23.622440616951906,0.2539381214179671,-0.002021716832877267,0.0
392,8.965517241379311,0.0,0.7142857142857143,0,70479.78556879384,304302.60605784954,224386.70961260598,277667.09362370096,-14380.005685076185,4.6986523712529226e-07,0.0,0.0,0.0,4.6986523712529226e-07,0.0,23.211411904862178,0.5586344290166255,-0.00048182571540566674,0.0
393,8.965517241379311,0.0,1.0714285714285714,0,156146.4641583473,378012.19310964126,210105.21436985637,237162.71849463586,125.12655690925966,1.0409764277223154e-06,0.0,0.0,0.0,1.0409764277223154e-06,0.0,23.166380758499365,0.8654153536177088,4.242201607584976e-06,0.0
394,8.965517241379311,0.0,1.4285714285714286,0,221829.29651870896,414615.95068449713,268957.4861644647,159314.95189816284,7305.338257657149,1.4788619767913931e-06,0.0,0.0,0.0,1.4788619767913931e-06,0.0,22.85228647605176,1.1757661786423577,0.0002572042355754674,0.0
395,8.965517241379311,0.0,1.7857142857142858,0,140283.24124721438,576979.7514069818,422290.2185189795,458008.6821486197,94771.90925756985,9.352216083147625e-07,0.0,0.0,0.0,9.352216083147625e-07,0.0,22.820801566540585,1.4895808018174934,0.0037432533346633467,0.0
396,8.965517241379311,0.0,2.142857142857143,0,297001.94805161946,756502.2441214806,675013.8142462769,427262.1297436746,320194.25493925874,1.9800129870107966e-06,0.0,0.0,0.0,1.9800129870107966e-06,0.0,22.72223573485443,1.8032791326466158,0.01716404358863102,0.0
397,8.965517241379311,0.0,2.5,0,629774.4368472405,1025553.197537041,624705.6292639974,299670.7931805731,518786.8661684627,4.19849624564827e-06,0.0,0.0,0.0,4.19849624564827e-06,0.0,22.954861674619657,2.1111836016437184,0.05187868661684627,0.0
398,8.965517241379311,0.0,2.857142857142857,0,276938.0034191278,791461.9072784933,637049.6428175311,471743.30696482013,231827.5578026193,1.8462533561275185e-06,0.0,0.0,0.0,1.8462533561275185e-06,0.0,23.150294868219206,2.410421989789473,0.012427138356760568,0.0
399,8.965517241379311,0.0,3.2142857142857144,0,320841.57469951763,597902.3932660364,567101.8950262052,262771.2994707912,35439.34425143881,2.1389438313301174e-06,0.0,0.0,0.0,2.1389438313301174e-06,0.0,23.396516780270826,2.703866516103208,0.0013997654430169095,0.0
400,8.965517241379311,0.0,3.5714285714285716,0,127469.89191027498,344374.7928422513,344618.2012365754,217026.77942820042,27922.22056062894,8.497992794018332e-07,0.0,0.0,0.0,8.497992794018332e-07,0.0,22.812503005784112,2.9971947500709293,0.0009830774622021908,0.0
401,8.965517241379311,0.0,3.928571428571429,0,314610.1317644627,317024.51121646335,384337.27674409177,41518.673282761745,28456.005316149683,2.097400878429751e-06,0.0,0.0,0.0,2.097400878429751e-06,0.0,23.606516418805604,3.293986782189138,0.000964752123605213,0.0
402,8.965517241379311,0.0,4.285714285714286,0,156787.3234247187,256141.6050806967,181611.40615232583,75991.2304043312,-21516.862601218036,1.045248822831458e-06,0.0,0.0,0.0,1.045248822831458e-06,0.0,22.779533792068527,3.5943487147309114,-0.000720957831531093,0.0
403,8.965517241379311,0.0,4.642857142857143,0,101407.30484140966,316129.8420341714,329577.13583677873,222117.1042860429,32058.663585963735,6.760486989427311e-07,0.0,0.0,0.0,6.760486989427311e-07,0.0,23.622675177498547,3.8967952642751102,0.0010703115904212486,0.0
404,8.965517241379311,0.0,5.0,0,83040.38293557902,266668.19279971614,172473.4574121574,235102.05387375958,18113.072429913365,5.536025529038601e-07,0.0,0.0,0.0,5.536025529038601e-07,0.0,22.809957162630486,4.200069850783457,0.0006040593363128673,0.0
405,9.310344827586208,0.0,0.0,0,32277.882431678292,275361.5572534827,273066.561794078,241997.42653468245,-31429.722782919514,2.1518588287785529e-07,0.0,0.0,0.0,2.1518588287785529e-07,0.0,24.12241535150848,-0.049934392449232125,-0.001048161075831273,0.0
406,9.310344827586208,0.0,0.35714285714285715,0,73225.60513031959,372706.4008426133,299975.80173168215,298995.63019057096,8742.62794733902,4.881707008687972e-07,0.0,0.0,0.0,4.881707008687972e-07,0.0,23.442767906645578,0.25391584589010324,0.00029188166243070135,0.0
407,9.310344827586208,0.0,0.7142857142857143,0,174587.68750711912,370631.208016901,212536.8439697019,183253.56088090918,13150.374563297628,1.1639179167141275e-06,0.0,0.0,0.0,1.1639179167141275e-06,0.0,23.54385606565601,0.5585438203474118,0.00044062490450815097,0.0
408,9.310344827586208,0.0,1.0714285714285714,0,211778.9578969018,423609.6094320983,262827.1368008202,183649.97280227754,-38751.77789151143,1.4118597193126787e-06,0.0,0.0,0.0,1.4118597193126787e-06,0.0,23.042076548390057,0.8651297773648284,-0.0013138126591892203,0.0
409,9.310344827586208,0.0,1.4285714285714286,0,289912.0197521791,388934.8251076863,375449.5650183214,92515.49593615052,-52478.18195455526,1.9327467983478606e-06,0.0,0.0,0.0,1.9327467983478606e-06,0.0,23.436369645292675,1.1750687736995553,-0.0018476366456904366,0.0
410,9.310344827586208,0.0,1.7857142857142858,0,428036.0005773242,659474.3558875713,340188.0222958001,173094.29849563717,93114.8545638563,2.853573337182161e-06,0.0,0.0,0.0,2.853573337182161e-06,0.0,22.511468149788726,1.4882611524841511,0.003677803819542732,0.0
411,9.310344827586208,0.0,2.142857142857143,0,968130.482730534,1002865.4237793242,933955.141821823,2120.905143724709,299672.22839182557,6.45420321820356e-06,0.0,0.0,0.0,6.45420321820356e-06,0.0,22.65425560609379,1.8013443033457748,0.016063958397364842,0.0
412,9.310344827586208,0.0,2.5,0,758473.5167432781,1157453.531702462,449693.8154093414,356819.5872898364,774016.9418011566,5.056490111621854e-06,0.0,0.0,0.0,5.056490111621854e-06,0.0,22.993341972138232,2.108985552692839,0.07740169418011567,0.0
413,9.310344827586208,0.0,2.857142857142857,0,901079.5896136183,754181.274653029,982791.8227805281,-10573.938270254717,496182.32584478386,6.0071972640907885e-06,0.0,0.0,0.0,6.0071972640907885e-06,0.0,23.910699197280362,2.4084871604886318,0.026597900922125474,0.0
414,9.310344827586208,0.0,3.2142857142857144,0,223452.78130730378,627928.9906880375,548905.3523438057,375702.35324718937,93003.2915491198,1.4896852087153585e-06,0.0,0.0,0.0,1.4896852087153585e-06,0.0,23.65977209016349,2.702546866769866,0.00367339735954621,0.0
415,9.310344827586208,0.0,3.5714285714285716,0,222935.86489051493,456633.4662222459,290306.6185639992,203317.36193955244,45859.64431454462,1.4862390992700994e-06,0.0,0.0,0.0,1.4862390992700994e-06,0.0,22.042952096889614,2.9964973451281267,0.0016146130875352616,0.0
416,9.310344827586208,0.0,3.928571428571429,0,322387.15051569784,366788.03860180575,226887.11001768024,-1916.961143036024,-37265.143264993254,2.1492476701046522e-06,0.0,0.0,0.0,2.1492476701046522e-06,0.0,22.672923668273647,3.293701205936258,-0.0012634108583382594,0.0
417,9.310344827586208,0.0,4.285714285714286,0,81423.45754509726,207154.46223948267,212803.3967204305,128702.57010639258,-47344.654736886594,5.428230503006484e-07,0.0,0.0,0.0,5.428230503006484e-07,0.0,23.12729616389266,3.5942581060616976,-0.0015863604395448343,0.0
418,9.310344827586208,0.0,4.642857142857143,0,112215.6808077439,365748.5166392962,238437.21117687752,281206.6807901376,-5011.30738626658,7.481045387182927e-07,0.0,0.0,0.0,7.481045387182927e-07,0.0,23.803590924105013,3.8967729887472466,-0.0001673076722085542,0.0
419,9.310344827586208,0.0,5.0,0,336603.96604926704,511085.3110506937,244576.14900475973,132816.68988047977,-45583.31965592989,2.244026440328447e-06,0.0,0.0,0.0,2.244026440328447e-06,0.0,23.30225557460976,4.200065607550768,-0.0015201744444429401,0.0
420,9.655172413793103,0.0,0.0,0,294018.7473103815,368980.3183091424,378146.496434933,79651.83962777437,12232.02826329624,1.96012498206921e-06,0.0,0.0,0.0,1.96012498206921e-06,0.0,21.77942637270994,-0.049938835309792644,0.0004079302891918212,0.0
421,9.655172413793103,0.0,0.35714285714285715,0,379376.51484717906,339780.35243449116,434966.00012096117,17060.727967556275,-31165.987534400418,2.5291767656478605e-06,0.0,0.0,0.0,2.5291767656478605e-06,0.0,22.466524537083853,0.25389252238383625,-0.0010405086785837752,0.0
422,9.655172413793103,0.0,0.7142857142857143,0,361475.94378067594,428750.01226947864,295180.77391485247,19497.435676943758,7603.991360674346,2.409839625204506e-06,0.0,0.0,0.0,2.409839625204506e-06,0.0,23.41762116363635,0.5584489488868041,0.0002547842231451813,0.0
423,9.655172413793103,0.0,1.0714285714285714,0,223547.72611513388,436711.14185061434,218206.15324827936,208440.73579593387,-6851.606125551084,1.4903181741008924e-06,0.0,0.0,0.0,1.4903181741008924e-06,0.0,23.164370233527006,0.8648307658413091,-0.00023229197093171939,0.0
424,9.655172413793103,0.0,1.4285714285714286,0,392846.71751083725,591607.0068144797,282228.9550132342,149615.94601540914,36448.11348632493,2.618978116738915e-06,0.0,0.0,0.0,2.618978116738915e-06,0.0,23.134516359414175,1.1743385585211081,0.001283254633362393,0.0
425,9.655172413793103,0.0,1.7857142857142858,0,262233.5950720291,512105.2902251622,453914.1930766767,225664.04896520037,94405.3706246307,1.7482239671468608e-06,0.0,0.0,0.0,1.7482239671468608e-06,0.0,23.627779306062195,1.4868794186960859,0.003728775975593757,0.0
426,9.655172413793103,0.0,2.142857142857143,0,768887.3798719754,1162063.0270568612,500778.81004146504,318375.8998898428,341406.81796865107,5.125915865813169e-06,0.0,0.0,0.0,5.125915865813169e-06,0.0,22.903440925744583,1.799318447725221,0.01830114505390291,0.0
427,9.655172413793103,0.0,2.5,0,840402.465205157,1333679.6086557256,553723.5809010586,443673.84594861366,525035.7861451639,5.602683101367713e-06,0.0,0.0,0.0,5.602683101367713e-06,0.0,23.430661721087155,2.1066840939442795,0.05250357861451639,0.0
428,9.655172413793103,0.0,2.857142857142857,0,912481.4561920374,984951.5564327253,1134842.621602418,156696.16489766006,398830.3062642717,6.083209707946916e-06,0.0,0.0,0.0,6.083209707946916e-06,0.0,23.906918178590978,2.406461304868078,0.021379336623280846,0.0
429,9.655172413793103,0.0,3.2142857142857144,0,358235.3266793269,730591.5804871126,520382.12025952875,316955.59360317606,-47151.810503313056,2.3882355111955126e-06,0.0,0.0,0.0,2.3882355111955126e-06,0.0,23.202950492282437,2.7011651329818003,-0.0018623785601094964,0.0
430,9.655172413793103,0.0,3.5714285714285716,0,455156.72014634096,576008.693755228,254772.2584952476,55150.27238546935,65526.01209420522,3.03437813430894e-06,0.0,0.0,0.0,3.03437813430894e-06,0.0,22.648276812740118,2.9957671299496798,0.0023070208738566874,0.0
431,9.655172413793103,0.0,3.928571428571429,0,335337.40867022594,482741.5242887825,354852.15838233597,102277.63146087027,22004.29704622707,2.2355827244681727e-06,0.0,0.0,0.0,2.2355827244681727e-06,0.0,22.886946567862623,3.2934021944127383,0.0007460180045629781,0.0
432,9.655172413793103,0.0,4.285714285714286,0,106278.63513316806,307756.04800153704,185249.31267961717,240239.84261771798,33628.88770918953,7.085242342211204e-07,0.0,0.0,0.0,7.085242342211204e-07,0.0,22.65331789145826,3.5941632346010897,0.0011267911316330773,0.0
433,9.655172413793103,0.0,4.642857142857143,0,272827.07976362616,462923.94437349145,191208.477384403,188998.67594939112,-38555.3757035314,1.8188471984241744e-06,0.0,0.0,0.0,1.8188471984241744e-06,0.0,21.98916316827114,3.8967496652409794,-0.0012872110335442396,0.0
434,9.655172413793103,0.0,5.0,0,178449.05361813752,392467.2804250211,214468.2532808823,213571.5795644241,14158.19324509992,1.1896603574542501e-06,0.0,0.0,0.0,1.1896603574542501e-06,0.0,22.719130679182268,4.200061164690208,0.000472166654669822,0.0
435,10.0,0.0,0.0,0,86631.85498402674,454989.27581791364,462311.5455934634,372250.95137882704,-29894.012708528284,5.775456998935116e-07,0.0,0.0,0.0,5.775456998935116e-07,0.0,23.297446683253405,-0.04994345830742686,-0.0009969461308297978,0.0
436,10.0,0.0,0.35714285714285715,0,244502.4279580335,455108.30731139553,291293.8842157806,174065.30448848478,6686.459881132974,1.63001618638689e-06,0.0,0.0,0.0,1.63001618638689e-06,0.0,22.989128312314946,0.2538682532192236,0.00022323436815989683,0.0
437,10.0,0.0,0.7142857142857143,0,307185.2358759373,436452.808107381,95240.84532482094,181920.8683914571,-44920.73660627017,2.0479015725062484e-06,0.0,0.0,0.0,2.0479015725062484e-06,0.0,23.668600707234376,0.558350230835231,-0.0015051430803207626,0.0
438,10.0,0.0,1.0714285714285714,0,364432.1348317143,574081.957119239,436707.30090875016,160928.47135654296,-3571.160646502214,2.4295475655447623e-06,0.0,0.0,0.0,2.4295475655447623e-06,0.0,23.065861336761344,0.8645196308085966,-0.000121074085387982,0.0
439,10.0,0.0,1.4285714285714286,0,313535.43863698037,529719.2696233173,344105.8339239308,167718.92137500935,-67494.96299027695,2.090236257579869e-06,0.0,0.0,0.0,2.090236257579869e-06,0.0,23.440441591604067,1.1735787365558568,-0.002376343127289504,0.0
440,10.0,0.0,1.7857142857142858,0,404960.1249937329,598936.6418330609,254764.01954594362,152712.39572619446,68941.93244476894,2.699734166624886e-06,0.0,0.0,0.0,2.699734166624886e-06,0.0,22.123534757348388,1.485441662109685,0.0027230338667193583,0.0
441,10.0,0.0,2.142857142857143,0,500915.42163991043,1053408.7022254732,727961.5868265461,476584.44307094417,243227.55631841955,3.3394361442660696e-06,0.0,0.0,0.0,3.3394361442660696e-06,0.0,22.788789951233294,1.797210453199281,0.013038236364976374,0.0
442,10.0,0.0,2.5,0,661513.4558029935,1393430.7958159589,1081931.0590827966,633672.6595260015,1011314.4634373686,4.41008970535329e-06,0.0,0.0,0.0,4.41008970535329e-06,0.0,22.878362885772326,2.104289321881345,0.10113144634373687,0.0
443,10.0,0.0,2.857142857142857,0,762174.3779279258,1424498.337477332,892778.9038797057,551295.5419159587,449587.0872780213,5.0811625195195055e-06,0.0,0.0,0.0,5.0811625195195055e-06,0.0,22.604850959224308,2.404353310342138,0.024100158712683617,0.0
444,10.0,0.0,3.2142857142857144,0,524263.7349329887,864821.1847130285,817794.7682539329,318628.4849380893,81730.42023931479,3.495091566219925e-06,0.0,0.0,0.0,3.495091566219925e-06,0.0,23.785182425210184,2.6997273763953995,0.0032281471429764946,0.0
445,10.0,0.0,3.5714285714285716,0,149124.03702508376,447096.28201119666,285233.8134611617,315288.88067511556,43193.82688458796,9.941602468338918e-07,0.0,0.0,0.0,9.941602468338918e-07,0.0,22.062077933055996,2.9950073079844284,0.0015207557588158035,0.0
446,10.0,0.0,3.928571428571429,0,452226.3186300529,694010.8974437084,328844.35011621966,188165.05589376285,-59937.36788406849,3.0148421242003528e-06,0.0,0.0,0.0,3.0148421242003528e-06,0.0,22.97483836493818,3.2930910593800258,-0.0020320738032981963,0.0
447,10.0,0.0,4.285714285714286,0,291861.3397984473,473802.28807821486,252024.1425398257,143154.52426334273,-35125.47259713065,1.9457422653229823e-06,0.0,0.0,0.0,1.9457422653229823e-06,0.0,23.60276864258562,3.594064516549517,-0.0011769366670445062,0.0
448,10.0,0.0,4.642857142857143,0,432507.6401933404,562955.1664471108,175631.71301036855,96258.15695563579,23820.317380884302,2.8833842679556027e-06,0.0,0.0,0.0,2.8833842679556027e-06,0.0,23.42292704886155,3.896725396076367,0.0007952658947216924,0.0
449,10.0,0.0,5.0,0,375365.5113310358,434845.7888375516,393340.7146819793,40452.69760200904,7240.485570465771,2.5024367422069056e-06,0.0,0.0,0.0,2.5024367422069056e-06,0.0,22.856078044797652,4.2000565416925735,0.00024146554513056542,0.0
450,0.0,0.3448275862068966,0.0,0,167977.18080640284,496290.47891682776,355468.146123127,310366.8187733177,-32272.934458242475,1.1198478720426857e-06,0.0,0.0,0.0,1.1198478720426857e-06,0.0,22.598107111258223,-0.049938835309792644,-0.0010762816438319657,0.0
451,0.0,0.3448275862068966,0.35714285714285715,0,353116.34051920485,523849.2870281468,339427.6819345521,116705.7081262967,29067.625211149934,2.354108936794699e-06,0.0,0.0,0.0,2.354108936794699e-06,0.0,23.59835237022125,0.25389252238383625,0.0009704526854680305,0.0
452,0.0,0.3448275862068966,0.7142857142857143,0,401695.2112834848,559605.0558894108,353390.6137436723,96684.34749849378,13628.40014683073,2.677968075223232e-06,0.0,0.0,0.0,2.677968075223232e-06,0.0,22.79703537480477,0.5584489488868041,0.00045664193703318567,0.0
453,0.0,0.3448275862068966,1.0714285714285714,0,371212.0345309244,561626.312833468,260956.9741220483,146722.491553887,23734.21314343407,2.4747468968728294e-06,0.0,0.0,0.0,2.4747468968728294e-06,0.0,22.647062618142456,0.8648307658413091,0.000804667847009139,0.0
454,0.0,0.3448275862068966,1.4285714285714286,0,411947.9637695059,632717.1387969205,268756.2197963593,185500.06430157117,27768.70834017864,2.7463197584633725e-06,0.0,0.0,0.0,2.7463197584633725e-06,0.0,23.567096961425055,1.1743385585211081,0.0009776726483633482,0.0
455,0.0,0.3448275862068966,1.7857142857142858,0,169829.02693351105,723102.5837007605,546025.4669111267,561593.6928324923,28705.783475170763,1.1321935128900736e-06,0.0,0.0,0.0,1.1321935128900736e-06,0.0,23.2254805314839,1.4868794186960859,0.0011338066370017148,0.0
456,0.0,0.3448275862068966,2.142857142857143,0,658588.7763975426,1012654.1818822277,1065926.946379169,382319.7232108349,422573.9338060312,4.390591842650284e-06,0.0,0.0,0.0,4.390591842650284e-06,0.0,22.9005157208999,1.799318447725221,0.022652116043249796,0.0
457,0.0,0.3448275862068966,2.5,0,166373.76727913972,1434844.0935830404,1374429.7312679049,1246703.986605063,526427.6718806168,1.1091584485275981e-06,0.0,0.0,0.0,1.1091584485275981e-06,0.0,23.243869585290238,2.1066840939442795,0.05264276718806168,0.0
458,0.0,0.3448275862068966,2.857142857142857,0,769317.5937129728,1356789.1568605942,982280.5861531132,471926.77390025445,372837.7460390651,5.128783958086486e-06,0.0,0.0,0.0,5.128783958086486e-06,0.0,23.308562114934542,2.406461304868078,0.019986002952224833,0.0
459,0.0,0.3448275862068966,3.2142857142857144,0,167491.70072863056,737359.008827303,544717.6927091995,626190.3776344244,62358.04974635133,1.1166113381908705e-06,0.0,0.0,0.0,1.1166113381908705e-06,0.0,23.06385727186705,2.7011651329818003,0.002462986970345203,0.0
460,0.0,0.3448275862068966,3.5714285714285716,0,305638.8425461565,653509.7941043886,406186.45826475107,311814.9228993371,40537.64498834151,2.0375922836410433e-06,0.0,0.0,0.0,2.0375922836410433e-06,0.0,23.172328653015967,2.9957671299496798,0.0014272376751791724,0.0
461,0.0,0.3448275862068966,3.928571428571429,0,338860.79039007216,598272.9080015238,325587.5178714942,218910.3705964038,24039.886837400576,2.2590719359338145e-06,0.0,0.0,0.0,2.2590719359338145e-06,0.0,22.018861721561805,3.2934021944127383,0.0008150311900753238,0.0
462,0.0,0.3448275862068966,4.285714285714286,0,128303.40827397331,367509.7944418711,222652.18119399826,321987.6503351469,-33835.43497770445,8.553560551598221e-07,0.0,0.0,0.0,8.553560551598221e-07,0.0,23.05213510648549,3.5941632346010897,-0.0011337118372014047,0.0
463,0.0,0.3448275862068966,4.642857142857143,0,81553.33233955834,373463.11902709986,316190.4229250562,280090.1914665869,-34726.323805005726,5.436888822637223e-07,0.0,0.0,0.0,5.436888822637223e-07,0.0,22.789869436755293,3.8967496652409794,-0.0011593741816952167,0.0
464,0.0,0.3448275862068966,5.0,0,223605.86617039389,435862.82450027607,194195.7476672164,236306.02797640464,58611.6746249646,1.4907057744692926e-06,0.0,0.0,0.0,1.4907057744692926e-06,0.0,22.71473617529185,4.200061164690208,0.001954661718001598,0.0
465,0.3448275862068966,0.3448275862068966,0.0,0,151175.29783844596,479586.1998183871,305042.2242974189,390129.9195993303,-13278.513216061518,1.007835318922973e-06,0.0,0.0,0.0,1.007835318922973e-06,0.0,22.77668714836275,-0.049934044257699296,-0.0004428298904866755,0.0
466,0.3448275862068966,0.3448275862068966,0.35714285714285715,0,303061.1468559824,404472.0111495451,464180.9563340022,135709.35407171774,5162.787641887288,2.0204076457065494e-06,0.0,0.0,0.0,2.0204076457065494e-06,0.0,22.875441422208635,0.25391767377717905,0.0001723649969743253,0.0
467,0.3448275862068966,0.3448275862068966,0.7142857142857143,0,423887.27460411866,575919.8378574462,391930.2497932817,91125.73732865968,35603.451492132495,2.8259151640274577e-06,0.0,0.0,0.0,2.8259151640274577e-06,0.0,22.979924479702674,0.558551255520954,0.0011929521351935967,0.0
468,0.3448275862068966,0.3448275862068966,1.0714285714285714,0,339940.76476816623,506650.9712290792,240701.15678527072,123650.57390837804,-3413.7172711489434,2.266271765121108e-06,0.0,0.0,0.0,2.266271765121108e-06,0.0,23.216265228556622,0.8651532112041963,-0.00011573623740011155,0.0
469,0.3448275862068966,0.3448275862068966,1.4285714285714286,0,160279.19996125743,547031.3890736521,372062.4245544175,407308.8169607404,-1408.9825964632191,1.068527999741716e-06,0.0,0.0,0.0,1.068527999741716e-06,0.0,22.771200809539113,1.1751260014110303,-4.960705156706617e-05,0.0
470,0.3448275862068966,0.3448275862068966,1.7857142857142858,0,131783.30572491148,554201.1944876472,414493.35867690167,536578.781706996,57380.69915609781,8.785553714994098e-07,0.0,0.0,0.0,8.785553714994098e-07,0.0,23.401743738871563,1.4883694403763954,0.002266394073349548,0.0
471,0.3448275862068966,0.3448275862068966,2.142857142857143,0,483113.61876693316,848770.6509484772,791935.8211297331,339753.4854901818,375815.3317705203,3.220757458446221e-06,0.0,0.0,0.0,3.220757458446221e-06,0.0,23.51536792831599,1.8015030717257878,0.020145616719477705,0.0
472,0.3448275862068966,0.3448275862068966,2.5,0,1437918.6881956842,1431536.420820139,1230969.4836984114,-96136.21389780472,801412.6580022117,9.586124587971227e-06,0.0,0.0,0.0,9.586124587971227e-06,0.0,23.514973928154685,2.1091659203722872,0.08014126580022117,0.0
473,0.3448275862068966,0.3448275862068966,2.857142857142857,0,471266.26023553417,660599.0785621051,956779.3236046638,413341.46190775244,224524.38235837163,3.1417750682368943e-06,0.0,0.0,0.0,3.1417750682368943e-06,0.0,23.62447230798491,2.4086459288686446,0.012035650940210058,0.0
474,0.3448275862068966,0.3448275862068966,3.2142857142857144,0,779300.8910765692,934940.0237624431,930509.4300341523,153433.28192270588,53821.043319040415,5.195339273843794e-06,0.0,0.0,0.0,5.195339273843794e-06,0.0,22.87746177479904,2.70265515466211,0.0021257965726058903,0.0
475,0.3448275862068966,0.3448275862068966,3.5714285714285716,0,354270.1651562396,525581.8352369766,509367.87451443716,163483.07456422105,36144.43597951971,2.3618011010415974e-06,0.0,0.0,0.0,2.3618011010415974e-06,0.0,23.03102566630269,2.9965545728396017,0.001272562843571902,0.0
476,0.3448275862068966,0.3448275862068966,3.928571428571429,0,596151.0275690703,769970.4235960696,345983.08583175036,88325.71326579148,20086.819806130803,3.974340183793802e-06,0.0,0.0,0.0,3.974340183793802e-06,0.0,23.294409782372536,3.2937246397756255,0.00068100922280338,0.0
477,0.3448275862068966,0.3448275862068966,4.285714285714286,0,543956.84480303,662569.2149484785,378719.58081761264,35401.069324168944,63973.127450608554,3.6263789653535333e-06,0.0,0.0,0.0,3.6263789653535333e-06,0.0,22.963370581831963,3.59426554123524,0.0021435247367542374,0.0
478,0.3448275862068966,0.3448275862068966,4.642857142857143,0,120089.3385178078,435481.6599384389,298020.2016924029,350948.7205807857,37841.30728091909,8.005955901187187e-07,0.0,0.0,0.0,8.005955901187187e-07,0.0,22.601332072263304,3.896774816634322,0.001263371121845288,0.0
479,0.3448275862068966,0.3448275862068966,5.0,0,287653.2708646892,442182.46260018996,214374.38889323475,118941.3401536453,18444.711068234683,1.9176884724312613e-06,0.0,0.0,0.0,1.9176884724312613e-06,0.0,22.93413451825046,4.200065955742301,0.0006151192719773015,0.0
480,0.6896551724137931,0.3448275862068966,0.0,0,203870.50300338742,545880.0206766378,437551.7890627089,310713.3422596278,1304.838418735823,1.3591366866892495e-06,0.0,0.0,0.0,1.3591366866892495e-06,0.0,24.004698217630956,-0.04992942771909295,4.351552351302901e-05,0.0
481,0.6896551724137931,0.3448275862068966,0.35714285714285715,0,389139.0743392229,610424.913749184,410611.64519758074,161970.99077265104,-20787.055888296185,2.5942604955948194e-06,0.0,0.0,0.0,2.5942604955948194e-06,0.0,22.82050653480879,0.253941909034093,-0.000693997327378263,0.0
482,0.6896551724137931,0.3448275862068966,0.7142857142857143,0,223172.39404290036,307135.5438583468,297723.59824210487,79406.07694561977,22994.614457291344,1.4878159602860024e-06,0.0,0.0,0.0,1.4878159602860024e-06,0.0,22.79994978940172,0.5586498356484576,0.0007704723352689823,0.0
483,0.6896551724137931,0.3448275862068966,1.0714285714285714,0,103323.0435474422,302466.59079404763,355203.1246710125,236153.7117324431,15525.03858263492,6.888202903162814e-07,0.0,0.0,0.0,6.888202903162814e-07,0.0,22.928096931187348,0.8654639115341454,0.0005263498433896315,0.0
484,0.6896551724137931,0.3448275862068966,1.4285714285714286,0,324545.5130256007,478850.6675852609,518551.8372189375,175982.0976059532,-13594.643838858967,2.1636367535040047e-06,0.0,0.0,0.0,2.1636367535040047e-06,0.0,23.48475156775681,1.175884761789918,-0.00047863628666742,0.0
485,0.6896551724137931,0.3448275862068966,1.7857142857142858,0,524492.2387490481,874710.5874814404,680991.9959118135,280913.73126453557,14592.938469070985,3.496614924993654e-06,0.0,0.0,0.0,3.496614924993654e-06,0.0,23.385033795775122,1.489805188199091,0.0005763845638946422,0.0
486,0.6896551724137931,0.3448275862068966,2.142857142857143,0,790955.6625200817,1276036.807088405,472842.9229673603,497915.5650743551,431605.1788039321,5.273037750133878e-06,0.0,0.0,0.0,5.273037750133878e-06,0.0,23.56888112401136,1.8036081210641106,0.02313623679311454,0.0
487,0.6896551724137931,0.3448275862068966,2.5,0,1155236.9369977824,1657892.0314515561,1022529.0768261713,324431.1403283188,945881.72220352,7.701579579985216e-06,0.0,0.0,0.0,7.701579579985216e-06,0.0,24.486762707887916,2.1115573465759514,0.094588172220352,0.0
488,0.6896551724137931,0.3448275862068966,2.857142857142857,0,745891.4365534285,882197.0802183036,773571.5144697776,87948.89477629159,450559.94076710026,4.972609577022857e-06,0.0,0.0,0.0,4.972609577022857e-06,0.0,23.635757902213932,2.4107509782069676,0.02415230861679439,0.0
489,0.6896551724137931,0.3448275862068966,3.2142857142857144,0,373420.3054325451,420510.0711546467,722770.9508964439,305329.611994692,84746.1441847562,2.489468702883634e-06,0.0,0.0,0.0,2.489468702883634e-06,0.0,23.67971774355339,2.7040909024848054,0.0033472606946990586,0.0
490,0.6896551724137931,0.3448275862068966,3.5714285714285716,0,274453.81272458466,640734.6526425681,495593.8989821443,324185.7592597209,30016.826203094686,1.8296920848305644e-06,0.0,0.0,0.0,1.8296920848305644e-06,0.0,24.664527869367312,2.99731333321849,0.0010568237315878386,0.0
491,0.6896551724137931,0.3448275862068966,3.928571428571429,0,324024.64168554475,392650.4908008412,453527.7430359124,103382.31602156084,22952.573366795823,2.1601642779036317e-06,0.0,0.0,0.0,2.1601642779036317e-06,0.0,23.484216541083757,3.294035340105575,0.0007781676890977232,0.0
492,0.6896551724137931,0.3448275862068966,4.285714285714286,0,67633.41751739736,272378.4253152655,217619.16753725536,196776.94525084752,11375.938577423578,4.508894501159824e-07,0.0,0.0,0.0,4.508894501159824e-07,0.0,23.048226670293054,3.5943641213627435,0.000381169511578604,0.0
493,0.6896551724137931,0.3448275862068966,4.642857142857143,0,195445.84843741154,468535.61382476636,247322.58574442333,319229.269977945,-1915.9650824499024,1.302972322916077e-06,0.0,0.0,0.0,1.302972322916077e-06,0.0,23.09747250908142,3.8967990518912363,-6.396647287213757e-05,0.0
494,0.6896551724137931,0.3448275862068966,5.0,0,313935.98281148216,527451.5669719132,420098.6025724262,173921.2752586118,-23134.23817322152,2.0929065520765476e-06,0.0,0.0,0.0,2.0929065520765476e-06,0.0,23.782039617100246,4.200070572280907,-0.0007715119900885214,0.0
495,1.0344827586206897,0.3448275862068966,0.0,0,227549.08286507463,446680.1770524887,266322.13564631715,191026.63327157724,46008.08106500793,1.516993885767164e-06,0.0,0.0,0.0,1.516993885767164e-06,0.0,22.62690158274923,-0.049925006169381975,0.0015343399647240418,0.0
496,1.0344827586206897,0.3448275862068966,0.35714285714285715,0,231367.49170558873,416013.627326795,181216.0650945794,188235.9768765058,-19552.553985121125,1.542449944703925e-06,0.0,0.0,0.0,1.542449944703925e-06,0.0,22.284231897728446,0.2539651206656509,-0.0006527822064852054,0.0
497,1.0344827586206897,0.3448275862068966,0.7142857142857143,0,293700.7548808244,444767.2399788546,370522.83103175444,121068.76429179685,72240.72309362529,1.9580050325388296e-06,0.0,0.0,0.0,1.9580050325388296e-06,0.0,22.851730451481885,0.5587442520438219,0.0024205441116155074,0.0
498,1.0344827586206897,0.3448275862068966,1.0714285714285714,0,297267.99761321646,438230.58446850575,279516.6480611126,95291.22459661805,7609.3044541897225,1.9817866507547765e-06,0.0,0.0,0.0,1.9817866507547765e-06,0.0,23.67692695779763,0.8657614888038767,0.0002579804350532588,0.0
499,1.0344827586206897,0.3448275862068966,1.4285714285714286,0,411380.7843620343,401741.8191089633,581916.0958285296,111188.6124594996,9812.16740430551,2.742538562413562e-06,0.0,0.0,0.0,2.742538562413562e-06,0.0,23.5680959045979,1.1766114743813294,0.00034546395081947747,0.0
500,1.0344827586206897,0.3448275862068966,1.7857142857142858,0,271891.2664030574,675296.4099103087,598216.7505932794,373187.03471222235,142876.8355919035,1.8126084426870491e-06,0.0,0.0,0.0,1.8126084426870491e-06,0.0,23.196471351923396,1.491180294293025,0.005643277585787592,0.0
501,1.0344827586206897,0.3448275862068966,2.142857142857143,0,569846.0509023159,1289084.2411657567,854581.3011047808,643895.9556616048,364037.9887548478,3.798973672682106e-06,0.0,0.0,0.0,3.798973672682106e-06,0.0,23.81579680611326,1.8056242593631924,0.019514291123340417,0.0
502,1.0344827586206897,0.3448275862068966,2.5,0,651232.0151914292,1461930.1581181807,860056.9795739236,770590.3858133513,871368.9455861314,4.341546767942861e-06,0.0,0.0,0.0,4.341546767942861e-06,0.0,23.59008523353984,2.113847766031144,0.08713689455861315,0.0
503,1.0344827586206897,0.3448275862068966,2.857142857142857,0,819179.0622072896,1206615.9600465533,1188585.9286676848,378570.7102172723,453744.50557730097,5.461193748048598e-06,0.0,0.0,0.0,5.461193748048598e-06,0.0,23.462659757839667,2.4127671165060494,0.024323017517313153,0.0
504,1.0344827586206897,0.3448275862068966,3.2142857142857144,0,133617.34022563303,631099.2597230596,608045.230192333,487454.9584249724,115370.83365673108,8.907822681708868e-07,0.0,0.0,0.0,8.907822681708868e-07,0.0,23.286771869526056,2.7054660085787394,0.004556859318247343,0.0
505,1.0344827586206897,0.3448275862068966,3.5714285714285716,0,244790.25287552917,530070.2786565324,340087.9106115712,253827.08008831716,-30686.26962457557,1.6319350191701944e-06,0.0,0.0,0.0,1.6319350191701944e-06,0.0,23.748317913764147,2.998040045809901,-0.0010803933018678378,0.0
506,1.0344827586206897,0.3448275862068966,3.928571428571429,0,66362.60145920527,267225.0892761334,256147.85142850998,196020.90880226946,-32495.688483536385,4.4241734306136845e-07,0.0,0.0,0.0,4.4241734306136845e-07,0.0,23.682531516652244,3.2943329173753058,-0.0011017106626246278,0.0
507,1.0344827586206897,0.3448275862068966,4.285714285714286,0,536802.6551784241,475808.53671524615,314835.9793321731,-123062.70263175831,-84181.2308112592,3.5786843678561604e-06,0.0,0.0,0.0,3.5786843678561604e-06,0.0,23.173083720281316,3.5944585377581078,-0.002820630439768121,0.0
508,1.0344827586206897,0.3448275862068966,4.642857142857143,0,432410.66787261184,588816.1915290043,231021.19389460832,108312.92280531036,-20939.759227256804,2.8827377858174123e-06,0.0,0.0,0.0,2.8827377858174123e-06,0.0,23.72105220318244,3.896822263522794,-0.0006990954860444006,0.0
509,1.0344827586206897,0.3448275862068966,5.0,0,334532.41529325134,322868.7432757914,414715.75873087253,43853.74728927235,-23337.269602138964,2.230216101955009e-06,0.0,0.0,0.0,2.230216101955009e-06,0.0,22.99222138740903,4.2000749938306186,-0.0007782829578896538,0.0
510,1.3793103448275863,0.3448275862068966,0.0,0,219891.49267129193,405129.32755408145,155262.57736238858,241116.24019355155,-30626.060560912076,1.4659432844752794e-06,0.0,0.0,0.0,1.4659432844752794e-06,0.0,23.432451177939935,-0.049920802329415565,-0.0010213594567065238,0.0
511,1.3793103448275863,0.3448275862068966,0.35714285714285715,0,259128.87270646816,489209.2055232491,308490.8485862832,192322.96037916667,-5299.602737811546,1.727525818043121e-06,0.0,0.0,0.0,1.727525818043121e-06,0.0,23.51994872207187,0.2539871893951252,-0.00017693271023909289,0.0
512,1.3793103448275863,0.3448275862068966,0.7142857142857143,0,427367.4262930677,575840.1905509931,378512.65770902764,85463.1353035552,2965.6098300772514,2.8491161752871178e-06,0.0,0.0,0.0,2.8491161752871178e-06,0.0,23.156970957521434,0.55883401953311,9.936762956039675e-05,0.0
513,1.3793103448275863,0.3448275862068966,1.0714285714285714,0,188797.1882050812,431868.4225716051,364536.8924038944,218635.88144579687,24011.545856864574,1.258647921367208e-06,0.0,0.0,0.0,1.258647921367208e-06,0.0,23.396269318271738,0.8660444138644016,0.0008140703376698863,0.0
514,1.3793103448275863,0.3448275862068966,1.4285714285714286,0,358260.78716028616,474970.46117031714,306821.07611606014,63565.46169604044,38121.632939468116,2.388405247735241e-06,0.0,0.0,0.0,2.388405247735241e-06,0.0,23.637971501660058,1.1773024048549334,0.00134217542203569,0.0
515,1.3793103448275863,0.3448275862068966,1.7857142857142858,0,444577.18471228593,478743.0346517768,657091.512939318,151032.7113731775,134556.836231547,2.963847898081906e-06,0.0,0.0,0.0,2.963847898081906e-06,0.0,22.797469421687595,1.4924876924528565,0.005314658424329011,0.0
516,1.3793103448275863,0.3448275862068966,2.142857142857143,0,784807.898753608,1194259.3681082912,611694.8749429507,301822.06962693564,522301.42379689484,5.232052658357386e-06,0.0,0.0,0.0,5.232052658357386e-06,0.0,23.43541995279888,1.8075411263699004,0.0279980176601063,0.0
517,1.3793103448275863,0.3448275862068966,2.5,0,1132785.1639461094,1938978.3781199874,957533.1081391387,699405.8822224663,832263.8892936656,7.551901092974062e-06,0.0,0.0,0.0,7.551901092974062e-06,0.0,24.455531586797907,2.1160254090465966,0.08322638892936657,0.0
518,1.3793103448275863,0.3448275862068966,2.857142857142857,0,383072.9948423703,1234958.5950445014,971575.5470344499,795505.8862009651,447760.49904958106,2.5538199656158018e-06,0.0,0.0,0.0,2.5538199656158018e-06,0.0,22.9397232962773,2.414683983512757,0.024002244276406876,0.0
519,1.3793103448275863,0.3448275862068966,3.2142857142857144,0,502292.03378973046,786205.4903665709,625921.736483818,223332.7092046717,156560.53846165072,3.348613558598203e-06,0.0,0.0,0.0,3.348613558598203e-06,0.0,23.872610307777045,2.706773406738571,0.006183749618048907,0.0
520,1.3793103448275863,0.3448275862068966,3.5714285714285716,0,252415.03446662254,586810.3029999426,311478.87553679326,366332.73375773075,45150.48863243479,1.6827668964441502e-06,0.0,0.0,0.0,1.6827668964441502e-06,0.0,23.31453664982844,2.998730976283505,0.001589645339473784,0.0
521,1.3793103448275863,0.3448275862068966,3.928571428571429,0,266341.34652046504,473343.1782080347,445694.1250159875,194255.83804870376,-69999.7631632374,1.7756089768031003e-06,0.0,0.0,0.0,1.7756089768031003e-06,0.0,23.958590988255896,3.2946158424358307,-0.0023732220813603958,0.0
522,1.3793103448275863,0.3448275862068966,4.285714285714286,0,159378.0864533066,385590.16157500865,330307.83057305403,205931.65380427442,-7949.814545224556,1.0625205763553774e-06,0.0,0.0,0.0,1.0625205763553774e-06,0.0,23.010109239102764,3.594548305247396,-0.00026637159709682717,0.0
523,1.3793103448275863,0.3448275862068966,4.642857142857143,0,310819.86629474605,534574.0401504424,389504.7519627191,177741.72546813873,-82775.54785255995,2.0721324419649737e-06,0.0,0.0,0.0,2.0721324419649737e-06,0.0,23.379598383365902,3.8968443322522686,-0.002763547146389892,0.0
524,1.3793103448275863,0.3448275862068966,5.0,0,305549.5510619469,479627.22292036924,461577.46367660625,165452.89991444856,-83656.77899910913,2.036997007079646e-06,0.0,0.0,0.0,2.036997007079646e-06,0.0,24.486739659920428,4.2000791976705845,-0.002789899869048101,0.0
525,1.7241379310344829,0.3448275862068966,0.0,0,220052.5053053026,459411.7041692559,422779.29322902474,223341.842145066,-23296.257266626224,1.4670167020353506e-06,0.0,0.0,0.0,1.4670167020353506e-06,0.0,23.28703630877361,-0.04991684118825477,-0.000776915222831655,0.0
526,1.7241379310344829,0.3448275862068966,0.35714285714285715,0,152385.14338768835,368567.6560284402,423101.89631677844,250952.94707587035,-5860.6039172439105,1.0159009559179223e-06,0.0,0.0,0.0,1.0159009559179223e-06,0.0,23.695082792374897,0.25400798403844793,-0.00019566231395374504,0.0
527,1.7241379310344829,0.3448275862068966,0.7142857142857143,0,412780.0624456086,579105.128755384,339247.59186771396,102471.08778080052,-19478.244775892843,2.751867082970724e-06,0.0,0.0,0.0,2.751867082970724e-06,0.0,23.68037023772067,0.5589186045076956,-0.0006526505920461002,0.0
528,1.7241379310344829,0.3448275862068966,1.0714285714285714,0,320267.345256956,536164.908339943,406421.56067542476,171382.96419247577,-83750.27070279009,2.1351156350463735e-06,0.0,0.0,0.0,2.1351156350463735e-06,0.0,22.37357319354264,0.8663110049124959,-0.002839409488976045,0.0
529,1.7241379310344829,0.3448275862068966,1.4285714285714286,0,83222.96670592422,489149.5262661943,408471.2546732619,403596.1830021837,49540.80831079788,5.548197780394948e-07,0.0,0.0,0.0,5.548197780394948e-07,0.0,23.615691672835442,1.1779534460839314,0.001744218444370292,0.0
530,1.7241379310344829,0.3448275862068966,1.7857142857142858,0,593885.0331567663,945669.692584176,360927.2978096269,343045.88614645763,27291.953851810234,3.959233554378442e-06,0.0,0.0,0.0,3.959233554378442e-06,0.0,22.77854720651698,1.4937196110572373,0.0010779639037092291,0.0
531,1.7241379310344829,0.3448275862068966,2.142857142857143,0,457978.2740108373,1051074.0761817829,887735.3257968279,533819.5325859763,497355.1114233411,3.053188493405582e-06,0.0,0.0,0.0,3.053188493405582e-06,0.0,23.718498404756676,1.809347327571829,0.026660768204970046,0.0
532,1.7241379310344829,0.3448275862068966,2.5,0,250556.8514789553,1158588.2112687428,1031787.3770882043,869977.0103305704,699131.1419780087,1.670379009859702e-06,0.0,0.0,0.0,1.670379009859702e-06,0.0,23.465639303632525,2.1180773309682097,0.06991311419780087,0.0
533,1.7241379310344829,0.3448275862068966,2.857142857142857,0,622532.0801168159,989880.3442656385,953330.2828241582,349878.47599400283,382148.5124983734,4.1502138674454395e-06,0.0,0.0,0.0,4.1502138674454395e-06,0.0,22.853948247429226,2.4164901847146862,0.020485107476699974,0.0
534,1.7241379310344829,0.3448275862068966,3.2142857142857144,0,211161.79353865076,508762.3653168305,531305.2515830458,309776.4262738273,117152.64403289865,1.4077452902576717e-06,0.0,0.0,0.0,1.4077452902576717e-06,0.0,22.82102537772682,2.7080053253429517,0.0046272363707366,0.0
535,1.7241379310344829,0.3448275862068966,3.5714285714285716,0,296399.4321066677,601833.75772032,301221.91849511734,309834.45455934765,-12288.870370641625,1.9759962140444513e-06,0.0,0.0,0.0,1.9759962140444513e-06,0.0,23.3846080290519,2.9993820175125028,-0.00043266299222406636,0.0
536,1.7241379310344829,0.3448275862068966,3.928571428571429,0,90348.9467179181,299932.581148769,393413.88300314266,306562.5498859729,8372.590472137643,6.023263114527873e-07,0.0,0.0,0.0,6.023263114527873e-07,0.0,24.66623537905781,3.294882433483925,0.0002838583402107864,0.0
537,1.7241379310344829,0.3448275862068966,4.285714285714286,0,332108.31394607184,346493.9751464104,200895.3184984839,-33545.821831735906,12745.257717567616,2.2140554263071456e-06,0.0,0.0,0.0,2.2140554263071456e-06,0.0,24.242116157564624,3.5946328902219813,0.0004270507990250546,0.0
538,1.7241379310344829,0.3448275862068966,4.642857142857143,0,293582.85900932865,267811.6022626706,454118.4013152872,115693.25948227273,-65346.743262373515,1.957219060062191e-06,0.0,0.0,0.0,1.957219060062191e-06,0.0,23.614962921142254,3.896865126895591,-0.002181668506625538,0.0
539,1.7241379310344829,0.3448275862068966,5.0,0,311520.5768477019,449918.5136945146,299270.73357835575,91709.47987826595,21873.122366903586,2.076803845651346e-06,0.0,0.0,0.0,2.076803845651346e-06,0.0,23.697585208156827,4.200083158811745,0.0007294545876281856,0.0
540,2.0689655172413794,0.3448275862068966,0.0,0,236446.0758619518,440458.09296471387,340176.7441116233,170398.14904440768,-42578.05021465882,1.576307172413012e-06,0.0,0.0,0.0,1.576307172413012e-06,0.0,23.729081591929546,-0.049913149907751274,-0.0014199506380644313,0.0
541,2.0689655172413794,0.3448275862068966,0.35714285714285715,0,302626.319633369,424523.29413120885,368679.75103944965,97864.49214541682,-50464.47092414784,2.017508797555793e-06,0.0,0.0,0.0,2.017508797555793e-06,0.0,23.165780059894335,0.2540273620051394,-0.0016848084758667218,0.0
542,2.0689655172413794,0.3448275862068966,0.7142857142857143,0,124377.81234220965,360640.24165950186,372784.76018582,242780.16775105934,-33101.297172112645,8.291854156147311e-07,0.0,0.0,0.0,8.291854156147311e-07,0.0,23.09142955808601,0.5589974269618576,-0.0011091133439092415,0.0
543,2.0689655172413794,0.3448275862068966,1.0714285714285714,0,159375.72707833667,359379.5413374216,196320.31184960032,203962.25413810747,38535.99893395308,1.0625048471889111e-06,0.0,0.0,0.0,1.0625048471889111e-06,0.0,23.86800958466921,0.8665594339126985,0.0013064970431981172,0.0
544,2.0689655172413794,0.3448275862068966,1.4285714285714286,0,243857.96383902154,596202.159701465,471789.0301048139,315231.4835510059,-80448.55867988395,1.6257197589268104e-06,0.0,0.0,0.0,1.6257197589268104e-06,0.0,23.146360645839454,1.1785601338282001,-0.0028324095762053865,0.0
545,2.0689655172413794,0.3448275862068966,1.7857142857142858,0,203175.75165457663,695422.8811098465,594410.8464780699,461537.9863160334,133191.16993776814,1.3545050110305107e-06,0.0,0.0,0.0,1.3545050110305107e-06,0.0,24.17222080358267,1.4948676027448986,0.005260718022069818,0.0
546,2.0689655172413794,0.3448275862068966,2.142857142857143,0,590380.0229810056,1231083.0767940942,663373.5003568012,620382.8370986147,476000.9635726253,3.9358668198733705e-06,0.0,0.0,0.0,3.9358668198733705e-06,0.0,22.780038607400353,1.811030477707467,0.02551607707184123,0.0
547,2.0689655172413794,0.3448275862068966,2.5,0,579473.842076087,1121122.7425221503,749367.5062224945,453437.62457259715,796186.0844701797,3.863158947173914e-06,0.0,0.0,0.0,3.863158947173914e-06,0.0,23.01062357833623,2.1199894616084696,0.07961860844701797,0.0
548,2.0689655172413794,0.3448275862068966,2.857142857142857,0,626819.8554954577,1199753.3417933497,733122.8327706202,487277.250735176,465247.4891774635,4.178799036636384e-06,0.0,0.0,0.0,4.178799036636384e-06,0.0,24.173981193107196,2.418173334850324,0.024939636050802932,0.0
549,2.0689655172413794,0.3448275862068966,3.2142857142857144,0,698637.901208208,985165.7342367627,344043.884740097,240556.46604385183,59646.838885134464,4.657586008054719e-06,0.0,0.0,0.0,4.657586008054719e-06,0.0,23.327457889687352,2.709153317030613,0.0023559009236808546,0.0
550,2.0689655172413794,0.3448275862068966,3.5714285714285716,0,521461.9226159076,609490.9747714321,569787.0339662927,69311.95860659835,44078.61399901337,3.476412817439384e-06,0.0,0.0,0.0,3.476412817439384e-06,0.0,23.414319827337835,2.9999887052567717,0.0015519070875272814,0.0
551,2.0689655172413794,0.3448275862068966,3.928571428571429,0,175127.97168858463,430717.1628715504,468137.4621237155,277323.86287890363,-19723.50289505745,1.1675198112572308e-06,0.0,0.0,0.0,1.1675198112572308e-06,0.0,23.80306977076184,3.2951308624841276,-0.0006686915851868035,0.0
552,2.0689655172413794,0.3448275862068966,4.285714285714286,0,265786.8640283762,479089.0031038582,360118.785788072,174599.35850037396,-74030.43439185561,1.7719124268558411e-06,0.0,0.0,0.0,1.7719124268558411e-06,0.0,24.0644748557026,3.5947117126761436,-0.0024805113289813785,0.0
553,2.0689655172413794,0.3448275862068966,4.642857142857143,0,340418.3778681223,432338.36064387404,297646.7529833754,45182.76942472,-3507.3585857173034,2.2694558524541486e-06,0.0,0.0,0.0,2.2694558524541486e-06,0.0,23.79471285008923,3.8968845048622827,-0.00011709678839202486,0.0
554,2.0689655172413794,0.3448275862068966,5.0,0,198972.45420333213,454826.20818077266,299975.5973531885,230411.0943568729,36390.44744881228,1.3264830280222143e-06,0.0,0.0,0.0,1.3264830280222143e-06,0.0,23.638190286408648,4.200086850092249,0.0012135980584804056,0.0
555,2.413793103448276,0.3448275862068966,0.0,0,242965.3262719976,418429.7673175366,381162.4284017025,158983.91200089373,22022.51772143414,1.6197688418133173e-06,0.0,0.0,0.0,1.6197688418133173e-06,0.0,23.878813976116334,-0.04990975756115692,0.0007344368267847472,0.0
556,2.413793103448276,0.3448275862068966,0.35714285714285715,0,458375.58564110106,432952.12426380516,470749.611908851,-5354.435861049959,81224.58457597301,3.0558372376073403e-06,0.0,0.0,0.0,3.0558372376073403e-06,0.0,23.687785854048737,0.2540451706705197,0.0027117666357395504,0.0
557,2.413793103448276,0.3448275862068966,0.7142857142857143,0,356711.68991624995,468144.74001870415,263133.88187694503,56250.97769026383,-11364.261034863544,2.3780779327749997e-06,0.0,0.0,0.0,2.3780779327749997e-06,0.0,24.030505581576953,0.5590698660744319,-0.00038077823633008253,0.0
558,2.413793103448276,0.3448275862068966,1.0714285714285714,0,218397.19155221022,370761.4562646511,220460.7804971319,120241.18530864814,-7141.189431671312,1.4559812770147348e-06,0.0,0.0,0.0,1.4559812770147348e-06,0.0,24.921134546387208,0.8667877441893026,-0.00024210979695600516,0.0
559,2.413793103448276,0.3448275862068966,1.4285714285714286,0,266966.53085035883,428442.1305266518,542810.2894617746,237712.77397143838,-5786.022552291572,1.7797768723357256e-06,0.0,0.0,0.0,1.7797768723357256e-06,0.0,23.750085512451676,1.179117689695645,-0.00020371260783505962,0.0
560,2.413793103448276,0.3448275862068966,1.7857142857142858,0,254027.566363578,556328.7575054371,263858.58771755657,429481.9244870079,21339.629036288992,1.69351710909052e-06,0.0,0.0,0.0,1.69351710909052e-06,0.0,23.072230600389155,1.4959226257073368,0.0008428619638069306,0.0
561,2.413793103448276,0.3448275862068966,2.142857142857143,0,184784.62130669304,775931.8473827079,568636.6037040778,628502.1774800486,376409.89365152235,1.2318974753779536e-06,0.0,0.0,0.0,1.2318974753779536e-06,0.0,24.0262606209489,1.8125773199550328,0.020177488265841315,0.0
562,2.413793103448276,0.3448275862068966,2.5,0,274872.3279083241,1015826.7167517156,873612.3789586844,698983.6973076895,635256.6742002005,1.8324821860554938e-06,0.0,0.0,0.0,1.8324821860554938e-06,0.0,23.438502129426315,2.1217467406500674,0.06352566742002005,0.0
563,2.413793103448276,0.3448275862068966,2.857142857142857,0,731930.9520130567,1177561.9166898108,442673.9568679695,448624.25302161026,168633.88920241207,4.879539680087045e-06,0.0,0.0,0.0,4.879539680087045e-06,0.0,23.684929617606713,2.4197201770978896,0.009039635721570499,0.0
564,2.413793103448276,0.3448275862068966,3.2142857142857144,0,119080.3830501291,632697.588820053,710480.7950217058,573393.1265612692,36442.87558530081,7.93869220334194e-07,0.0,0.0,0.0,7.93869220334194e-07,0.0,23.704425386289273,2.710208339993051,0.0014394024202746833,0.0
565,2.413793103448276,0.3448275862068966,3.5714285714285716,0,263421.5739012734,592919.9001176544,468530.372329945,290337.2005257138,8021.662092608407,1.7561438260084896e-06,0.0,0.0,0.0,1.7561438260084896e-06,0.0,23.23501409313348,3.0005462611242164,0.0002824243578880806,0.0
566,2.413793103448276,0.3448275862068966,3.928571428571429,0,234605.11437439607,465895.91166256706,270689.04891478753,205626.34907891796,29478.95491220107,1.5640340958293072e-06,0.0,0.0,0.0,1.5640340958293072e-06,0.0,23.345158518053676,3.295359172760732,0.0009994334776521768,0.0
567,2.413793103448276,0.3448275862068966,4.285714285714286,0,181531.4149242758,272285.76134976273,429299.9103503108,230528.24270377925,-25846.122422457804,1.2102094328285054e-06,0.0,0.0,0.0,1.2102094328285054e-06,0.0,22.381118568889704,3.594784151788718,-0.0008660167943874633,0.0
568,2.413793103448276,0.3448275862068966,4.642857142857143,0,335864.27799312124,506307.57012532203,443125.5601273626,143339.38057480456,-25250.781857156795,2.2390951866208082e-06,0.0,0.0,0.0,2.2390951866208082e-06,0.0,23.489316472233693,3.896902313527663,-0.0008430234284858461,0.0
569,2.413793103448276,0.3448275862068966,5.0,0,303051.0879471507,520155.9288988035,303173.3630620449,173906.6040593901,46128.16299636202,2.0203405863143377e-06,0.0,0.0,0.0,2.0203405863143377e-06,0.0,23.82516664169073,4.2000902424388435,0.0015383446200379093,0.0
570,2.7586206896551726,0.3448275862068966,0.0,0,324504.1071048457,351014.46840087045,267179.95459247,-7180.745763703807,-58318.161805364,2.1633607140323045e-06,0.0,0.0,0.0,2.1633607140323045e-06,0.0,23.53112766808133,-0.04990669465504395,-0.0019448732539133933,0.0
571,2.7586206896551726,0.3448275862068966,0.35714285714285715,0,349450.0306927084,475006.74892963597,504751.50419965456,141379.82799780476,-7154.291604392895,2.3296668712847226e-06,0.0,0.0,0.0,2.3296668712847226e-06,0.0,23.298533343631284,0.2540612498854642,-0.00023885341336523324,0.0
572,2.7586206896551726,0.3448275862068966,0.7142857142857143,0,37607.43170742407,364281.3602246007,371108.94561693165,330555.45747355785,42085.28420633902,2.507162113828271e-07,0.0,0.0,0.0,2.507162113828271e-07,0.0,23.72183316618543,0.559135270417576,0.0014101365892931965,0.0
573,2.7586206896551726,0.3448275862068966,1.0714285714285714,0,231662.15746530055,461729.18359522126,340234.7714055691,194592.33130539855,-31792.528037465305,1.5444143831020037e-06,0.0,0.0,0.0,1.5444143831020037e-06,0.0,23.06676012735813,0.8669938826018773,-0.0010778712120044357,0.0
574,2.7586206896551726,0.3448275862068966,1.4285714285714286,0,252681.10407378696,393196.83818577975,511934.1649192294,221754.26745395927,-74094.0095767927,1.6845406938252465e-06,0.0,0.0,0.0,1.6845406938252465e-06,0.0,23.01376841163516,1.1796210997179455,-0.0026086804500729684,0.0
575,2.7586206896551726,0.3448275862068966,1.7857142857142858,0,108876.28834111837,483542.9002080422,573263.9822398053,452136.53003548254,208095.9604883935,7.258419222741224e-07,0.0,0.0,0.0,7.258419222741224e-07,0.0,23.810403310049097,1.4968751923720598,0.008219269867309678,0.0
576,2.7586206896551726,0.3448275862068966,2.142857142857143,0,450783.8080728099,1031472.8955238686,668940.6357466921,526735.2644388623,510567.300328233,3.005225387152066e-06,0.0,0.0,0.0,3.005225387152066e-06,0.0,23.84266729560313,1.8139739439272835,0.027369008851910487,0.0
577,2.7586206896551726,0.3448275862068966,2.5,0,845575.7933970757,1281755.06390301,941064.9760909183,318979.5054223196,867471.8772951539,5.637171955980505e-06,0.0,0.0,0.0,5.637171955980505e-06,0.0,23.81248063807473,2.123333365297339,0.0867471877295154,0.0
578,2.7586206896551726,0.3448275862068966,2.857142857142857,0,569091.9195999833,1028152.6306206002,1013929.7211693216,452082.57055618113,411310.6947839194,3.7939461306665553e-06,0.0,0.0,0.0,3.7939461306665553e-06,0.0,23.4114250388082,2.4211168010701405,0.022048349040742612,0.0
579,2.7586206896551726,0.3448275862068966,3.2142857142857144,0,405301.48374023725,575380.7863191074,227351.78247475286,130393.68045998692,127712.20180435252,2.7020098916015816e-06,0.0,0.0,0.0,2.7020098916015816e-06,0.0,24.113220789710716,2.711160906657774,0.0050443124869636,0.0
580,2.7586206896551726,0.3448275862068966,3.5714285714285716,0,221093.0284901503,484204.08854144235,338090.113508135,229845.81318622714,-124452.93373893079,1.4739535232676686e-06,0.0,0.0,0.0,1.4739535232676686e-06,0.0,23.009282334322627,3.001049671146517,-0.004381702880615368,0.0
581,2.7586206896551726,0.3448275862068966,3.928571428571429,0,355802.01975612825,477274.3203109224,442290.28937996353,105272.55117510095,-19514.028384605306,2.372013465040855e-06,0.0,0.0,0.0,2.372013465040855e-06,0.0,23.4273914383948,3.2955653111733065,-0.0006615897106772014,0.0
582,2.7586206896551726,0.3448275862068966,4.285714285714286,0,175618.63120788248,435634.69028590905,262705.48578194564,257444.83905879487,41659.55299053038,1.1707908747192165e-06,0.0,0.0,0.0,1.1707908747192165e-06,0.0,23.95453358569222,3.594849556131862,0.0013958717654732444,0.0
583,2.7586206896551726,0.3448275862068966,4.642857142857143,0,317811.1907516653,454176.37852602225,442223.4164728976,130557.334245401,-61166.05617927804,2.1187412716777683e-06,0.0,0.0,0.0,2.1187412716777683e-06,0.0,24.01515967367293,3.8969183927426077,-0.0020420919510101432,0.0
584,2.7586206896551726,0.3448275862068966,5.0,0,305268.0363190112,379380.9567141868,430625.824592254,102978.48003294603,-14608.446741171912,2.0351202421267413e-06,0.0,0.0,0.0,2.0351202421267413e-06,0.0,23.203906635147632,4.200093305344956,-0.00048718231968536223,0.0
585,3.1034482758620694,0.3448275862068966,0.0,0,319969.78988144774,525492.6774041712,292429.00040278106,160683.45716337167,13608.8532318384,2.1331319325429847e-06,0.0,0.0,0.0,2.1331319325429847e-06,0.0,24.635103025821838,-0.0499039923898561,0.0004538465179230138,0.0
586,3.1034482758620694,0.3448275862068966,0.35714285714285715,0,108456.97130694865,325645.25778732,249649.46316178472,201441.8268673565,-33395.288801774666,7.230464753796577e-07,0.0,0.0,0.0,7.230464753796577e-07,0.0,23.503283848569477,0.2540754358582593,-0.0011149362035681955,0.0
587,3.1034482758620694,0.3448275862068966,0.7142857142857143,0,347421.09517304896,468824.33033194987,274468.84277941944,67720.81319168647,321.01032081143023,2.316140634486993e-06,0.0,0.0,0.0,2.316140634486993e-06,0.0,23.61718481781869,0.5591929737467328,1.075597818699684e-05,0.0
588,3.1034482758620694,0.3448275862068966,1.0714285714285714,0,413209.53358057415,544124.5737126443,542603.9026121023,130156.80319607382,17255.880537767865,2.754730223870494e-06,0.0,0.0,0.0,2.754730223870494e-06,0.0,24.06707008232038,0.8671757493113467,0.0005850310754630534,0.0
589,3.1034482758620694,0.3448275862068966,1.4285714285714286,0,339981.4578166532,560628.3113660574,549736.3669051187,215331.76047118206,21872.763365650368,2.266543052111021e-06,0.0,0.0,0.0,2.266543052111021e-06,0.0,24.358712292414914,1.1800652358841561,0.0007700899236922393,0.0
590,3.1034482758620694,0.3448275862068966,1.7857142857142858,0,196178.34534558174,702950.3839120805,531210.5982567044,489154.6230990064,47812.88445011629,1.3078556356372116e-06,0.0,0.0,0.0,1.3078556356372116e-06,0.0,23.61824671639271,1.4977155993718982,0.0018884893272684122,0.0
591,3.1034482758620694,0.3448275862068966,2.142857142857143,0,961108.248819847,970767.2393440407,627794.3375477034,-114779.52544189477,319401.6118086668,6.407388325465647e-06,0.0,0.0,0.0,6.407388325465647e-06,0.0,24.178847017042916,1.8152061228454521,0.01712155387798243,0.0
592,3.1034482758620694,0.3448275862068966,2.5,0,778094.5308022895,1541821.708401693,923915.0773220268,668001.4657761365,787522.1345393988,5.1872968720152635e-06,0.0,0.0,0.0,5.1872968720152635e-06,0.0,23.368867526806586,2.1247331733202994,0.07875221345393989,0.0
593,3.1034482758620694,0.3448275862068966,2.857142857142857,0,444839.2898360563,776540.569242598,812751.7789216011,350913.64766327327,446205.1236551003,2.9655952655737087e-06,0.0,0.0,0.0,2.9655952655737087e-06,0.0,24.435899718756122,2.422348979988309,0.023918868229973387,0.0
594,3.1034482758620694,0.3448275862068966,3.2142857142857144,0,328976.7957071338,590477.7496251857,330654.47681850794,220577.29620165055,98420.44671130546,2.1931786380475586e-06,0.0,0.0,0.0,2.1931786380475586e-06,0.0,23.625717875029117,2.7120013136576127,0.0038873614369199128,0.0
595,3.1034482758620694,0.3448275862068966,3.5714285714285716,0,297690.08280661487,470772.24693948403,366193.4222243672,134904.20797668785,12284.490170675948,1.984600552044099e-06,0.0,0.0,0.0,1.984600552044099e-06,0.0,23.76836949579346,3.0014938073127277,0.000432508775411086,0.0
596,3.1034482758620694,0.3448275862068966,3.928571428571429,0,359316.9115688984,549032.7540125223,424463.7535747654,144008.46031050434,15251.707046773718,2.3954460771259895e-06,0.0,0.0,0.0,2.3954460771259895e-06,0.0,23.442501226771572,3.295747177882776,0.000517083005801549,0.0
597,3.1034482758620694,0.3448275862068966,4.285714285714286,0,283317.0557722518,459615.1700870346,145292.79349977625,223906.94636965083,37467.33348806225,1.888780371815012e-06,0.0,0.0,0.0,1.888780371815012e-06,0.0,23.72861709806238,3.5949072594610185,0.0012554045636410085,0.0
598,3.1034482758620694,0.3448275862068966,4.642857142857143,0,232323.54653490614,343369.8475164732,368461.1449924288,124610.3939160319,13198.16303106195,1.548823643566041e-06,0.0,0.0,0.0,1.548823643566041e-06,0.0,23.260183370247518,3.8969325787154023,0.0004406343023793326,0.0
599,3.1034482758620694,0.3448275862068966,5.0,0,96642.50129702623,399305.1844159565,415066.0598048927,311511.85787917604,4160.546706136467,6.442833419801749e-07,0.0,0.0,0.0,6.442833419801749e-07,0.0,23.598867700330864,4.200096007610144,0.00013875156143344043,0.0
600,3.4482758620689657,0.3448275862068966,0.0,0,133648.56312424832,360227.2245244403,241437.59424500953,215517.07530735465,-21637.432018239037,8.909904208283221e-07,0.0,0.0,0.0,8.909904208283221e-07,0.0,23.606567883243184,-0.04990168163448198,-0.0007215944658216536,0.0
601,3.4482758620689657,0.3448275862068966,0.35714285714285715,0,218687.60576051593,352455.68181678135,426719.5144983135,180571.01680608166,56927.394474138935,1.4579173717367728e-06,0.0,0.0,0.0,1.4579173717367728e-06,0.0,23.074777009374174,0.2540875665377429,0.0019005798527681138,0.0
602,3.4482758620689657,0.3448275862068966,0.7142857142857143,0,309342.3868936361,492754.5806740078,231560.43761456592,151145.83398711728,-46272.11290457629,2.0622825792909073e-06,0.0,0.0,0.0,2.0622825792909073e-06,0.0,23.321885587346927,0.5592423168972693,-0.001550423163373119,0.0
603,3.4482758620689657,0.3448275862068966,1.0714285714285714,0,55497.342378471476,308073.4831014732,334635.3651591661,270848.93109007506,-8337.298739210511,3.6998228252314317e-07,0.0,0.0,0.0,3.6998228252314317e-07,0.0,22.56235138888665,0.8673312667928175,-0.00028266183445009086,0.0
604,3.4482758620689657,0.3448275862068966,1.4285714285714286,0,330206.21148452593,652113.4524024244,315087.8406117663,329177.70504173875,-18914.47076016174,2.201374743230173e-06,0.0,0.0,0.0,2.201374743230173e-06,0.0,22.996610314866274,1.1804450246767326,-0.0006659352136203638,0.0
605,3.4482758620689657,0.3448275862068966,1.7857142857142858,0,611107.7115081375,823811.4871964512,451326.25504782336,118537.3702109689,-54683.203050576674,4.07405141005425e-06,0.0,0.0,0.0,4.07405141005425e-06,0.0,23.614649497606116,1.4984342464536358,-0.002159849725226405,0.0
606,3.4482758620689657,0.3448275862068966,2.142857142857143,0,885704.764601273,1275557.9793219485,603699.8330327334,271850.5720828518,431976.34177723806,5.904698430675153e-06,0.0,0.0,0.0,5.904698430675153e-06,0.0,24.106158634743487,1.8162597811132801,0.0231561330197146,0.0
607,3.4482758620689657,0.3448275862068966,2.5,0,433139.65950823785,1117976.024722092,1034570.0124630779,649198.6193619602,685849.3394106703,2.8875977300549188e-06,0.0,0.0,0.0,2.8875977300549188e-06,0.0,23.452649105399267,2.125930174238767,0.06858493394106704,0.0
608,3.4482758620689657,0.3448275862068966,2.857142857142857,0,359887.4561947212,1015707.1610772492,910733.784827259,615004.4138232762,398266.0854640001,2.399249707964808e-06,0.0,0.0,0.0,2.399249707964808e-06,0.0,23.620600886554428,2.423402638256137,0.02134909151344491,0.0
609,3.4482758620689657,0.3448275862068966,3.2142857142857144,0,255153.37649966788,504168.61799886916,485613.7468143902,240244.30316858206,61807.522192691766,1.7010225099977859e-06,0.0,0.0,0.0,1.7010225099977859e-06,0.0,24.22146557345857,2.71271996073935,0.002441242509173069,0.0
610,3.4482758620689657,0.3448275862068966,3.5714285714285716,0,284161.1742772502,441598.52052920347,211165.04645818315,124087.73146226043,43365.97046809218,1.8944078285150012e-06,0.0,0.0,0.0,1.8944078285150012e-06,0.0,24.061966608030428,3.001873596105304,0.0015268165402940626,0.0
611,3.4482758620689657,0.3448275862068966,3.928571428571429,0,251317.53175323652,466463.49587899237,331416.2340795699,176493.96239418577,37694.48989411811,1.6754502116882435e-06,0.0,0.0,0.0,1.6754502116882435e-06,0.0,24.059460901920232,3.2959026953642465,0.0012779671204561846,0.0
612,3.4482758620689657,0.3448275862068966,4.285714285714286,0,216357.1061703342,518894.6682356985,323235.6982247644,286534.24633801857,-45375.05783958762,1.442380707802228e-06,0.0,0.0,0.0,1.442380707802228e-06,0.0,23.71443221792603,3.594956602611555,-0.001520365859647919,0.0
613,3.4482758620689657,0.3448275862068966,4.642857142857143,0,134289.42954307568,319810.53982097947,269733.2245816642,167678.02805871834,72514.37522766364,8.952628636205045e-07,0.0,0.0,0.0,8.952628636205045e-07,0.0,23.414495800392917,3.8969447093948864,0.0024209673017157583,0.0
614,3.4482758620689657,0.3448275862068966,5.0,0,354155.44368858804,380664.3736524874,440849.3588302651,60457.84545538595,-9863.65325227205,2.3610362912572536e-06,0.0,0.0,0.0,2.3610362912572536e-06,0.0,23.86217390768135,4.2000983183655185,-0.00032894650315359045,0.0
615,3.793103448275862,0.3448275862068966,0.0,0,222621.30025646638,381439.96888553805,152307.7612951629,165957.72707739106,23112.03465070489,1.4841420017097758e-06,0.0,0.0,0.0,1.4841420017097758e-06,0.0,24.267237640435845,-0.04989979162808768,0.0007707715168680283,0.0
616,3.793103448275862,0.3448275862068966,0.35714285714285715,0,160428.99949351166,283593.9475744711,100929.32867538041,218957.9230785785,7093.987554050312,1.0695266632900778e-06,0.0,0.0,0.0,1.0695266632900778e-06,0.0,24.534436983335034,0.25409748842824154,0.0002368401003692644,0.0
617,3.793103448275862,0.3448275862068966,0.7142857142857143,0,263924.8400808622,441354.61269816273,218584.77041882003,149868.27779436714,4177.774462217147,1.7594989338724148e-06,0.0,0.0,0.0,1.7594989338724148e-06,0.0,24.83844020074496,0.5592826755051399,0.0001399831970268541,0.0
618,3.793103448275862,0.3448275862068966,1.0714285714285714,0,80241.0056436621,347740.98681417265,342407.3601284082,264966.2256353304,22902.56951769521,5.34940037624414e-07,0.0,0.0,0.0,5.34940037624414e-07,0.0,24.405031404004678,0.867458467204292,0.0007764723942356271,0.0
619,3.793103448275862,0.3448275862068966,1.4285714285714286,0,206063.27208113746,454067.9290706175,230989.1218902954,270842.0104233106,68234.67005496049,1.3737551472075831e-06,0.0,0.0,0.0,1.3737551472075831e-06,0.0,23.666763247542935,1.1807556604344123,0.002402386519588592,0.0
620,3.793103448275862,0.3448275862068966,1.7857142857142858,0,321299.03714789555,615711.6716717673,341024.2615078591,262397.6184045856,123900.71269151359,2.1419935809859705e-06,0.0,0.0,0.0,2.1419935809859705e-06,0.0,23.048439192557833,1.499022040209279,0.00489376820181164,0.0
621,3.793103448275862,0.3448275862068966,2.142857142857143,0,460756.3813412168,844564.2764144229,892775.0709005804,409808.8751380455,353845.32943613845,3.0717092089414455e-06,0.0,0.0,0.0,3.0717092089414455e-06,0.0,23.955381628256287,1.8171215862554009,0.018967912647987757,0.0
622,3.793103448275862,0.3448275862068966,2.5,0,1040947.0894555881,1178355.9124882317,935176.0149587675,37345.29681300878,670929.181540325,6.939647263037255e-06,0.0,0.0,0.0,6.939647263037255e-06,0.0,24.20741531756808,2.12690922178972,0.06709291815403251,0.0
623,3.793103448275862,0.3448275862068966,2.857142857142857,0,274502.1936357461,959641.4339764977,777651.4797503592,643899.4953012916,321738.14759218623,1.8300146242383072e-06,0.0,0.0,0.0,1.8300146242383072e-06,0.0,22.387196138850804,2.424264443398258,0.017246804101607872,0.0
624,3.793103448275862,0.3448275862068966,3.2142857142857144,0,379122.3250880042,626554.3972703335,579616.6253883862,226148.68431692396,119713.0538335625,2.5274821672533613e-06,0.0,0.0,0.0,2.5274821672533613e-06,0.0,22.92903850398991,2.713307754494994,0.004728366152752404,0.0
625,3.793103448275862,0.3448275862068966,3.5714285714285716,0,219043.4760328583,403689.10840955033,290589.94799736823,151214.85051302132,33814.58733678627,1.4602898402190554e-06,0.0,0.0,0.0,1.4602898402190554e-06,0.0,23.444912107603997,3.0021842318629837,0.0011905342067004077,0.0
626,3.793103448275862,0.3448275862068966,3.928571428571429,0,273357.3828123331,432603.50231019483,253812.60617964162,117931.29038847043,-13650.52349319428,1.8223825520822208e-06,0.0,0.0,0.0,1.8223825520822208e-06,0.0,23.29361331519107,3.296029895775721,-0.0004627976197666788,0.0
627,3.793103448275862,0.3448275862068966,4.285714285714286,0,287554.2519339184,525205.0168223259,340193.55247030157,193920.06371405764,52359.687900243,1.917028346226123e-06,0.0,0.0,0.0,1.917028346226123e-06,0.0,22.87826765958423,3.594996961219426,0.001754397364886602,0.0
628,3.793103448275862,0.3448275862068966,4.642857142857143,0,298469.9815375961,404427.20812422346,169573.06317376683,68557.97435968411,42245.555925307825,1.9897998769173074e-06,0.0,0.0,0.0,1.9897998769173074e-06,0.0,23.877555119743377,3.896954631285385,0.0014104115110538462,0.0
629,3.793103448275862,0.3448275862068966,5.0,0,379075.63956040476,471705.5659267535,106775.18021302282,79913.59338021094,71726.2363249353,2.5271709304026984e-06,0.0,0.0,0.0,2.5271709304026984e-06,0.0,24.312860623673636,4.200100208371913,0.0023920239306892406,0.0
630,4.137931034482759,0.3448275862068966,0.0,0,109875.67143601236,270156.01677317166,229513.20414986068,145749.14312786594,-29555.344711170037,7.325044762400824e-07,0.0,0.0,0.0,7.325044762400824e-07,0.0,23.5531335381964,-0.04989834847740244,-0.000985651770554576,0.0
631,4.137931034482759,0.3448275862068966,0.35714285714285715,0,260365.42228382488,386083.59879185417,331672.47562101646,102812.17580062355,-3749.8212174070236,1.735769481892166e-06,0.0,0.0,0.0,1.735769481892166e-06,0.0,22.822027269921197,0.2541050644783095,-0.0001251916537392868,0.0
632,4.137931034482759,0.3448275862068966,0.7142857142857143,0,112586.86271108424,293063.64259386336,282019.4410643451,175361.6823865284,-7373.058914570138,7.505790847405615e-07,0.0,0.0,0.0,7.505790847405615e-07,0.0,23.759949293636254,0.5593134920953795,-0.00024704645213928956,0.0
633,4.137931034482759,0.3448275862068966,1.0714285714285714,0,203565.4766317352,272566.469317746,337106.5153701108,109094.72337783752,100967.40284804485,1.3571031775449013e-06,0.0,0.0,0.0,1.3571031775449013e-06,0.0,23.106557514731737,0.8675555935217135,0.003423126866555366,0.0
634,4.137931034482759,0.3448275862068966,1.4285714285714286,0,225773.8087625791,383062.575563019,133396.30772365732,323220.8160751404,6093.141517462647,1.5051587250838608e-06,0.0,0.0,0.0,1.5051587250838608e-06,0.0,23.161966190362246,1.1809928523338182,0.00021452556349590922,0.0
635,4.137931034482759,0.3448275862068966,1.7857142857142858,0,398475.98489098385,797460.7378550423,491401.5451023772,346893.0121010957,149303.45321496436,2.656506565939892e-06,0.0,0.0,0.0,2.656506565939892e-06,0.0,24.150880034919822,1.4994708614216261,0.005897112905098808,0.0
636,4.137931034482759,0.3448275862068966,2.142857142857143,0,541108.9108022872,1135360.6213461687,792625.4855078323,511557.0653070838,458567.86166521005,3.6073927386819146e-06,0.0,0.0,0.0,3.6073927386819146e-06,0.0,24.275855217244718,1.8177796341250487,0.024581573980645283,0.0
637,4.137931034482759,0.3448275862068966,2.5,0,792954.4733910549,1177151.6297639196,482535.76923640975,313211.9141843505,638312.4114314978,5.286363155940366e-06,0.0,0.0,0.0,5.286363155940366e-06,0.0,23.535834699968298,2.1276567923526004,0.06383124114314978,0.0
638,4.137931034482759,0.3448275862068966,2.857142857142857,0,175044.93131767146,661617.6091075671,832352.1413989279,840675.9505616568,365138.7324996324,1.1669662087844764e-06,0.0,0.0,0.0,1.1669662087844764e-06,0.0,24.050769879404744,2.424922491267906,0.019573296596811455,0.0
639,4.137931034482759,0.3448275862068966,3.2142857142857144,0,362654.96826703043,618675.6872647908,436405.77713886194,201041.28977385646,101496.96234159499,2.4176997884468694e-06,0.0,0.0,0.0,2.4176997884468694e-06,0.0,23.15282196136646,2.713756575707341,0.004008876108117753,0.0
640,4.137931034482759,0.3448275862068966,3.5714285714285716,0,429627.6012120216,476662.730900277,590812.6247417767,115638.1358155654,62195.46691638449,2.864184008080144e-06,0.0,0.0,0.0,2.864184008080144e-06,0.0,23.95922798416334,3.00242142376239,0.0021897600029294503,0.0
641,4.137931034482759,0.3448275862068966,3.928571428571429,0,261528.17405292834,400410.8932978439,102337.04562789829,209410.03465112692,-6405.775741483119,1.7435211603528555e-06,0.0,0.0,0.0,1.7435211603528555e-06,0.0,23.507483326683595,3.2961270220931427,-0.0002171768553341976,0.0
642,4.137931034482759,0.3448275862068966,4.285714285714286,0,176168.32233196247,237011.69487749037,365640.5496151403,164848.13468085244,-19090.383948603052,1.174455482213083e-06,0.0,0.0,0.0,1.174455482213083e-06,0.0,23.041370235989717,3.5950277778096655,-0.0006396546778107752,0.0
643,4.137931034482759,0.3448275862068966,4.642857142857143,0,192915.95508590052,307629.75251999963,232487.41406231953,88449.6973438063,34893.065750055386,1.2861063672393368e-06,0.0,0.0,0.0,1.2861063672393368e-06,0.0,23.255320294206406,3.8969622073354526,0.00116494103372314,0.0
644,4.137931034482759,0.3448275862068966,5.0,0,206448.2859398538,369404.7286816656,140912.48339046378,314017.46389826405,-42915.86058240453,1.3763219062656921e-06,0.0,0.0,0.0,1.3763219062656921e-06,0.0,23.918653231754355,4.200101651522598,-0.0014312163969427032,0.0
645,4.482758620689656,0.3448275862068966,0.0,0,181326.95387868833,391838.6588744732,210421.3684502243,210602.17675973207,8944.016784408108,1.2088463591912555e-06,0.0,0.0,0.0,1.2088463591912555e-06,0.0,22.921464558807006,-0.04989737358135164,0.00029827721738904064,0.0
646,4.482758620689656,0.3448275862068966,0.35714285714285715,0,108898.86464970587,198487.2206709629,267409.2497502747,141864.32800035563,37525.076668211674,7.259924309980391e-07,0.0,0.0,0.0,7.259924309980391e-07,0.0,23.52566430256338,0.25411018235086946,0.0012528134362724261,0.0
647,4.482758620689656,0.3448275862068966,0.7142857142857143,0,27486.34139607576,343568.50869527156,322234.51965609007,312550.9700281969,15282.271727588783,1.832422759738384e-07,0.0,0.0,0.0,1.832422759738384e-07,0.0,24.205436003639385,0.559334309722001,0.0005120576214939271,0.0
648,4.482758620689656,0.3448275862068966,1.0714285714285714,0,173599.94568324398,376292.3688164016,382066.24120777263,205651.3881242521,-20506.986363922097,1.1573329712216266e-06,0.0,0.0,0.0,1.1573329712216266e-06,0.0,23.42955747443753,0.867621205563652,-0.0006952542503254613,0.0
649,4.482758620689656,0.3448275862068966,1.4285714285714286,0,296854.7836820882,497367.4319977072,418487.47077617503,169039.53820397914,-37221.44795559394,1.9790318912139213e-06,0.0,0.0,0.0,1.9790318912139213e-06,0.0,22.910073423018407,1.1811530833120378,-0.0013104819695920345,0.0
650,4.482758620689656,0.3448275862068966,1.7857142857142858,0,333756.83753668173,693377.8752482006,308711.0476671475,521469.94606718083,136440.43142987933,2.2250455835778782e-06,0.0,0.0,0.0,2.2250455835778782e-06,0.0,23.546940935046997,1.4997740550048815,0.00538905572266929,0.0
651,4.482758620689656,0.3448275862068966,2.142857142857143,0,466050.15224566276,1007405.2815207727,835538.3386835402,479828.22090602305,324453.8388085433,3.107001014971085e-06,0.0,0.0,0.0,3.107001014971085e-06,0.0,24.02900132180041,1.8182241672399355,0.017392378988389204,0.0
652,4.482758620689656,0.3448275862068966,2.5,0,308980.58362881496,891788.4409194537,826227.0928832,555288.6807503985,516868.2809691194,2.059870557525433e-06,0.0,0.0,0.0,2.059870557525433e-06,0.0,23.046073117852657,2.128161801009634,0.05168682809691194,0.0
653,4.482758620689656,0.3448275862068966,2.857142857142857,0,247543.5457030068,557967.789326437,513467.32196356944,291192.3252032728,443060.2614538156,1.650290304686712e-06,0.0,0.0,0.0,1.650290304686712e-06,0.0,24.29317622369783,2.4253670243827923,0.02375028759159395,0.0
654,4.482758620689656,0.3448275862068966,3.2142857142857144,0,269812.95599715575,561116.3187243523,400482.25563086744,249614.1783265382,112929.10796039701,1.7987530399810383e-06,0.0,0.0,0.0,1.7987530399810383e-06,0.0,24.086045633296,2.714059769290596,0.0044604172614529074,0.0
655,4.482758620689656,0.3448275862068966,3.5714285714285716,0,335954.9829235096,510293.02705201466,237235.11816952765,135131.96171896724,-39368.660479333834,2.239699886156731e-06,0.0,0.0,0.0,2.239699886156731e-06,0.0,23.884172821663945,3.0025816547406095,-0.001386080406831778,0.0
656,4.482758620689656,0.3448275862068966,3.928571428571429,0,212637.46797051394,467778.59917877824,258792.19031806852,251669.07215831318,92214.31953884105,1.4175831198034263e-06,0.0,0.0,0.0,1.4175831198034263e-06,0.0,24.002516090184887,3.2961926341350813,0.003126368568374449,0.0
657,4.482758620689656,0.3448275862068966,4.285714285714286,0,327793.0339720529,405542.60360613,196739.70666710433,27737.99898620546,-19188.357859363976,2.1852868931470194e-06,0.0,0.0,0.0,2.1852868931470194e-06,0.0,23.782169247598837,3.5950485954362867,-0.0006429374546522659,0.0
658,4.482758620689656,0.3448275862068966,4.642857142857143,0,185969.57243370597,384345.1845283741,174994.27740736125,238271.29939271975,27751.6273426059,1.2397971495580398e-06,0.0,0.0,0.0,1.2397971495580398e-06,0.0,23.89045544582859,3.8969673252080126,0.0009265167376112075,0.0
659,4.482758620689656,0.3448275862068966,5.0,0,265966.3566719201,380751.44884959265,281627.668779446,79457.63781563425,70301.62867858965,1.7731090444794674e-06,0.0,0.0,0.0,1.7731090444794674e-06,0.0,23.763783672873288,4.200102626418649,0.0023445141803314492,0.0
660,4.827586206896552,0.3448275862068966,0.0,0,157228.97685068892,296054.5211313498,275058.9576295284,129382.66695980582,29586.927082488626,1.0481931790045927e-06,0.0,0.0,0.0,1.0481931790045927e-06,0.0,24.11050003575591,-0.049896882170131655,0.000986705022361066,0.0
661,4.827586206896552,0.3448275862068966,0.35714285714285715,0,182658.1684811791,324503.0602674744,220718.3199591979,113596.37543614578,8635.11141582227,1.2177211232078607e-06,0.0,0.0,0.0,1.2177211232078607e-06,0.0,24.32021264255482,0.25411276209257255,0.00028829211199496034,0.0
662,4.827586206896552,0.3448275862068966,0.7142857142857143,0,305051.9486161937,445804.79278554395,325386.0636030155,98922.81247892132,-47866.437991468294,2.0336796574412914e-06,0.0,0.0,0.0,2.0336796574412914e-06,0.0,23.268093957218404,0.5593448031641346,-0.0016038436447278783,0.0
663,4.827586206896552,0.3448275862068966,1.0714285714285714,0,82091.32487930974,279433.1725041994,223106.8638948989,185243.53988003128,70502.80515458967,5.472754991953983e-07,0.0,0.0,0.0,5.472754991953983e-07,0.0,23.332327327319803,0.8676542783138678,0.002390276858516495,0.0
664,4.827586206896552,0.3448275862068966,1.4285714285714286,0,332256.9939600132,529403.1032508577,255884.75913667472,159651.4493190912,39649.99152036677,2.215046626400088e-06,0.0,0.0,0.0,2.215046626400088e-06,0.0,23.49234042936826,1.1812338501798707,0.0013959854287213095,0.0
665,4.827586206896552,0.3448275862068966,1.7857142857142858,0,357615.5162935447,536312.7693297635,476985.20674732904,152743.58015047936,-20721.58275873671,2.3841034419569645e-06,0.0,0.0,0.0,2.3841034419569645e-06,0.0,23.388323978620278,1.4999268843537292,-0.000818450681945591,0.0
666,4.827586206896552,0.3448275862068966,2.142857142857143,0,631259.5056942236,1074437.1484145215,572015.7910452714,365877.4254827857,451507.68534746685,4.208396704628157e-06,0.0,0.0,0.0,4.208396704628157e-06,0.0,24.264356300241335,1.8184482409349,0.02420311255545777,0.0
667,4.827586206896552,0.3448275862068966,2.5,0,456699.47212221415,718136.2456400063,716459.9622079746,260600.93906296275,582708.9036599421,3.0446631474814278e-06,0.0,0.0,0.0,3.0446631474814278e-06,0.0,22.952375987839975,2.1284163583237716,0.058270890365994206,0.0
668,4.827586206896552,0.3448275862068966,2.857142857142857,0,744832.1000665476,948821.0256160112,166388.20529135157,248373.2804492178,296741.1676869607,4.965547333776984e-06,0.0,0.0,0.0,4.965547333776984e-06,0.0,23.978270303008987,2.425591098077757,0.01590683860860171,0.0
669,4.827586206896552,0.3448275862068966,3.2142857142857144,0,395344.2203803298,488764.0819973805,403177.94521195145,57636.99181319305,27587.570058075282,2.6356281358688655e-06,0.0,0.0,0.0,2.6356281358688655e-06,0.0,24.405002692643784,2.7142125986394436,0.001089640004344437,0.0
670,4.827586206896552,0.3448275862068966,3.5714285714285716,0,158175.03157012732,286898.28231078916,133880.16286759623,124027.00889731044,11879.417743032416,1.0545002104675155e-06,0.0,0.0,0.0,1.0545002104675155e-06,0.0,23.42701856441475,3.0026624216084423,0.0004182471025863472,0.0
671,4.827586206896552,0.3448275862068966,3.928571428571429,0,195453.15312357957,359396.7641123733,156956.5290517381,171774.1090765199,28042.6408753229,1.3030210208238637e-06,0.0,0.0,0.0,1.3030210208238637e-06,0.0,24.457153740817322,3.296225706885297,0.0009507377102088186,0.0
672,4.827586206896552,0.3448275862068966,4.285714285714286,0,261379.07895750398,401712.9098880777,144701.38350193133,136174.92641389513,-16529.601877411882,1.7425271930500265e-06,0.0,0.0,0.0,1.7425271930500265e-06,0.0,24.30452428914405,3.59505908887842,-0.0005538514674038279,0.0
673,4.827586206896552,0.3448275862068966,4.642857142857143,0,103666.46341511718,276867.7437591651,163747.26076701574,254212.5591531026,4250.740938371958,6.911097561007812e-07,0.0,0.0,0.0,6.911097561007812e-07,0.0,23.555973063732043,3.896969904949716,0.0001419153759175901,0.0
674,4.827586206896552,0.3448275862068966,5.0,0,97681.12464608053,233238.03995875845,196607.44911632143,307309.17196615954,112609.4677359236,6.512074976405369e-07,0.0,0.0,0.0,6.512074976405369e-07,0.0,24.144723800610265,4.200103117829869,0.003755453449784091,0.0
675,5.172413793103448,0.3448275862068966,0.0,0,183086.03858576115,306904.82326501224,188433.3128898083,96031.75918843574,14872.646753895144,1.220573590571741e-06,0.0,0.0,0.0,1.220573590571741e-06,0.0,23.255730187685415,-0.049896882170131655,0.0004959932204840518,0.0
676,5.172413793103448,0.3448275862068966,0.35714285714285715,0,214734.54140717568,307241.3498579079,260441.8711127728,72966.57672070102,30204.92332008246,1.4315636093811712e-06,0.0,0.0,0.0,1.4315636093811712e-06,0.0,23.122905720864544,0.25411276209257255,0.001008422557309089,0.0
677,5.172413793103448,0.3448275862068966,0.7142857142857143,0,136988.98068842568,348110.50679662166,233548.6048851049,196369.72944431586,-30057.291916846247,9.132598712561713e-07,0.0,0.0,0.0,9.132598712561713e-07,0.0,23.446614254390173,0.5593448031641346,-0.001007118946831952,0.0
678,5.172413793103448,0.3448275862068966,1.0714285714285714,0,260709.60070681327,384582.2051056917,103354.6596476792,150948.02247943686,-43664.171248975515,1.7380640047120885e-06,0.0,0.0,0.0,1.7380640047120885e-06,0.0,24.358398360918706,0.8676542783138678,-0.0014803589425112838,0.0
679,5.172413793103448,0.3448275862068966,1.4285714285714286,0,122277.27552796552,371129.6810653548,269171.979591368,235562.40060450352,59728.002534525964,8.151818368531035e-07,0.0,0.0,0.0,8.151818368531035e-07,0.0,23.45882519179176,1.1812338501798707,0.0021028862309339633,0.0
680,5.172413793103448,0.3448275862068966,1.7857142857142858,0,424338.9326603376,737693.6587776908,410867.3796307212,258128.70881001453,120111.78941446725,2.828926217735584e-06,0.0,0.0,0.0,2.828926217735584e-06,0.0,23.713550955650682,1.4999268843537292,0.004744115210722886,0.0
681,5.172413793103448,0.3448275862068966,2.142857142857143,0,475169.66226909944,832893.880653167,505618.0800976681,287871.5015105875,437271.0293916052,3.167797748460663e-06,0.0,0.0,0.0,3.167797748460663e-06,0.0,23.195259980169414,1.8184482409349,0.02343995525449649,0.0
682,5.172413793103448,0.3448275862068966,2.5,0,463364.85235313635,872951.3049524374,645134.1271852215,339779.68820698775,533723.7757641397,3.0890990156875757e-06,0.0,0.0,0.0,3.0890990156875757e-06,0.0,24.13550898558682,2.1284163583237716,0.05337237757641397,0.0
683,5.172413793103448,0.3448275862068966,2.857142857142857,0,181279.75680362797,540214.0121212617,588342.0005907558,387854.87076661765,400638.71127642324,1.2085317120241864e-06,0.0,0.0,0.0,1.2085317120241864e-06,0.0,24.122647708524838,2.425591098077757,0.021476276346513407,0.0
684,5.172413793103448,0.3448275862068966,3.2142857142857144,0,295143.0689480768,509766.51470534713,458896.7339002839,192494.9744475877,-80752.77373845648,1.9676204596538453e-06,0.0,0.0,0.0,1.9676204596538453e-06,0.0,23.359502868441567,2.7142125986394436,-0.0031895325518689773,0.0
685,5.172413793103448,0.3448275862068966,3.5714285714285716,0,178240.29054644718,350323.9573989492,144612.2680775077,241844.33896335456,25049.06615793041,1.1882686036429813e-06,0.0,0.0,0.0,1.1882686036429813e-06,0.0,22.557861494208662,3.0026624216084423,0.0008819202733394044,0.0
686,5.172413793103448,0.3448275862068966,3.928571428571429,0,294640.4964851149,385274.51478601433,210447.57208016593,45096.96915217197,33594.59178968002,1.964269976567433e-06,0.0,0.0,0.0,1.964269976567433e-06,0.0,23.54025845136924,3.296225706885297,0.0011389670971262468,0.0
687,5.172413793103448,0.3448275862068966,4.285714285714286,0,129195.99997459275,342725.0177330345,314231.07072711,201660.54682749519,-21587.888224997845,8.61306666497285e-07,0.0,0.0,0.0,8.61306666497285e-07,0.0,23.947123226182676,3.59505908887842,-0.0007233376617439112,0.0
688,5.172413793103448,0.3448275862068966,4.642857142857143,0,271866.3421958192,238949.6865567384,307497.56150886416,7917.763470703889,33016.993076551196,1.8124422813054612e-06,0.0,0.0,0.0,1.8124422813054612e-06,0.0,23.723994476431432,3.896969904949716,0.0011023064101200754,0.0
689,5.172413793103448,0.3448275862068966,5.0,0,169545.7749509667,323418.8288928632,272062.20356543135,134132.31784056654,-5621.067413080328,1.130305166339778e-06,0.0,0.0,0.0,1.130305166339778e-06,0.0,23.775567290551013,4.200103117829869,-0.00018745898930474432,0.0
690,5.517241379310345,0.3448275862068966,0.0,0,204492.72632647827,332730.86922732944,236827.7887118486,97912.46598642971,-2337.8921922946256,1.3632848421765219e-06,0.0,0.0,0.0,1.3632848421765219e-06,0.0,23.836529608113825,-0.04989737358135164,-7.796720360463332e-05,0.0
691,5.517241379310345,0.3448275862068966,0.35714285714285715,0,322034.6154569801,383054.8482017092,302466.0456394587,28379.50406826667,-7587.076744852505,2.1468974363798673e-06,0.0,0.0,0.0,2.1468974363798673e-06,0.0,23.41102261280457,0.25411018235086946,-0.00025330239221158846,0.0
692,5.517241379310345,0.3448275862068966,0.7142857142857143,0,337133.6139350076,346572.596398549,318925.9250103292,-3533.0906251283186,46546.87622002966,2.247557426233384e-06,0.0,0.0,0.0,2.247557426233384e-06,0.0,23.043573582854446,0.559334309722001,0.0015596295596663383,0.0
693,5.517241379310345,0.3448275862068966,1.0714285714285714,0,255181.0988449586,349377.9366805704,204436.10968363698,54733.00737959411,-13583.558831467564,1.7012073256330573e-06,0.0,0.0,0.0,1.7012073256330573e-06,0.0,24.045472814442252,0.867621205563652,-0.00046052729760130137,0.0
694,5.517241379310345,0.3448275862068966,1.4285714285714286,0,197591.66060750655,356625.6482002207,178349.79409186644,144176.1068386936,-15891.589668355484,1.317277737383377e-06,0.0,0.0,0.0,1.317277737383377e-06,0.0,23.23825561041422,1.1811530833120378,-0.0005595064908109003,0.0
695,5.517241379310345,0.3448275862068966,1.7857142857142858,0,349290.0597010727,543997.354762514,326067.3164620078,141121.77164639416,9900.893453683631,2.3286003980071515e-06,0.0,0.0,0.0,2.3286003980071515e-06,0.0,23.084631281916558,1.4997740550048815,0.0003910605233869707,0.0
696,5.517241379310345,0.3448275862068966,2.142857142857143,0,818550.4966227574,934802.6796521833,986735.5480314704,143455.12986272745,254513.4179551715,5.457003310818383e-06,0.0,0.0,0.0,5.457003310818383e-06,0.0,23.94020730227984,1.8182241672399355,0.013643216054899968,0.0
697,5.517241379310345,0.3448275862068966,2.5,0,282036.99689483363,645428.3858084364,339791.8136820436,589998.9181566859,524918.0116956284,1.8802466459655576e-06,0.0,0.0,0.0,1.8802466459655576e-06,0.0,23.14200275502037,2.128161801009634,0.05249180116956284,0.0
698,5.517241379310345,0.3448275862068966,2.857142857142857,0,505248.3980111744,695632.1577268342,453147.5973319607,114850.02923500107,329839.4092518234,3.3683226534078293e-06,0.0,0.0,0.0,3.3683226534078293e-06,0.0,23.29055114353139,2.4253670243827923,0.017681073005886918,0.0
699,5.517241379310345,0.3448275862068966,3.2142857142857144,0,193246.2315539432,426796.2612043031,210732.13475268407,270480.39163180726,15147.660264340499,1.2883082103596213e-06,0.0,0.0,0.0,1.2883082103596213e-06,0.0,24.494668570639686,2.714059769290596,0.0005982946871180717,0.0
700,5.517241379310345,0.3448275862068966,3.5714285714285716,0,261881.11935594497,379112.9181945531,255466.7575900943,78301.46808961769,17570.341829161196,1.7458741290396333e-06,0.0,0.0,0.0,1.7458741290396333e-06,0.0,24.50339607876789,3.0025816547406095,0.0006186115111414949,0.0
701,5.517241379310345,0.3448275862068966,3.928571428571429,0,291293.1918537415,377844.1433016343,139324.8451843062,53199.1687215165,18751.435694847623,1.9419546123582766e-06,0.0,0.0,0.0,1.9419546123582766e-06,0.0,24.309482396074024,3.2961926341350813,0.0006357353116244997,0.0
702,5.517241379310345,0.3448275862068966,4.285714285714286,0,155996.01969934008,259187.60512205554,199628.5640834488,82186.14793923024,-27450.17183232006,1.0399734646622672e-06,0.0,0.0,0.0,1.0399734646622672e-06,0.0,24.098267253024652,3.5950485954362867,-0.0009197631051594416,0.0
703,5.517241379310345,0.3448275862068966,4.642857142857143,0,62488.91257613602,153132.92926114268,90946.03419028042,153732.64748794088,1852.4187451792363,4.1659275050757345e-07,0.0,0.0,0.0,4.1659275050757345e-07,0.0,24.30151799730953,3.8969673252080126,6.184491277880322e-05,0.0
704,5.517241379310345,0.3448275862068966,5.0,0,219787.01425839405,269150.5579551883,241567.83442739086,36874.124255673516,-2488.896165897855,1.465246761722627e-06,0.0,0.0,0.0,1.465246761722627e-06,0.0,24.709356049311786,4.200102626418649,-8.300308917447911e-05,0.0
705,5.862068965517242,0.3448275862068966,0.0,0,176699.79635055037,326410.86411625874,260663.16782186218,126262.54584791252,2038.171200361246,1.1779986423370026e-06,0.0,0.0,0.0,1.1779986423370026e-06,0.0,24.194402762401634,-0.04989834847740244,6.79717009549938e-05,0.0
706,5.862068965517242,0.3448275862068966,0.35714285714285715,0,215288.26515054578,305725.6102563891,172033.56931283613,57375.13872957035,-14629.99280372744,1.4352551010036386e-06,0.0,0.0,0.0,1.4352551010036386e-06,0.0,23.777710987900328,0.2541050644783095,-0.0004884374179734921,0.0
707,5.862068965517242,0.3448275862068966,0.7142857142857143,0,201894.54091446492,300640.1016416855,186363.32846756076,67527.22830797915,-3748.4597566493803,1.3459636060964328e-06,0.0,0.0,0.0,1.3459636060964328e-06,0.0,24.093281152792784,0.5593134920953795,-0.00012559830249520313,0.0
708,5.862068965517242,0.3448275862068966,1.0714285714285714,0,115322.9032007936,269327.647442034,190388.857154825,136982.67669507916,1069.3165091182623,7.688193546719573e-07,0.0,0.0,0.0,7.688193546719573e-07,0.0,23.429070785375774,0.8675555935217135,3.625334482182138e-05,0.0
709,5.862068965517242,0.3448275862068966,1.4285714285714286,0,31418.993978736424,246740.20492543257,244083.8904953882,276746.7118680558,65970.81810057143,2.0945995985824283e-07,0.0,0.0,0.0,2.0945995985824283e-07,0.0,23.739436719564335,1.1809928523338182,0.00232268147502418,0.0
710,5.862068965517242,0.3448275862068966,1.7857142857142858,0,364436.8885353412,523892.17055074766,328835.7326737489,103441.38309562528,52153.99638742487,2.4295792569022745e-06,0.0,0.0,0.0,2.4295792569022745e-06,0.0,23.76640843040723,1.4994708614216261,0.0020599523890846884,0.0
711,5.862068965517242,0.3448275862068966,2.142857142857143,0,211055.49712139275,586264.212693045,600675.348329172,382783.61047990766,359580.7829677458,1.4070366474759517e-06,0.0,0.0,0.0,1.4070366474759517e-06,0.0,23.606704545871036,1.8177796341250487,0.019275362181820747,0.0
712,5.862068965517242,0.3448275862068966,2.5,0,789817.6133464222,1189630.5883523584,783754.4980233775,279401.71769478684,594816.474345051,5.265450755642815e-06,0.0,0.0,0.0,5.265450755642815e-06,0.0,23.52305916201198,2.1276567923526004,0.0594816474345051,0.0
713,5.862068965517242,0.3448275862068966,2.857142857142857,0,507741.0947448485,783967.8235252965,378005.38785565365,214657.6621007343,172586.7959836875,3.3849406316323233e-06,0.0,0.0,0.0,3.3849406316323233e-06,0.0,24.329146722216244,2.424922491267906,0.009251531666763136,0.0
714,5.862068965517242,0.3448275862068966,3.2142857142857144,0,122769.80675632054,419789.70081875985,303078.6253565806,291746.86798066803,36199.25045035224,8.184653783754703e-07,0.0,0.0,0.0,8.184653783754703e-07,0.0,23.213461966861257,2.713756575707341,0.0014297798368958304,0.0
715,5.862068965517242,0.3448275862068966,3.5714285714285716,0,214757.8898430322,291012.26767404616,291874.61863850825,76686.851841965,51121.3701361809,1.4317192656202148e-06,0.0,0.0,0.0,1.4317192656202148e-06,0.0,23.768572387942275,3.00242142376239,0.0017998664077827047,0.0
716,5.862068965517242,0.3448275862068966,3.928571428571429,0,205790.04443360574,280000.8299192502,118591.35414246778,48267.0278243837,5349.954517288242,1.3719336295573717e-06,0.0,0.0,0.0,1.3719336295573717e-06,0.0,23.05475597994679,3.2961270220931427,0.00018138104503431082,0.0
717,5.862068965517242,0.3448275862068966,4.285714285714286,0,159557.02006728642,263660.1915797738,84699.10358176392,136256.83927654556,-3219.0940802354853,1.0637134671152428e-06,0.0,0.0,0.0,1.0637134671152428e-06,0.0,22.700297537035407,3.5950277778096655,-0.00010786103581150234,0.0
718,5.862068965517242,0.3448275862068966,4.642857142857143,0,135754.10147419976,337702.7305245887,205725.2360077622,198463.51041539386,20704.142955446234,9.050273431613317e-07,0.0,0.0,0.0,9.050273431613317e-07,0.0,24.30648245923472,3.8969622073354526,0.0006912291934918594,0.0
719,5.862068965517242,0.3448275862068966,5.0,0,116477.91907293172,286278.8709902918,220589.6135604224,151793.71529278636,29462.53277965852,7.765194604862115e-07,0.0,0.0,0.0,7.765194604862115e-07,0.0,24.356559831932824,4.200101651522598,0.0009825565522271664,0.0
720,6.206896551724139,0.3448275862068966,0.0,0,167403.17361615133,223165.0233332807,145227.73234418014,31003.177788207602,-767.8120564742907,1.1160211574410087e-06,0.0,0.0,0.0,1.1160211574410087e-06,0.0,23.383274273525537,-0.04989979162808768,-2.5606039121276573e-05,0.0
721,6.206896551724139,0.3448275862068966,0.35714285714285715,0,257327.5463571963,360327.33154934814,152768.43939183818,72409.49775913473,-7275.450575262742,1.7155169757146419e-06,0.0,0.0,0.0,1.7155169757146419e-06,0.0,23.656028831491405,0.25409748842824154,-0.0002428984307271636,0.0
722,6.206896551724139,0.3448275862068966,0.7142857142857143,0,115383.79168866076,264890.49443575233,143732.3615241414,156311.95395697895,-61993.645299303425,7.69225277924405e-07,0.0,0.0,0.0,7.69225277924405e-07,0.0,23.49080071133382,0.5592826755051399,-0.002077198935181351,0.0
723,6.206896551724139,0.3448275862068966,1.0714285714285714,0,150550.72615021898,311794.97066068614,142312.75505296633,193552.2944027671,1444.77441727596,1.0036715076681266e-06,0.0,0.0,0.0,1.0036715076681266e-06,0.0,23.49606007878065,0.867458467204292,4.898260215064035e-05,0.0
724,6.206896551724139,0.3448275862068966,1.4285714285714286,0,130082.1162111473,275845.6153206902,263391.8704915697,139984.5069274781,-8022.544294294725,8.672141080743152e-07,0.0,0.0,0.0,8.672141080743152e-07,0.0,23.40090206493489,1.1807556604344123,-0.0002824554181897873,0.0
725,6.206896551724139,0.3448275862068966,1.7857142857142858,0,321980.3592507888,482539.2985720183,208694.10820284684,127837.0888064961,2107.1695283916124,2.1465357283385922e-06,0.0,0.0,0.0,2.1465357283385922e-06,0.0,23.879690474731802,1.499022040209279,8.322792508501535e-05,0.0
726,6.206896551724139,0.3448275862068966,2.142857142857143,0,253880.03113573947,707996.4935561763,431171.3514522584,486031.83854550763,237700.8001429137,1.6925335409049298e-06,0.0,0.0,0.0,1.6925335409049298e-06,0.0,23.463806749942552,1.8171215862554009,0.012741974072830897,0.0
727,6.206896551724139,0.3448275862068966,2.5,0,161407.3151532552,487855.97145150375,406970.9056829146,301998.42563288216,419774.54017075285,1.076048767688368e-06,0.0,0.0,0.0,1.076048767688368e-06,0.0,23.866628248417918,2.12690922178972,0.04197745401707528,0.0
728,6.206896551724139,0.3448275862068966,2.857142857142857,0,709942.0620017843,935169.8962779284,272569.8089122039,185852.4192665671,262662.13579464343,4.7329470800118954e-06,0.0,0.0,0.0,4.7329470800118954e-06,0.0,24.497711307479726,2.424264443398258,0.014080028852227278,0.0
729,6.206896551724139,0.3448275862068966,3.2142857142857144,0,398533.5913473672,565992.4895216365,393201.0527924987,110223.83904503463,34836.20098295875,2.6568906089824483e-06,0.0,0.0,0.0,2.6568906089824483e-06,0.0,23.863369945633796,2.713307754494994,0.0013759427927326176,0.0
730,6.206896551724139,0.3448275862068966,3.5714285714285716,0,207309.1015775281,289100.4038279633,187183.63930796486,50560.590106283256,17985.446272478915,1.3820606771835207e-06,0.0,0.0,0.0,1.3820606771835207e-06,0.0,23.735726187255143,3.0021842318629837,0.0006332263882713261,0.0
731,6.206896551724139,0.3448275862068966,3.928571428571429,0,57083.67862336321,210665.0141414655,199353.2722792016,261245.96155211516,4872.835100551629,3.8055785748908807e-07,0.0,0.0,0.0,3.8055785748908807e-07,0.0,23.392319628655194,3.296029895775721,0.00016520512837292714,0.0
732,6.206896551724139,0.3448275862068966,4.285714285714286,0,153012.1062009018,280537.0848643726,104497.83028384628,179466.01017983453,33409.33831879783,1.020080708006012e-06,0.0,0.0,0.0,1.020080708006012e-06,0.0,23.675602227081036,3.594996961219426,0.001119434768610068,0.0
733,6.206896551724139,0.3448275862068966,4.642857142857143,0,171189.04833600426,266002.7554372248,144229.4683735454,70267.52945652566,-13970.199918035056,1.1412603222400284e-06,0.0,0.0,0.0,1.1412603222400284e-06,0.0,22.85230487197299,3.896954631285385,-0.000466409551124319,0.0
734,6.206896551724139,0.3448275862068966,5.0,0,75048.11157438291,280012.8556775028,222522.96266510905,195112.73842142159,46528.32510786045,5.003207438292194e-07,0.0,0.0,0.0,5.003207438292194e-07,0.0,24.462102435544683,4.200100208371913,0.0015516897695383384,0.0
735,6.551724137931035,0.3448275862068966,0.0,0,160317.276154695,259970.55353762256,304822.83305070305,126856.23617601907,26721.289187548708,1.0687818410313e-06,0.0,0.0,0.0,1.0687818410313e-06,0.0,23.118977176953244,-0.04990168163448198,0.0008911378384043745,0.0
736,6.551724137931035,0.3448275862068966,0.35714285714285715,0,180435.62489314118,275782.0536505872,76319.2646123513,123916.5860851927,37232.08961677235,1.2029041659542746e-06,0.0,0.0,0.0,1.2029041659542746e-06,0.0,22.643437957081215,0.2540875665377429,0.001243031760995851,0.0
737,6.551724137931035,0.3448275862068966,0.7142857142857143,0,226548.58989725768,323946.52438980597,165753.68283737884,64418.58683891036,6353.705430042408,1.5103239326483846e-06,0.0,0.0,0.0,1.5103239326483846e-06,0.0,23.5551999352999,0.5592423168972693,0.00021289133894322474,0.0
738,6.551724137931035,0.3448275862068966,1.0714285714285714,0,184091.32658829744,288236.1789175756,202521.5354168702,76917.09164697371,-7115.373981326258,1.2272755105886496e-06,0.0,0.0,0.0,1.2272755105886496e-06,0.0,23.789319873294215,0.8673312667928175,-0.00024123456832621286,0.0
739,6.551724137931035,0.3448275862068966,1.4285714285714286,0,103903.88710030317,237641.18123243723,173486.9872617819,117762.04952390856,-12399.80870674385,6.926925806686878e-07,0.0,0.0,0.0,6.926925806686878e-07,0.0,24.279197273560634,1.1804450246767326,-0.0004365688770615384,0.0
740,6.551724137931035,0.3448275862068966,1.7857142857142858,0,482563.35428196477,548287.3084080499,374815.5827009193,2968.7799629866504,120891.60523812336,3.2170890285464316e-06,0.0,0.0,0.0,3.2170890285464316e-06,0.0,23.74407440022256,1.4984342464536358,0.004774915984973309,0.0
741,6.551724137931035,0.3448275862068966,2.142857142857143,0,596148.7398365481,847841.487351029,336202.81191677233,193195.47129026992,310778.66608171735,3.974324932243654e-06,0.0,0.0,0.0,3.974324932243654e-06,0.0,24.089158446850224,1.8162597811132801,0.016659320049496544,0.0
742,6.551724137931035,0.3448275862068966,2.5,0,827922.5669503978,1224644.5026476486,548900.0624410029,301124.89245956554,357677.5077221006,5.519483779669319e-06,0.0,0.0,0.0,5.519483779669319e-06,0.0,24.096065208520155,2.125930174238767,0.03576775077221006,0.0
743,6.551724137931035,0.3448275862068966,2.857142857142857,0,100485.65844950578,494933.4964649427,380207.4283299849,422543.3362001333,303179.04792933754,6.699043896633718e-07,0.0,0.0,0.0,6.699043896633718e-07,0.0,24.051873594758906,2.423402638256137,0.016251941793290346,0.0
744,6.551724137931035,0.3448275862068966,3.2142857142857144,0,312479.8835232717,451799.9639195163,406692.11850495526,119217.59200432927,9824.136057058211,2.083199223488478e-06,0.0,0.0,0.0,2.083199223488478e-06,0.0,23.073799202522967,2.71271996073935,0.00038802879823624794,0.0
745,6.551724137931035,0.3448275862068966,3.5714285714285716,0,6046.322367602782,175532.41513556318,169861.66008643023,169170.0109521063,13535.059278760331,4.0308815784018544e-08,0.0,0.0,0.0,4.0308815784018544e-08,0.0,23.900823115947766,3.001873596105304,0.00047653845071626383,0.0
746,6.551724137931035,0.3448275862068966,3.928571428571429,0,252519.46610993682,287462.07367704867,162964.62803937972,-3131.498627644081,21543.329705027016,1.6834631073995789e-06,0.0,0.0,0.0,1.6834631073995789e-06,0.0,22.957569292225518,3.2959026953642465,0.0007303896963589797,0.0
747,6.551724137931035,0.3448275862068966,4.285714285714286,0,64400.60653131353,223681.81499823875,223374.78310527763,159128.2414418182,36631.6991034427,4.2933737687542355e-07,0.0,0.0,0.0,4.2933737687542355e-07,0.0,24.652020398642858,3.594956602611555,0.001227405260719679,0.0
748,6.551724137931035,0.3448275862068966,4.642857142857143,0,264115.406329202,346763.2643292693,123809.0698289909,55076.51632066353,5948.781326548416,1.7607693755280134e-06,0.0,0.0,0.0,1.7607693755280134e-06,0.0,24.0083828805871,3.8969447093948864,0.00019860620782314673,0.0
749,6.551724137931035,0.3448275862068966,5.0,0,92942.78219861805,211588.0398815085,178706.7507409963,106674.36901982685,-3354.956646240783,6.19618547990787e-07,0.0,0.0,0.0,6.19618547990787e-07,0.0,23.351895665911275,4.2000983183655185,-0.00011188565015285723,0.0
750,6.8965517241379315,0.3448275862068966,0.0,0,69037.28957636363,161277.4694614518,81713.1902068717,117218.47911487281,1074.8904840495832,4.6024859717575754e-07,0.0,0.0,0.0,4.6024859717575754e-07,0.0,23.751732211295444,-0.0499039923898561,3.5846907525843397e-05,0.0
751,6.8965517241379315,0.3448275862068966,0.35714285714285715,0,108381.68135237548,220648.77392148596,117520.53873260756,107684.21509989926,25989.441330432503,7.225445423491699e-07,0.0,0.0,0.0,7.225445423491699e-07,0.0,23.063258098137847,0.2540754358582593,0.0008676843378060835,0.0
752,6.8965517241379315,0.3448275862068966,0.7142857142857143,0,84454.13272032232,147830.5217589002,189748.7755513003,92535.82558511398,19270.465584500693,5.630275514688154e-07,0.0,0.0,0.0,5.630275514688154e-07,0.0,22.795931620235123,0.5591929737467328,0.0006456886088778437,0.0
753,6.8965517241379315,0.3448275862068966,1.0714285714285714,0,220940.30201140363,289604.82711340394,126359.51085082554,38194.53076413872,-249.88701966031948,1.472935346742691e-06,0.0,0.0,0.0,1.472935346742691e-06,0.0,24.016399982514713,0.8671757493113467,-8.471991419746147e-06,0.0
754,6.8965517241379315,0.3448275862068966,1.4285714285714286,0,107371.47200798288,171749.80442728061,172950.0455918814,64983.484410010286,-50843.1855231785,7.158098133865526e-07,0.0,0.0,0.0,7.158098133865526e-07,0.0,23.09231746431425,1.1800652358841561,-0.001790072164420853,0.0
755,6.8965517241379315,0.3448275862068966,1.7857142857142858,0,147528.4910731835,421526.22711769544,334732.9908695775,251185.30512570322,-57887.81302379398,9.835232738212235e-07,0.0,0.0,0.0,9.835232738212235e-07,0.0,23.496972047640085,1.4977155993718982,-0.002286423802529622,0.0
756,6.8965517241379315,0.3448275862068966,2.142857142857143,0,188644.11233605994,362934.5164586257,362763.8263447923,174205.1169824833,248209.49996040945,1.257627415573733e-06,0.0,0.0,0.0,1.257627415573733e-06,0.0,23.69498958117363,1.8152061228454521,0.013305293929277267,0.0
757,6.8965517241379315,0.3448275862068966,2.5,0,383290.62327862007,683871.9065806475,631721.8760893386,277176.3681979324,335290.2929591858,2.555270821857467e-06,0.0,0.0,0.0,2.555270821857467e-06,0.0,23.505738951813722,2.1247331733202994,0.033529029295918576,0.0
758,6.8965517241379315,0.3448275862068966,2.857142857142857,0,660159.5336149771,825104.7126301298,461483.7217749615,63082.66864471707,201375.08784936744,4.401063557433181e-06,0.0,0.0,0.0,4.401063557433181e-06,0.0,23.087666052961207,2.422348979988309,0.01079473079917261,0.0
759,6.8965517241379315,0.3448275862068966,3.2142857142857144,0,182228.052322038,449373.1216982205,329920.9800453396,239628.87715943117,34638.83102351262,1.2148536821469201e-06,0.0,0.0,0.0,1.2148536821469201e-06,0.0,23.636770742916777,2.7120013136576127,0.0013681471730743583,0.0
760,6.8965517241379315,0.3448275862068966,3.5714285714285716,0,222052.21833882201,242066.18979567714,277438.82611096237,39823.49640806726,64435.3651686878,1.4803481222588134e-06,0.0,0.0,0.0,1.4803481222588134e-06,0.0,23.685166107653295,3.0014938073127277,0.0022686216924818325,0.0
761,6.8965517241379315,0.3448275862068966,3.928571428571429,0,89736.43776036764,250210.84506193042,192352.64602929904,146837.47198850595,3242.4887450711853,5.98242918402451e-07,0.0,0.0,0.0,5.98242918402451e-07,0.0,24.05154299243003,3.295747177882776,0.00010993102748677367,0.0
762,6.8965517241379315,0.3448275862068966,4.285714285714286,0,199966.72605217632,245267.9957216836,246286.13398374908,45812.28276875631,17598.73619485884,1.3331115070145087e-06,0.0,0.0,0.0,1.3331115070145087e-06,0.0,24.843068184992852,3.5949072594610185,0.0005896745691918367,0.0
763,6.8965517241379315,0.3448275862068966,4.642857142857143,0,104040.37493059887,266637.1161395879,214925.21499792085,146872.65117343754,12291.2919241897,6.936024995373258e-07,0.0,0.0,0.0,6.936024995373258e-07,0.0,22.637198429088546,3.8969325787154023,0.0004103574739613043,0.0
764,6.8965517241379315,0.3448275862068966,5.0,0,68880.274557604,176978.64185320423,144994.44256598112,97921.09628159415,-58987.841645416695,4.592018303840267e-07,0.0,0.0,0.0,4.592018303840267e-07,0.0,23.23083250646763,4.200096007610144,-0.001967206646621318,0.0
765,7.241379310344828,0.3448275862068966,0.0,0,184325.71668835843,270213.58066373743,231588.39949224266,69635.87659147583,-9651.01510272014,1.228838111255723e-06,0.0,0.0,0.0,1.228838111255723e-06,0.0,23.635281434841012,-0.04990669465504395,-0.00032185515738714847,0.0
766,7.241379310344828,0.3448275862068966,0.35714285714285715,0,67353.73692163562,110937.84234482088,181893.0358428223,173993.4423582855,-29479.631545988377,4.490249128109041e-07,0.0,0.0,0.0,4.490249128109041e-07,0.0,24.03392982177741,0.2540612498854642,-0.0009842079424306955,0.0
767,7.241379310344828,0.3448275862068966,0.7142857142857143,0,102424.36031552652,211864.943470988,150547.16880301622,93622.6817536713,41871.13262656729,6.828290687701768e-07,0.0,0.0,0.0,6.828290687701768e-07,0.0,23.706448145214026,0.559135270417576,0.0014029610887830784,0.0
768,7.241379310344828,0.3448275862068966,1.0714285714285714,0,129167.03558388769,225348.71027549033,188720.3065149191,81823.11470439982,-45274.89759025812,8.611135705592513e-07,0.0,0.0,0.0,8.611135705592513e-07,0.0,24.099511362762353,0.8669938826018773,-0.0015349678604192846,0.0
769,7.241379310344828,0.3448275862068966,1.4285714285714286,0,138363.45116588002,326981.2192657334,267718.22321961337,168857.0459912761,-8565.103864951278,9.224230077725334e-07,0.0,0.0,0.0,9.224230077725334e-07,0.0,22.802840088312227,1.1796210997179455,-0.00030155769856381426,0.0
770,7.241379310344828,0.3448275862068966,1.7857142857142858,0,338870.26704352646,417617.315194105,328850.62871956086,43198.49747659095,32952.85711539663,2.2591351136235097e-06,0.0,0.0,0.0,2.2591351136235097e-06,0.0,23.388652152707976,1.4968751923720598,0.0013015554213290335,0.0
771,7.241379310344828,0.3448275862068966,2.142857142857143,0,641246.7769204899,442800.79255810304,655668.690220807,-64941.83950517008,171590.347140298,4.274978512803266e-06,0.0,0.0,0.0,4.274978512803266e-06,0.0,24.283021343578078,1.8139739439272835,0.0091981169314331,0.0
772,7.241379310344828,0.3448275862068966,2.5,0,180514.56778448014,581969.5560038042,664811.1039464704,457744.72142101696,425527.29684848024,1.2034304518965342e-06,0.0,0.0,0.0,1.2034304518965342e-06,0.0,23.12682967176671,2.123333365297339,0.04255272968484802,0.0
773,7.241379310344828,0.3448275862068966,2.857142857142857,0,442796.48547843256,640428.4350997545,495615.4407687683,143356.628476658,229709.3059869707,2.951976569856217e-06,0.0,0.0,0.0,2.951976569856217e-06,0.0,22.11217162008052,2.4211168010701405,0.012313589266061279,0.0
774,7.241379310344828,0.3448275862068966,3.2142857142857144,0,189320.57602672998,409161.40270317526,205700.3262957318,238185.1188002686,50570.61194805579,1.2621371735115332e-06,0.0,0.0,0.0,1.2621371735115332e-06,0.0,23.158038557334056,2.711160906657774,0.001997412664717481,0.0
775,7.241379310344828,0.3448275862068966,3.5714285714285716,0,119477.39211117088,256605.63171370802,192721.83993175128,118767.59289789893,18231.38511727204,7.965159474078059e-07,0.0,0.0,0.0,7.965159474078059e-07,0.0,23.789820008264698,3.001049671146517,0.0006418853319563808,0.0
776,7.241379310344828,0.3448275862068966,3.928571428571429,0,165457.65826927518,225720.32111262128,178395.1151564164,41756.50060684584,6074.292541973477,1.1030510551285011e-06,0.0,0.0,0.0,1.1030510551285011e-06,0.0,23.540491271633112,3.2955653111733065,0.00020593848518654789,0.0
777,7.241379310344828,0.3448275862068966,4.285714285714286,0,129705.92901682318,276152.50104483526,203454.3724136608,126402.09373781303,9226.20470009647,8.647061934454878e-07,0.0,0.0,0.0,8.647061934454878e-07,0.0,22.938191891780168,3.594849556131862,0.00030913914621860287,0.0
778,7.241379310344828,0.3448275862068966,4.642857142857143,0,132237.10479797242,216612.52047065675,199941.2473744961,76830.30399230642,26874.467051574673,8.815806986531495e-07,0.0,0.0,0.0,8.815806986531495e-07,0.0,23.22459991428675,3.8969183927426077,0.0008972318354620409,0.0
779,7.241379310344828,0.3448275862068966,5.0,0,170834.86465206105,237326.50638843272,177299.54868352134,44579.73579084088,-39853.06051733526,1.138899097680407e-06,0.0,0.0,0.0,1.138899097680407e-06,0.0,22.92480797674143,4.200093305344956,-0.001329073981197193,0.0
780,7.586206896551724,0.3448275862068966,0.0,0,264840.1287890986,351281.5071588602,177374.22905947996,46480.47247388842,17146.963852674264,1.7656008585939906e-06,0.0,0.0,0.0,1.7656008585939906e-06,0.0,22.87197210224985,-0.04990975756115692,0.0005718402355373723,0.0
781,7.586206896551724,0.3448275862068966,0.35714285714285715,0,180029.78686027214,175251.59697325077,206816.60370722585,13091.800930097772,-25621.43946195207,1.200198579068481e-06,0.0,0.0,0.0,1.200198579068481e-06,0.0,23.043715797446403,0.2540451706705197,-0.0008553982153956742,0.0
782,7.586206896551724,0.3448275862068966,0.7142857142857143,0,32401.50930458371,154762.8177862158,129851.40315601155,118132.25016010963,-15786.674671332405,2.1601006203055806e-07,0.0,0.0,0.0,2.1601006203055806e-07,0.0,23.540689322081345,0.5590698660744319,-0.0005289584708082093,0.0
783,7.586206896551724,0.3448275862068966,1.0714285714285714,0,225591.46792051243,292923.24399482657,263138.8871281727,53919.085821322784,3228.629425902525,1.503943119470083e-06,0.0,0.0,0.0,1.503943119470083e-06,0.0,22.29867045473242,0.8667877441893026,0.00010946115100723494,0.0
784,7.586206896551724,0.3448275862068966,1.4285714285714286,0,155956.50174087175,254344.3050563568,85510.13818048965,115671.36012172021,15803.854600591238,1.0397100116058117e-06,0.0,0.0,0.0,1.0397100116058117e-06,0.0,24.180287454591667,1.179117689695645,0.0005564175399312045,0.0
785,7.586206896551724,0.3448275862068966,1.7857142857142858,0,253750.97672694342,394730.45056908333,417802.27622460615,153303.27056397978,66708.83228275465,1.6916731781796228e-06,0.0,0.0,0.0,1.6916731781796228e-06,0.0,23.45039662719795,1.4959226257073368,0.002634831996633792,0.0
786,7.586206896551724,0.3448275862068966,2.142857142857143,0,356773.8064279918,527005.2784140464,431565.05091189605,132217.56147323028,176538.21791584516,2.3784920428532784e-06,0.0,0.0,0.0,2.3784920428532784e-06,0.0,22.953558073884693,1.8125773199550328,0.009463348016477134,0.0
787,7.586206896551724,0.3448275862068966,2.5,0,609877.8017994767,696714.1701700459,661788.7962708316,70124.15923861158,543913.4129121036,4.065852011996511e-06,0.0,0.0,0.0,4.065852011996511e-06,0.0,23.024854449148172,2.1217467406500674,0.05439134129121036,0.0
788,7.586206896551724,0.3448275862068966,2.857142857142857,0,308405.99443248636,824269.5692405311,482659.3460982071,566337.5445748521,209470.6701391868,2.0560399628832425e-06,0.0,0.0,0.0,2.0560399628832425e-06,0.0,23.198989147344854,2.4197201770978896,0.011228695260290654,0.0
789,7.586206896551724,0.3448275862068966,3.2142857142857144,0,281174.3174075993,489191.15275528707,324268.24404678156,164532.83135487724,14078.475020106234,1.8744954493839953e-06,0.0,0.0,0.0,1.8744954493839953e-06,0.0,23.524215327986873,2.710208339993051,0.0005560645446401404,0.0
790,7.586206896551724,0.3448275862068966,3.5714285714285716,0,113816.8220464934,345035.87330660084,238623.3194463664,225034.79668017363,-33732.29895591084,7.587788136432893e-07,0.0,0.0,0.0,7.587788136432893e-07,0.0,23.60149780550396,3.0005462611242164,-0.0011876370211966942,0.0
791,7.586206896551724,0.3448275862068966,3.928571428571429,0,50779.597972083226,181508.45018405418,218241.99745563473,160295.526387432,-34544.10147288445,3.385306531472215e-07,0.0,0.0,0.0,3.385306531472215e-07,0.0,23.433643967033415,3.295359172760732,-0.001171158596708773,0.0
792,7.586206896551724,0.3448275862068966,4.285714285714286,0,94530.48668837432,189208.55667892503,155894.07869690817,82531.1972640347,-34403.49891228532,6.302032445891622e-07,0.0,0.0,0.0,6.302032445891622e-07,0.0,23.157589685082854,3.594784151788718,-0.0011527457526024011,0.0
793,7.586206896551724,0.3448275862068966,4.642857142857143,0,115840.03613758976,105892.42435933811,222220.43204945768,106874.61341600811,7702.341463457194,7.722669075839317e-07,0.0,0.0,0.0,7.722669075839317e-07,0.0,23.53455019398233,3.896902313527663,0.0002571506238747217,0.0
794,7.586206896551724,0.3448275862068966,5.0,0,94093.02549958542,205313.81317180747,118345.6491576735,105430.25170195066,14800.47558704116,6.272868366639028e-07,0.0,0.0,0.0,6.272868366639028e-07,0.0,22.507772251389305,4.2000902424388435,0.0004935863584058798,0.0
795,7.931034482758621,0.3448275862068966,0.0,0,117280.50154998296,302791.98909449525,177641.5365715677,195408.95973139082,-21964.696539688328,7.818700103332197e-07,0.0,0.0,0.0,7.818700103332197e-07,0.0,22.820591780305495,-0.049913149907751274,-0.0007325085274967415,0.0
796,7.931034482758621,0.3448275862068966,0.35714285714285715,0,118603.69261385799,280493.72790198965,220450.27347252797,143874.98578170256,-29027.785628260604,7.906912840923866e-07,0.0,0.0,0.0,7.906912840923866e-07,0.0,23.09489978753242,0.2540273620051394,-0.0009691225998514028,0.0
797,7.931034482758621,0.3448275862068966,0.7142857142857143,0,176106.5255782186,243724.4176920792,229266.20965874317,60834.4799173411,-5393.879219618088,1.1740435038547908e-06,0.0,0.0,0.0,1.1740435038547908e-06,0.0,22.766626043816814,0.5589974269618576,-0.00018073078486341893,0.0
798,7.931034482758621,0.3448275862068966,1.0714285714285714,0,120515.8892922773,261567.33278589544,208130.87044585624,123572.47360556715,2724.4848644683525,8.034392619485152e-07,0.0,0.0,0.0,8.034392619485152e-07,0.0,23.333117325188,0.8665594339126985,9.236899310088245e-05,0.0
799,7.931034482758621,0.3448275862068966,1.4285714285714286,0,84313.98794888689,263263.0321785265,189708.46973547744,171248.5956925992,11867.507668733218,5.620932529925792e-07,0.0,0.0,0.0,5.620932529925792e-07,0.0,22.778179252506433,1.1785601338282001,0.0004178277761366019,0.0
800,7.931034482758621,0.3448275862068966,1.7857142857142858,0,353155.6980877282,455292.3121496413,384607.1058215969,72139.92146289577,3896.2098949522406,2.3543713205848547e-06,0.0,0.0,0.0,2.3543713205848547e-06,0.0,24.30846105643493,1.4948676027448986,0.0001538905441082836,0.0
801,7.931034482758621,0.3448275862068966,2.142857142857143,0,403994.95771373925,747283.6064740587,366862.7922594837,323252.90738516016,233574.07932407147,2.693299718091595e-06,0.0,0.0,0.0,2.693299718091595e-06,0.0,22.72787100099116,1.811030477707467,0.01252076080956933,0.0
802,7.931034482758621,0.3448275862068966,2.5,0,287744.0538647664,516061.3354488755,800815.1646656859,510171.3181597659,559442.5199432364,1.918293692431776e-06,0.0,0.0,0.0,1.918293692431776e-06,0.0,24.217033944835457,2.1199894616084696,0.05594425199432364,0.0
803,7.931034482758621,0.3448275862068966,2.857142857142857,0,467276.9994758749,686858.0371012867,442641.9229304581,148076.65302738803,166985.38594023092,3.1151799965058325e-06,0.0,0.0,0.0,3.1151799965058325e-06,0.0,22.463534139756728,2.418173334850324,0.008951267546902763,0.0
804,7.931034482758621,0.3448275862068966,3.2142857142857144,0,380687.44510538253,518946.6121488629,171486.0131910363,112029.09177273807,44798.23456586383,2.53791630070255e-06,0.0,0.0,0.0,2.53791630070255e-06,0.0,24.47343863330428,2.709153317030613,0.0017694181982759447,0.0
805,7.931034482758621,0.3448275862068966,3.5714285714285716,0,121801.91438837293,279982.03529094433,140776.7356526657,192997.7928193659,19103.952267106426,8.120127625891529e-07,0.0,0.0,0.0,8.120127625891529e-07,0.0,23.767617872899216,2.9999887052567717,0.0006726064236903854,0.0
806,7.931034482758621,0.3448275862068966,3.928571428571429,0,184656.69066974477,299559.4630278502,186210.79359416344,86481.31517874521,-25261.53319340436,1.2310446044649651e-06,0.0,0.0,0.0,1.2310446044649651e-06,0.0,23.876148824397998,3.2951308624841276,-0.0008564490174602636,0.0
807,7.931034482758621,0.3448275862068966,4.285714285714286,0,302817.9069079431,398582.69128953514,185647.5373002523,51922.17124539864,15593.45775426314,2.018786046052954e-06,0.0,0.0,0.0,2.018786046052954e-06,0.0,22.80243212223027,3.5947117126761436,0.0005224844205655176,0.0
808,7.931034482758621,0.3448275862068966,4.642857142857143,0,119656.16260101546,248906.00925810778,278089.40861154196,146541.1180558405,-34044.806302607205,7.977077506734364e-07,0.0,0.0,0.0,7.977077506734364e-07,0.0,23.32848773450048,3.8968845048622827,-0.0011366210160825537,0.0
809,7.931034482758621,0.3448275862068966,5.0,0,146186.39283581008,274153.3560377649,125123.35404333692,130987.02344748292,16126.937248231518,9.745759522387339e-07,0.0,0.0,0.0,9.745759522387339e-07,0.0,23.365836832166625,4.200086850092249,0.000537823003171891,0.0
810,8.275862068965518,0.3448275862068966,0.0,0,103045.4650302056,229740.88601227422,190795.4183425841,112898.72281542064,1168.5710554073794,6.869697668680373e-07,0.0,0.0,0.0,6.869697668680373e-07,0.0,23.32325483704357,-0.04991684118825477,3.897109443442913e-05,0.0
811,8.275862068965518,0.3448275862068966,0.35714285714285715,0,133211.66645928545,279351.667859413,131585.91990186664,168464.59305465146,-38264.61816306499,8.880777763952363e-07,0.0,0.0,0.0,8.880777763952363e-07,0.0,24.01467428229067,0.25400798403844793,-0.001277503792793885,0.0
812,8.275862068965518,0.3448275862068966,0.7142857142857143,0,127886.2588787985,295335.1553959888,162661.2753460723,172845.50952001792,18601.00520896276,8.5257505919199e-07,0.0,0.0,0.0,8.5257505919199e-07,0.0,23.72876679099089,0.5589186045076956,0.0006232572391382565,0.0
813,8.275862068965518,0.3448275862068966,1.0714285714285714,0,182344.50664848214,289480.5733124498,288874.8294952374,106833.94935651052,-24782.166048861283,1.2156300443232142e-06,0.0,0.0,0.0,1.2156300443232142e-06,0.0,23.304981933501004,0.8663110049124959,-0.0008401968954372883,0.0
814,8.275862068965518,0.3448275862068966,1.4285714285714286,0,104497.19162445501,257756.0605867138,153065.83606214312,257368.9190714111,-894.0145980796347,6.966479441630334e-07,0.0,0.0,0.0,6.966479441630334e-07,0.0,23.89212775213202,1.1779534460839314,-3.147620728600255e-05,0.0
815,8.275862068965518,0.3448275862068966,1.7857142857142858,0,133474.25065732718,482965.69833016564,379132.5661071787,332411.48181018064,78086.1195455775,8.898283377155146e-07,0.0,0.0,0.0,8.898283377155146e-07,0.0,23.988883995836634,1.4937196110572373,0.0030842063821412014,0.0
816,8.275862068965518,0.3448275862068966,2.142857142857143,0,772548.4622873535,888162.3305618564,535040.05533601,2158.0164809050725,192908.08051052937,5.15032308191569e-06,0.0,0.0,0.0,5.15032308191569e-06,0.0,23.1180737733441,1.809347327571829,0.010340856062860917,0.0
817,8.275862068965518,0.3448275862068966,2.5,0,628723.478731792,881122.8373170082,562091.5156011835,156843.97428335514,423830.18343439815,4.191489858211946e-06,0.0,0.0,0.0,4.191489858211946e-06,0.0,23.108159315839995,2.1180773309682097,0.04238301834343981,0.0
818,8.275862068965518,0.3448275862068966,2.857142857142857,0,757175.330177044,819413.785475029,552430.2006088765,-35087.23345083568,336574.0011899029,5.047835534513627e-06,0.0,0.0,0.0,5.047835534513627e-06,0.0,24.492364583430486,2.4164901847146862,0.018042081449335622,0.0
819,8.275862068965518,0.3448275862068966,3.2142857142857144,0,261117.7209232949,441836.34197502915,217067.10750248184,155407.0247156163,-47144.79647705703,1.7407848061552993e-06,0.0,0.0,0.0,1.7407848061552993e-06,0.0,23.296327940143957,2.7080053253429517,-0.0018621015236186423,0.0
820,8.275862068965518,0.3448275862068966,3.5714285714285716,0,303880.90241317207,372351.3031098037,333912.4724062161,51079.83086706682,50005.15640279438,2.0258726827544804e-06,0.0,0.0,0.0,2.0258726827544804e-06,0.0,23.099501262079112,2.9993820175125028,0.0017605670776341524,0.0
821,8.275862068965518,0.3448275862068966,3.928571428571429,0,232275.90340468189,294185.1514202886,302297.40985328046,66071.64707158638,-40618.93380365297,1.5485060226978792e-06,0.0,0.0,0.0,1.5485060226978792e-06,0.0,23.348467723173297,3.294882433483925,-0.0013771153825099197,0.0
822,8.275862068965518,0.3448275862068966,4.285714285714286,0,44915.46342089523,219007.12839792614,191855.78833213882,167162.64072210345,-18907.29356596938,2.994364228059682e-07,0.0,0.0,0.0,2.994364228059682e-07,0.0,23.967687496331386,3.5946328902219813,-0.0006335199337412427,0.0
823,8.275862068965518,0.3448275862068966,4.642857142857143,0,291203.9853035634,286752.69092528254,319349.42440895824,13218.604720036468,7613.288828192146,1.941359902023756e-06,0.0,0.0,0.0,1.941359902023756e-06,0.0,23.794381709744133,3.896865126895591,0.00025417750968279176,0.0
824,8.275862068965518,0.3448275862068966,5.0,0,87714.59608293894,216068.39369361824,167158.52006696246,114803.83142643498,16256.187328239825,5.847639738862595e-07,0.0,0.0,0.0,5.847639738862595e-07,0.0,23.377134879670713,4.200083158811745,0.0005421334103571052,0.0
825,8.620689655172415,0.3448275862068966,0.0,0,119480.04295118475,254487.80694169627,227292.23074266108,123754.28074308782,8682.476608881378,7.96533619674565e-07,0.0,0.0,0.0,7.96533619674565e-07,0.0,23.620806087204453,-0.049920802329415565,0.000289555020453146,0.0
826,8.620689655172415,0.3448275862068966,0.35714285714285715,0,183650.3844054152,302460.7248959427,287455.8426452564,111768.2081012581,1377.472641178978,1.2243358960361014e-06,0.0,0.0,0.0,1.2243358960361014e-06,0.0,23.44488872266975,0.2539871893951252,4.5988346625513564e-05,0.0
827,8.620689655172415,0.3448275862068966,0.7142857142857143,0,165100.47914658426,309736.30774196616,177810.7034035871,124589.21799930159,-12743.958345673345,1.1006698609772283e-06,0.0,0.0,0.0,1.1006698609772283e-06,0.0,23.253373335890682,0.55883401953311,-0.0004270072614349975,0.0
828,8.620689655172415,0.3448275862068966,1.0714285714285714,0,211855.19617991176,229562.3843937241,127616.45647708284,-13992.756788606874,47219.476943242065,1.412367974532745e-06,0.0,0.0,0.0,1.412367974532745e-06,0.0,23.179201928287153,0.8660444138644016,0.0016008954928985139,0.0
829,8.620689655172415,0.3448275862068966,1.4285714285714286,0,318868.6810128065,423813.88600832137,132190.6853684105,83338.04303644066,31455.555921391882,2.1257912067520434e-06,0.0,0.0,0.0,2.1257912067520434e-06,0.0,23.407971567408072,1.1773024048549334,0.0011074781112131037,0.0
830,8.620689655172415,0.3448275862068966,1.7857142857142858,0,202914.56367492312,558772.1594523531,557651.0348799607,355299.3563792731,111762.93088705147,1.3527637578328207e-06,0.0,0.0,0.0,1.3527637578328207e-06,0.0,23.130608853685096,1.4924876924528565,0.004414356184359434,0.0
831,8.620689655172415,0.3448275862068966,2.142857142857143,0,453689.77350932284,638181.2969385923,441420.4953529147,119326.99587789875,248886.32688053767,3.0245984900621524e-06,0.0,0.0,0.0,3.0245984900621524e-06,0.0,23.378739661968535,1.8075411263699004,0.013341575300912881,0.0
832,8.620689655172415,0.3448275862068966,2.5,0,53569.22613591598,605297.7293685118,579397.8750945228,640995.1058591646,300845.8544697065,3.5712817423943987e-07,0.0,0.0,0.0,3.5712817423943987e-07,0.0,23.3233881865708,2.1160254090465966,0.03008458544697065,0.0
833,8.620689655172415,0.3448275862068966,2.857142857142857,0,550669.2856119839,721358.6023688585,354689.8708864615,88132.92405180019,355965.3098178694,3.671128570746559e-06,0.0,0.0,0.0,3.671128570746559e-06,0.0,22.6275848404284,2.414683983512757,0.019081554398636832,0.0
834,8.620689655172415,0.3448275862068966,3.2142857142857144,0,404064.28930527664,456690.0570775235,446088.5399155784,47429.33047103349,70688.84449825276,2.693761928701844e-06,0.0,0.0,0.0,2.693761928701844e-06,0.0,23.092982234218088,2.706773406738571,0.0027920325227641027,0.0
835,8.620689655172415,0.3448275862068966,3.5714285714285716,0,247744.19792233082,357949.2930302339,190306.4730391541,73381.52246181127,10800.528485741666,1.651627986148872e-06,0.0,0.0,0.0,1.651627986148872e-06,0.0,23.2331606919664,2.998730976283505,0.00038026188179233507,0.0
836,8.620689655172415,0.3448275862068966,3.928571428571429,0,94663.86739111756,279327.9793809843,181247.69539310155,188497.39339460264,-16896.41898671856,6.31092449274117e-07,0.0,0.0,0.0,6.31092449274117e-07,0.0,24.296952675295767,3.2946158424358307,-0.000572844147225012,0.0
837,8.620689655172415,0.3448275862068966,4.285714285714286,0,120688.41177696908,174977.63268522013,222162.57456997185,85010.0812528769,-10173.37642717862,8.045894118464605e-07,0.0,0.0,0.0,8.045894118464605e-07,0.0,23.291819092256233,3.594548305247396,-0.00034087569104396465,0.0
838,8.620689655172415,0.3448275862068966,4.642857142857143,0,129530.35430796363,268790.8425546909,141979.92322496866,136702.37377396764,-17457.811257530506,8.635356953864242e-07,0.0,0.0,0.0,8.635356953864242e-07,0.0,23.51318522584802,3.8968443322522686,-0.000582847057308479,0.0
839,8.620689655172415,0.3448275862068966,5.0,0,132309.8543216518,273558.4945159065,193550.9826551165,120838.29752653872,1316.0462955767862,8.820656954776787e-07,0.0,0.0,0.0,8.820656954776787e-07,0.0,24.45696113654025,4.2000791976705845,4.3889299009826975e-05,0.0
840,8.965517241379311,0.3448275862068966,0.0,0,216427.62336877937,360494.0940914325,313689.01984747825,124493.62676828513,-36335.6099618728,1.4428508224585291e-06,0.0,0.0,0.0,1.4428508224585291e-06,0.0,22.463178271483866,-0.049925006169381975,-0.0012117692634985545,0.0
841,8.965517241379311,0.3448275862068966,0.35714285714285715,0,57665.06619553003,275323.7336463257,251416.0550534507,209550.0370706302,24404.34432893991,3.8443377463686686e-07,0.0,0.0,0.0,3.8443377463686686e-07,0.0,22.49032714757546,0.2539651206656509,0.0008147642375002713,0.0
842,8.965517241379311,0.3448275862068966,0.7142857142857143,0,228338.54463103012,428813.02358983865,233103.70602328362,177948.92644590992,65386.69651644617,1.5222569642068674e-06,0.0,0.0,0.0,1.5222569642068674e-06,0.0,22.87310025860327,0.5587442520438219,0.002190888690659303,0.0
843,8.965517241379311,0.3448275862068966,1.0714285714285714,0,172101.30031470137,204292.14713774237,245734.89591140632,56696.16799091976,-19555.11035011,1.147342002098009e-06,0.0,0.0,0.0,1.147342002098009e-06,0.0,23.100463195763403,0.8657614888038767,-0.0006629825243565002,0.0
844,8.965517241379311,0.3448275862068966,1.4285714285714286,0,313212.07076574606,485153.3714604881,239139.04945013043,132560.67890398367,-56389.251550827015,2.08808047177164e-06,0.0,0.0,0.0,2.08808047177164e-06,0.0,23.155676114192904,1.1766114743813294,-0.001985336452367717,0.0
845,8.965517241379311,0.3448275862068966,1.7857142857142858,0,168026.6935143002,525888.9382919021,605225.8705096022,412220.49389626336,52380.54267601931,1.1201779567620012e-06,0.0,0.0,0.0,1.1201779567620012e-06,0.0,23.02103082822875,1.491180294293025,0.002068900400756923,0.0
846,8.965517241379311,0.3448275862068966,2.142857142857143,0,549981.8146506972,955995.516877636,438523.5113512824,378438.18630078546,333384.9240799933,3.666545431004648e-06,0.0,0.0,0.0,3.666545431004648e-06,0.0,22.66436900959997,1.8056242593631924,0.017871130666560407,0.0
847,8.965517241379311,0.3448275862068966,2.5,0,783082.4467604327,975151.7409875749,712373.5285466572,94477.09058247559,597328.1523582813,5.220549645069551e-06,0.0,0.0,0.0,5.220549645069551e-06,0.0,23.772931480039393,2.113847766031144,0.05973281523582813,0.0
848,8.965517241379311,0.3448275862068966,2.857142857142857,0,789106.2248788315,1001672.9334810614,589794.0400408511,91847.51091233057,438395.83957953297,5.260708165858877e-06,0.0,0.0,0.0,5.260708165858877e-06,0.0,23.063659906626018,2.4127671165060494,0.02350025081194861,0.0
849,8.965517241379311,0.3448275862068966,3.2142857142857144,0,184224.8714455088,507934.9530243199,496496.3768366568,318257.3204874773,102914.7308128745,1.2281658096367254e-06,0.0,0.0,0.0,1.2281658096367254e-06,0.0,23.887574675020783,2.7054660085787394,0.0040648744160496336,0.0
850,8.965517241379311,0.3448275862068966,3.5714285714285716,0,127972.918651963,299907.6565042965,353856.13780688646,207742.31963342626,-64798.737561328,8.531527910130867e-07,0.0,0.0,0.0,8.531527910130867e-07,0.0,22.79162421587705,2.998040045809901,-0.002281415202540082,0.0
851,8.965517241379311,0.3448275862068966,3.928571428571429,0,306584.9254596386,424710.47430392,229403.77772871175,71350.67865185888,-40667.27951497294,2.0438995030642572e-06,0.0,0.0,0.0,2.0438995030642572e-06,0.0,24.284721765164765,3.2943329173753058,-0.001378754461050458,0.0
852,8.965517241379311,0.3448275862068966,4.285714285714286,0,118943.50282514436,313745.3524160681,243384.68930268555,176415.18151051176,13027.247594062206,7.929566855009624e-07,0.0,0.0,0.0,7.929566855009624e-07,0.0,22.47672556817917,3.5944585377581078,0.0004364993331184847,0.0
853,8.965517241379311,0.3448275862068966,4.642857142857143,0,97321.37046518957,334190.0752403806,245033.80052792173,230368.2195777341,-14533.308075830531,6.488091364345971e-07,0.0,0.0,0.0,6.488091364345971e-07,0.0,23.307100782339568,3.896822263522794,-0.0004852094984874754,0.0
854,8.965517241379311,0.3448275862068966,5.0,0,278015.04361471854,398957.48666002566,78569.81092777624,221266.00880277378,48475.96936644543,1.8534336240981236e-06,0.0,0.0,0.0,1.8534336240981236e-06,0.0,22.819895030537637,4.2000749938306186,0.0016166424551065503,0.0
855,9.310344827586208,0.3448275862068966,0.0,0,135190.7332805651,282126.0251972897,135871.89672936362,256262.39074262237,-33314.83573238822,9.012715552037673e-07,0.0,0.0,0.0,9.012715552037673e-07,0.0,23.20513447254335,-0.04992942771909295,-0.0011110283823877404,0.0
856,9.310344827586208,0.3448275862068966,0.35714285714285715,0,205183.52490627608,397915.39495710767,205869.28760228044,181729.95789638205,34159.80872429311,1.3678901660418406e-06,0.0,0.0,0.0,1.3678901660418406e-06,0.0,22.702331667914834,0.253941909034093,0.0011404604906921825,0.0
857,9.310344827586208,0.3448275862068966,0.7142857142857143,0,160381.8246385876,314619.60226681264,209627.34553634154,130006.86179551072,-23157.182328561554,1.0692121642572506e-06,0.0,0.0,0.0,1.0692121642572506e-06,0.0,22.124147722145345,0.5586498356484576,-0.0007759194388788256,0.0
858,9.310344827586208,0.3448275862068966,1.0714285714285714,0,219143.00526002405,357781.959171279,169101.04371111223,117416.53487646741,9871.031992852344,1.4609533684001603e-06,0.0,0.0,0.0,1.4609533684001603e-06,0.0,22.8112121333986,0.8654639115341454,0.00033466043358779655,0.0
859,9.310344827586208,0.3448275862068966,1.4285714285714286,0,236721.43650199464,433243.0695684819,362973.37156950845,169342.69506981142,-29989.92798662845,1.5781429100132976e-06,0.0,0.0,0.0,1.5781429100132976e-06,0.0,24.00434577354841,1.175884761789918,-0.0010558767069654962,0.0
860,9.310344827586208,0.3448275862068966,1.7857142857142858,0,290831.88449269684,428211.55628829426,428497.8990096226,137522.9488773499,98631.12364322759,1.938879229951312e-06,0.0,0.0,0.0,1.938879229951312e-06,0.0,22.71101570730225,1.489805188199091,0.0038956826487023086,0.0
861,9.310344827586208,0.3448275862068966,2.142857142857143,0,410174.8458229033,765209.3551540382,595557.7864157833,297425.135619514,439087.5398434781,2.734498972152689e-06,0.0,0.0,0.0,2.734498972152689e-06,0.0,23.469984411795746,1.8036081210641106,0.02353732947059873,0.0
862,9.310344827586208,0.3448275862068966,2.5,0,789405.2710813833,1354664.3539351819,478605.192678772,698572.9896420968,642343.1960241536,5.262701807209222e-06,0.0,0.0,0.0,5.262701807209222e-06,0.0,23.22334467962179,2.1115573465759514,0.06423431960241535,0.0
863,9.310344827586208,0.3448275862068966,2.857142857142857,0,864625.2202513559,1067044.4636754517,626402.3974003794,70867.32366865098,514900.4565927979,5.7641681350090395e-06,0.0,0.0,0.0,5.7641681350090395e-06,0.0,22.99789333399423,2.4107509782069676,0.027601288106937877,0.0
864,9.310344827586208,0.3448275862068966,3.2142857142857144,0,524416.0784025164,604105.3766405423,106853.53898425572,56200.85726157655,20367.69923476111,3.4961071893501096e-06,0.0,0.0,0.0,3.4961071893501096e-06,0.0,24.25164501265284,2.7040909024848054,0.0008044731680220936,0.0
865,9.310344827586208,0.3448275862068966,3.5714285714285716,0,188204.41903874456,447835.56204120204,285029.8773109917,241766.62520628175,9552.192782441583,1.2546961269249637e-06,0.0,0.0,0.0,1.2546961269249637e-06,0.0,23.077439175960937,2.99731333321849,0.00033631083955656705,0.0
866,9.310344827586208,0.3448275862068966,3.928571428571429,0,196568.40741823998,345869.7022811453,261891.36949358677,121261.07221602096,31320.18239792111,1.3104560494549333e-06,0.0,0.0,0.0,1.3104560494549333e-06,0.0,23.32415506985182,3.294035340105575,0.0010618571420827065,0.0
867,9.310344827586208,0.3448275862068966,4.285714285714286,0,389946.2432921242,453482.5420676382,266950.5009679141,5304.672053689331,-33873.8858533365,2.5996416219474946e-06,0.0,0.0,0.0,2.5996416219474946e-06,0.0,23.287002560514566,3.5943641213627435,-0.0011350001969604427,0.0
868,9.310344827586208,0.3448275862068966,4.642857142857143,0,203553.12369868645,341320.1155358269,137668.65597206328,137865.47042639513,2214.7926429545887,1.3570208246579096e-06,0.0,0.0,0.0,1.3570208246579096e-06,0.0,24.036406842379268,3.8967990518912363,7.394313957528448e-05,0.0
869,9.310344827586208,0.3448275862068966,5.0,0,212096.96038302957,371981.3923401832,264832.63285210024,127686.06956983396,23606.454513797074,1.4139797358868638e-06,0.0,0.0,0.0,1.4139797358868638e-06,0.0,22.504345407420168,4.200070572280907,0.0007872601018673426,0.0
870,9.655172413793103,0.3448275862068966,0.0,0,334810.74781881104,489534.1282836878,195826.13034847073,124964.84318151229,37005.598362332465,2.232071652125407e-06,0.0,0.0,0.0,2.232071652125407e-06,0.0,24.24111177195114,-0.049934044257699296,0.001234112946497945,0.0
871,9.655172413793103,0.3448275862068966,0.35714285714285715,0,122368.21913863183,336400.8812220085,214105.3880262064,213960.06557746185,45483.22309116854,8.157881275908789e-07,0.0,0.0,0.0,8.157881275908789e-07,0.0,23.88348485917087,0.25391767377717905,0.0015185043728868097,0.0
872,9.655172413793103,0.3448275862068966,0.7142857142857143,0,410661.0624937242,524182.1118592605,337099.44309905096,53291.38429607032,-34722.416749373595,2.737740416624828e-06,0.0,0.0,0.0,2.737740416624828e-06,0.0,23.327329345399352,0.558551255520954,-0.0011634316186845098,0.0
873,9.655172413793103,0.3448275862068966,1.0714285714285714,0,250827.73388041736,285677.7391392979,454025.6581293347,165746.858631982,12131.284690302537,1.6721848925361158e-06,0.0,0.0,0.0,1.6721848925361158e-06,0.0,23.44230946222359,0.8651532112041963,0.00041129043015698943,0.0
874,9.655172413793103,0.3448275862068966,1.4285714285714286,0,406037.35636879766,634366.5569550424,339816.71767185436,171185.59289414945,-56895.668027038555,2.7069157091253177e-06,0.0,0.0,0.0,2.7069157091253177e-06,0.0,23.02393214803433,1.1751260014110303,-0.002003166217130531,0.0
875,9.655172413793103,0.3448275862068966,1.7857142857142858,0,320026.2983305797,634263.2058578951,367743.3182579543,279322.875558669,22547.38096940887,2.133508655537198e-06,0.0,0.0,0.0,2.133508655537198e-06,0.0,23.2177433928684,1.4883694403763954,0.000890565143857996,0.0
876,9.655172413793103,0.3448275862068966,2.142857142857143,0,824916.5964758119,966118.7405698618,749099.8484690342,54387.97290582542,365292.1236784395,5.499443976505412e-06,0.0,0.0,0.0,5.499443976505412e-06,0.0,23.357431302563363,1.8015030717257878,0.01958151914558784,0.0
877,9.655172413793103,0.3448275862068966,2.5,0,613951.4931126804,743130.822795809,1060704.2375703459,353012.4559064594,826052.0596700956,4.0930099540845355e-06,0.0,0.0,0.0,4.0930099540845355e-06,0.0,22.697866299354423,2.1091659203722872,0.08260520596700956,0.0
878,9.655172413793103,0.3448275862068966,2.857142857142857,0,475681.6121145791,923046.0234720644,836897.385132467,410177.27565490524,436576.5226265566,3.1712107474305273e-06,0.0,0.0,0.0,3.1712107474305273e-06,0.0,23.916605670774917,2.4086459288686446,0.023402726153086927,0.0
879,9.655172413793103,0.3448275862068966,3.2142857142857144,0,443412.0411738757,542820.1655231247,855737.8798185496,348314.47130121815,74939.66143655729,2.9560802744925045e-06,0.0,0.0,0.0,2.9560802744925045e-06,0.0,23.273700707845652,2.70265515466211,0.00295992915800131,0.0
880,9.655172413793103,0.3448275862068966,3.5714285714285716,0,135490.37332639733,420288.48763012054,266454.3098465806,368047.816091224,27479.053378301556,9.032691555093155e-07,0.0,0.0,0.0,9.032691555093155e-07,0.0,23.237178749392797,2.9965545728396017,0.0009674745602772629,0.0
881,9.655172413793103,0.3448275862068966,3.928571428571429,0,146816.72996448865,400388.1130857056,308954.3401883193,231038.50007249208,21721.514138069706,9.787781997632576e-07,0.0,0.0,0.0,9.787781997632576e-07,0.0,22.737763469560814,3.2937246397756255,0.0007364307343845724,0.0
882,9.655172413793103,0.3448275862068966,4.285714285714286,0,251140.3244385704,476150.0488342583,403512.3558602225,196696.90462545108,14751.856533194645,1.6742688295904693e-06,0.0,0.0,0.0,1.6742688295904693e-06,0.0,23.76071592246983,3.59426554123524,0.000494285188986044,0.0
883,9.655172413793103,0.3448275862068966,4.642857142857143,0,146223.59997743214,414870.1099750724,397228.4929225135,260626.052959467,-22907.05382217567,9.748239998495477e-07,0.0,0.0,0.0,9.748239998495477e-07,0.0,23.157608284744114,3.896774816634322,-0.0007647756476976968,0.0
884,9.655172413793103,0.3448275862068966,5.0,0,293655.57210859156,422758.88708598184,123452.00614899473,135101.32241008143,-38100.383077062754,1.957703814057277e-06,0.0,0.0,0.0,1.957703814057277e-06,0.0,22.922727673335967,4.200065955742301,-0.0012706233138441996,0.0
885,10.0,0.3448275862068966,0.0,0,34300.11177421766,350195.3274198545,313616.05936062976,318754.05741168954,-10013.526389553612,2.2866741182811772e-07,0.0,0.0,0.0,2.2866741182811772e-07,0.0,22.505105276425553,-0.049938835309792644,-0.00033394467605814504,0.0
886,10.0,0.3448275862068966,0.35714285714285715,0,145036.5262201849,369530.89679061185,447153.3063919111,279824.92342513276,-35607.94252179009,9.669101748012327e-07,0.0,0.0,0.0,9.669101748012327e-07,0.0,22.97208741591311,0.25389252238383625,-0.0011888079329923156,0.0
887,10.0,0.3448275862068966,0.7142857142857143,0,454737.84903986845,611849.7522567736,575124.5005325131,139862.88402685677,27962.18195814111,3.0315856602657896e-06,0.0,0.0,0.0,3.0315856602657896e-06,0.0,22.472732100633486,0.5584489488868041,0.000936918845607076,0.0
888,10.0,0.3448275862068966,1.0714285714285714,0,29188.22053606895,395423.0941670217,389767.0181288508,363820.7825524131,71177.89802574783,1.9458813690712635e-07,0.0,0.0,0.0,1.9458813690712635e-07,0.0,23.235237262223077,0.8648307658413091,0.0024131647260806376,0.0
889,10.0,0.3448275862068966,1.4285714285714286,0,421503.5561867859,717192.7373052716,337481.28257763525,263652.24314675655,37137.500871185606,2.8100237079119063e-06,0.0,0.0,0.0,2.8100237079119063e-06,0.0,23.45424427099662,1.1743385585211081,0.0013075263849342805,0.0
890,10.0,0.3448275862068966,1.7857142857142858,0,315390.5922898288,734219.5127706985,384447.167451043,647172.4290298694,-58402.71649794634,2.1026039485988586e-06,0.0,0.0,0.0,2.1026039485988586e-06,0.0,22.875278011700154,1.4868794186960859,-0.002306761201678269,0.0
891,10.0,0.3448275862068966,2.142857142857143,0,713404.2424451646,1143924.4102775718,1307763.6086329813,526692.2727410982,358840.38082771574,4.756028282967764e-06,0.0,0.0,0.0,4.756028282967764e-06,0.0,23.194579550149275,1.799318447725221,0.01923567285445601,0.0
892,10.0,0.3448275862068966,2.5,0,1086948.7869660796,1633352.460158586,1137827.0155608149,386941.36841018917,778708.3040116975,7.246325246440531e-06,0.0,0.0,0.0,7.246325246440531e-06,0.0,23.69132589628058,2.1066840939442795,0.07787083040116975,0.0
893,10.0,0.3448275862068966,2.857142857142857,0,1029249.6678317738,1434257.8699341645,606444.6940047476,281840.0172956829,267191.56617282645,6.861664452211825e-06,0.0,0.0,0.0,6.861664452211825e-06,0.0,22.999577672819928,2.406461304868078,0.014322829399843445,0.0
894,10.0,0.3448275862068966,3.2142857142857144,0,433769.8765226225,754631.7011671398,508858.11812884995,253786.1616491666,83699.60241869625,2.8917991768174833e-06,0.0,0.0,0.0,2.8917991768174833e-06,0.0,23.03802237272805,2.7011651329818003,0.0033059249129641826,0.0
895,10.0,0.3448275862068966,3.5714285714285716,0,308973.5716609131,496907.3176472811,410539.75389117585,153940.02899637798,32056.04830489085,2.059823811072754e-06,0.0,0.0,0.0,2.059823811072754e-06,0.0,23.098222192429485,2.9957671299496798,0.001128620073298823,0.0
896,10.0,0.3448275862068966,3.928571428571429,0,134441.1761514635,458404.5461436464,374933.15683283634,303316.19285210164,65610.30246993998,8.962745076764233e-07,0.0,0.0,0.0,8.962745076764233e-07,0.0,22.879906563147376,3.2934021944127383,0.002224404934389421,0.0
897,10.0,0.3448275862068966,4.285714285714286,0,279032.0100976515,480388.30551173125,234020.74298624476,177382.0263223554,81843.35051198401,1.8602134006510102e-06,0.0,0.0,0.0,1.8602134006510102e-06,0.0,22.929108703978244,3.5941632346010897,0.0027422959194347857,0.0
898,10.0,0.3448275862068966,4.642857142857143,0,428308.33275957964,528499.3375073501,258881.31613249122,34625.40257401164,-53444.79470530971,2.855388885063864e-06,0.0,0.0,0.0,2.855388885063864e-06,0.0,22.725293290879566,3.8967496652409794,-0.0017843096630460356,0.0
899,10.0,0.3448275862068966,5.0,0,268267.49787917087,448832.5307463929,165664.4635006777,198485.7521802619,-5228.431549143372,1.788449985861139e-06,0.0,0.0,0.0,1.788449985861139e-06,0.0,23.329146164892787,4.200061164690208,-0.00017436483532837655,0.0
900,0.0,0.6896551724137931,0.0,0,277872.8401736158,503961.45424560347,407174.14164502616,190638.60477132653,-4662.4108235548965,1.8524856011574385e-06,0.0,0.0,0.0,1.8524856011574385e-06,0.0,23.078092197327706,-0.049934392449232125,-0.0001554884075350639,0.0
901,0.0,0.6896551724137931,0.35714285714285715,0,405371.0259564987,595516.5286182651,283333.30560221715,137378.7366419082,-31981.380685135522,2.702473506376658e-06,0.0,0.0,0.0,2.702473506376658e-06,0.0,23.418022624222697,0.25391584589010324,-0.0010677314209679583,0.0
902,0.0,0.6896551724137931,0.7142857142857143,0,243011.82007269323,484289.76671270723,356948.2383642531,204071.44179615058,4445.206118704657,1.6200788004846216e-06,0.0,0.0,0.0,1.6200788004846216e-06,0.0,23.634223677346583,0.5585438203474118,0.0001489439340412313,0.0
903,0.0,0.6896551724137931,1.0714285714285714,0,294750.3064605164,492485.16157101205,456381.3454318711,181346.01562897523,-3414.829308104417,1.9650020430701095e-06,0.0,0.0,0.0,1.9650020430701095e-06,0.0,22.602743953639937,0.8651297773648284,-0.0001157739391084997,0.0
904,0.0,0.6896551724137931,1.4285714285714286,0,106517.91598977477,375080.19274873997,400808.35046060034,283782.7967093426,39839.94810434173,7.101194399318318e-07,0.0,0.0,0.0,7.101194399318318e-07,0.0,22.714440711342053,1.1750687736995553,0.0014026733651659495,0.0
905,0.0,0.6896551724137931,1.7857142857142858,0,143865.08375200196,365689.83484723605,522778.0450535938,397440.42561783985,185986.74287794123,9.591005583466798e-07,0.0,0.0,0.0,9.591005583466798e-07,0.0,23.483488412068596,1.4882611524841511,0.007346011080022847,0.0
906,0.0,0.6896551724137931,2.142857142857143,0,600233.4456849901,1232215.0598083395,844726.8531914614,540806.5549012903,446380.8716690422,4.001556304566601e-06,0.0,0.0,0.0,4.001556304566601e-06,0.0,23.015097686800672,1.8013443033457748,0.02392828921903044,0.0
907,0.0,0.6896551724137931,2.5,0,1000746.9388650046,1319835.0837009947,958748.0959135022,188656.76187088803,710337.8010610153,6.67164625910003e-06,0.0,0.0,0.0,6.67164625910003e-06,0.0,23.187373804982705,2.108985552692839,0.07103378010610154,0.0
908,0.0,0.6896551724137931,2.857142857142857,0,124783.94910103915,1025680.5783795876,1085354.1550555457,941937.737653748,313988.52418810286,8.318929940069277e-07,0.0,0.0,0.0,8.318929940069277e-07,0.0,23.193538345557812,2.4084871604886318,0.016831384799570755,0.0
909,0.0,0.6896551724137931,3.2142857142857144,0,658679.245160832,809323.4646639552,588191.6981632251,68532.30074893506,238915.9721297103,4.39119496773888e-06,0.0,0.0,0.0,4.39119496773888e-06,0.0,22.682477615324768,2.702546866769866,0.009436583227929849,0.0
910,0.0,0.6896551724137931,3.5714285714285716,0,290384.8777549304,532231.3299835869,318459.70601801755,201627.73413217842,55628.93884711568,1.9358991850328694e-06,0.0,0.0,0.0,1.9358991850328694e-06,0.0,23.414245150284426,2.9964973451281267,0.001958567582691981,0.0
911,0.0,0.6896551724137931,3.928571428571429,0,430084.62296623434,568154.7587194913,421666.89697179786,83962.21465605198,18827.287839466648,2.8672308197748957e-06,0.0,0.0,0.0,2.8672308197748957e-06,0.0,23.290416541840973,3.293701205936258,0.0006383069486757369,0.0
912,0.0,0.6896551724137931,4.285714285714286,0,227756.01719983565,457723.4211260074,425718.8919510498,215657.9221218088,-7462.416145479099,1.5183734479989043e-06,0.0,0.0,0.0,1.5183734479989043e-06,0.0,22.666453499778722,3.5942581060616976,-0.0002500405129659875,0.0
913,0.0,0.6896551724137931,4.642857142857143,0,188668.90343480653,381536.64208790037,193919.86771646643,191832.9233988397,72299.57438736023,1.2577926895653768e-06,0.0,0.0,0.0,1.2577926895653768e-06,0.0,23.092837564315452,3.8967729887472466,0.0024137959538399344,0.0
914,0.0,0.6896551724137931,5.0,0,338356.1720975555,537261.7862050215,451393.5593186692,164244.5242900459,-7158.396615534539,2.255707813983703e-06,0.0,0.0,0.0,2.255707813983703e-06,0.0,23.125648801570957,4.200065607550768,-0.00023872793118758323,0.0
915,0.3448275862068966,0.6896551724137931,0.0,0,101876.84444042934,430360.9622573884,347745.48573830165,316528.0303560311,-77027.86319354526,6.791789629361956e-07,0.0,0.0,0.0,6.791789629361956e-07,0.0,23.561131854258864,-0.04992942771909295,-0.0025688297829278782,0.0
916,0.3448275862068966,0.6896551724137931,0.35714285714285715,0,194498.9022494255,497374.376893088,340484.7632029366,279756.80039335653,11925.913548291355,1.2966593483295034e-06,0.0,0.0,0.0,1.2966593483295034e-06,0.0,23.77865026423454,0.253941909034093,0.0003981589395599978,0.0
917,0.3448275862068966,0.6896551724137931,0.7142857142857143,0,256567.35853793466,408321.0570600887,406879.6907705607,151036.05193241982,-55419.81059625201,1.7104490569195644e-06,0.0,0.0,0.0,1.7104490569195644e-06,0.0,23.192640602983765,0.5586498356484576,-0.0018569318032953341,0.0
918,0.3448275862068966,0.6896551724137931,1.0714285714285714,0,138203.4892309588,404638.61002835864,272820.0844163645,260831.26210647583,12797.684430168325,9.213565948730586e-07,0.0,0.0,0.0,9.213565948730586e-07,0.0,22.361206325434644,0.8654639115341454,0.00043388357199340206,0.0
919,0.3448275862068966,0.6896551724137931,1.4285714285714286,0,142933.75601495925,549574.0381544819,481473.67825767136,385324.7247796688,79440.97833889216,9.52891706766395e-07,0.0,0.0,0.0,9.52891706766395e-07,0.0,23.569350126866436,1.175884761789918,0.0027969349791031888,0.0
920,0.3448275862068966,0.6896551724137931,1.7857142857142858,0,294303.3133299623,776208.7450856795,483614.0162855864,480226.0983570287,-47935.31824418923,1.9620220888664153e-06,0.0,0.0,0.0,1.9620220888664153e-06,0.0,24.310063426100598,1.489805188199091,-0.0018933251558544276,0.0
921,0.3448275862068966,0.6896551724137931,2.142857142857143,0,811716.830147059,1257166.5178493124,464581.12382579007,427583.4941172066,329440.3152765902,5.411445534313727e-06,0.0,0.0,0.0,5.411445534313727e-06,0.0,23.574714293664712,1.8036081210641106,0.017659679535263397,0.0
922,0.3448275862068966,0.6896551724137931,2.5,0,1010451.3697322821,1277167.546543621,675448.1501998581,110592.94342807488,895479.1902325663,6.736342464881881e-06,0.0,0.0,0.0,6.736342464881881e-06,0.0,23.084092008741028,2.1115573465759514,0.08954791902325664,0.0
923,0.3448275862068966,0.6896551724137931,2.857142857142857,0,346255.57816665486,725793.4472559809,933044.7188732857,533314.1891143947,375342.51642637723,2.3083705211110324e-06,0.0,0.0,0.0,2.3083705211110324e-06,0.0,23.42575014147617,2.4107509782069676,0.020120271407839358,0.0
924,0.3448275862068966,0.6896551724137931,3.2142857142857144,0,303208.5206388095,707209.6623347311,395555.0758049971,413219.5267090803,113696.98402820632,2.0213901375920633e-06,0.0,0.0,0.0,2.0213901375920633e-06,0.0,23.630093104780673,2.7040909024848054,0.0044907464452158255,0.0
925,0.3448275862068966,0.6896551724137931,3.5714285714285716,0,460797.8369196767,626283.8024157863,552374.5562989683,132998.47250796348,29348.579071110304,3.071985579464511e-06,0.0,0.0,0.0,3.071985579464511e-06,0.0,23.2912036352992,2.99731333321849,0.001033296279922286,0.0
926,0.3448275862068966,0.6896551724137931,3.928571428571429,0,248673.86650091442,437422.40979730967,436181.52397270076,188130.4224085768,41670.488073114466,1.6578257766727628e-06,0.0,0.0,0.0,1.6578257766727628e-06,0.0,23.89690371519362,3.294035340105575,0.0014127665290175901,0.0
927,0.3448275862068966,0.6896551724137931,4.285714285714286,0,259771.59366279008,429179.31031267066,436386.07472331513,173086.08533154384,-29182.395279891498,1.7318106244186006e-06,0.0,0.0,0.0,1.7318106244186006e-06,0.0,22.67800404435231,3.5943641213627435,-0.0009778040976421338,0.0
928,0.3448275862068966,0.6896551724137931,4.642857142857143,0,223969.08912771687,538758.8022837294,326220.9391948669,304885.42156171607,-114829.036655205,1.4931272608514457e-06,0.0,0.0,0.0,1.4931272608514457e-06,0.0,23.046891068584642,3.8967990518912363,-0.0038336859713261084,0.0
929,0.3448275862068966,0.6896551724137931,5.0,0,44026.69486602669,385835.2292356698,338131.1440875361,346765.1034721559,17854.874486094395,2.935112991068446e-07,0.0,0.0,0.0,2.935112991068446e-07,0.0,23.483200620669013,4.200070572280907,0.000595448600658597,0.0
930,0.6896551724137931,0.6896551724137931,0.0,0,93867.34059814685,312329.81536880287,208354.51269425385,286854.99029110407,-70873.4097335388,6.257822706543124e-07,0.0,0.0,0.0,6.257822706543124e-07,0.0,23.6075175294081,-0.049924630207971735,-0.002363582711410608,0.0
931,0.6896551724137931,0.6896551724137931,0.35714285714285715,0,250221.19662615273,437284.44812519045,406238.1396593986,172988.8229695476,42251.245827047554,1.6681413108410183e-06,0.0,0.0,0.0,1.6681413108410183e-06,0.0,22.989524314065967,0.2539670943351345,0.0014106014742993212,0.0
932,0.6896551724137931,0.6896551724137931,0.7142857142857143,0,107490.0327763671,409351.87574746093,351700.23939393414,285335.0718336804,-1909.2474439661048,7.166002185091139e-07,0.0,0.0,0.0,7.166002185091139e-07,0.0,23.041478818651402,0.5587522802066769,-6.397247231481434e-05,0.0
933,0.6896551724137931,0.6896551724137931,1.0714285714285714,0,130938.3716821312,376716.9042121652,379850.3590212029,247373.38268831433,-13524.079059049702,8.729224778808746e-07,0.0,0.0,0.0,8.729224778808746e-07,0.0,22.939273885793558,0.8657867915997959,-0.0004585107377885605,0.0
934,0.6896551724137931,0.6896551724137931,1.4285714285714286,0,336164.2927181283,523617.9203738404,563089.3565704611,208931.84493573732,44294.24858045735,2.241095284787522e-06,0.0,0.0,0.0,2.241095284787522e-06,0.0,22.90499121770091,1.1766732662662036,0.00155949908747688,0.0
935,0.6896551724137931,0.6896551724137931,1.7857142857142858,0,350068.9155392477,853752.6416555878,449929.74718010565,636235.1683411151,-53518.01278345412,2.3337927702616513e-06,0.0,0.0,0.0,2.3337927702616513e-06,0.0,23.5415362332485,1.4912972186431057,-0.002113827624510149,0.0
936,0.6896551724137931,0.6896551724137931,2.142857142857143,0,745992.5228604003,1149564.5660466407,777137.3225971326,290685.86761872127,411319.9809586011,4.973283485736002e-06,0.0,0.0,0.0,4.973283485736002e-06,0.0,23.26801503240036,1.8057956902522945,0.022048846827022503,0.0
937,0.6896551724137931,0.6896551724137931,2.5,0,635406.6215646531,1438317.951731172,1037118.732182668,705721.1949688371,842595.8186706386,4.236044143764354e-06,0.0,0.0,0.0,4.236044143764354e-06,0.0,23.94013333460039,2.114042518863229,0.08425958186706387,0.0
938,0.6896551724137931,0.6896551724137931,2.857142857142857,0,948598.0739627293,1569405.91754655,590723.9121299683,654066.7280684878,463498.0115322589,6.323987159751529e-06,0.0,0.0,0.0,6.323987159751529e-06,0.0,22.74942100107417,2.4129385473951515,0.024845855134698346,0.0
939,0.6896551724137931,0.6896551724137931,3.2142857142857144,0,396956.95755547046,724032.6660592118,514971.9290511535,266238.8939412063,43883.65372007424,2.6463797170364696e-06,0.0,0.0,0.0,2.6463797170364696e-06,0.0,23.222372940793015,2.70558293292882,0.0017332945427788633,0.0
940,0.6896551724137931,0.6896551724137931,3.5714285714285716,0,255705.5857079736,572861.0855414912,433356.28645734274,277744.1927077132,-19157.444956842774,1.704703904719824e-06,0.0,0.0,0.0,1.704703904719824e-06,0.0,23.67362221653457,2.998101837694775,-0.0006744897788325092,0.0
941,0.6896551724137931,0.6896551724137931,3.928571428571429,0,134897.70660876879,419399.73871075036,296477.5654702504,275083.3822358928,72361.85132398283,8.993180440584585e-07,0.0,0.0,0.0,8.993180440584585e-07,0.0,23.482573908847694,3.294358220171225,0.002453304634898878,0.0
942,0.6896551724137931,0.6896551724137931,4.285714285714286,0,209176.70505799624,376520.3578456374,435926.6309353622,203472.25523988024,41372.38757239881,1.3945113670533082e-06,0.0,0.0,0.0,1.3945113670533082e-06,0.0,22.766071218785356,3.5944665659209627,0.0013862498163543643,0.0
943,0.6896551724137931,0.6896551724137931,4.642857142857143,0,200966.14029663822,398946.9015239979,179732.47684725843,223414.22706390568,-30007.22281744955,1.3397742686442549e-06,0.0,0.0,0.0,1.3397742686442549e-06,0.0,23.895981409846627,3.896824237192278,-0.0010018221218657114,0.0
944,0.6896551724137931,0.6896551724137931,5.0,0,222976.69369630588,408457.65796319884,417630.0566901701,190208.70242977122,60911.27956520977,1.4865112913087059e-06,0.0,0.0,0.0,1.4865112913087059e-06,0.0,23.372584189871677,4.200075369792028,0.0020313520663321344,0.0
945,1.0344827586206897,0.6896551724137931,0.0,0,201147.52416812713,485549.34278194146,376988.5244029607,253445.31869940108,34203.820277526014,1.3409834944541808e-06,0.0,0.0,0.0,1.3409834944541808e-06,0.0,24.28509668361751,-0.049920021203600784,0.0011406754462089774,0.0
946,1.0344827586206897,0.6896551724137931,0.35714285714285715,0,461948.93335079524,665931.7827033736,265606.21508761233,160479.96050928364,22127.61574681678,3.0796595556719685e-06,0.0,0.0,0.0,3.0796595556719685e-06,0.0,23.26525586085017,0.25399129003987614,0.000738753302635331,0.0
947,1.0344827586206897,0.6896551724137931,0.7142857142857143,0,207729.3632187796,389427.2620551241,234130.64640760244,153463.73317034493,23940.827302968126,1.3848624214585305e-06,0.0,0.0,0.0,1.3848624214585305e-06,0.0,23.91504599285247,0.5588506994504645,0.0008021767511975099,0.0
948,1.0344827586206897,0.6896551724137931,1.0714285714285714,0,272546.3748315549,429252.4756720355,132962.55312705427,189234.02647980177,-53369.43452503978,1.8169758322103659e-06,0.0,0.0,0.0,1.8169758322103659e-06,0.0,23.161591273295667,0.8660969848638191,-0.0018093992716686864,0.0
949,1.0344827586206897,0.6896551724137931,1.4285714285714286,0,221516.704478374,537310.4260404342,294382.5965897992,346498.09661253175,88753.8698596153,1.4767780298558266e-06,0.0,0.0,0.0,1.4767780298558266e-06,0.0,23.22746216631173,1.1774307883408572,0.0031248205690790087,0.0
950,1.0344827586206897,0.6896551724137931,1.7857142857142858,0,744565.3681693113,841236.4639286492,708931.3218242605,39387.55639879145,156285.8316778779,4.963769121128742e-06,0.0,0.0,0.0,4.963769121128742e-06,0.0,23.59726065606779,1.4927306233115494,0.006172899387295218,0.0
951,1.0344827586206897,0.6896551724137931,2.142857142857143,0,837035.4725406272,1215826.0404613004,795508.7363451719,251924.45796426767,463912.0519263787,5.580236483604182e-06,0.0,0.0,0.0,5.580236483604182e-06,0.0,22.503870656432593,1.8078973041298565,0.024868049809532455,0.0
952,1.0344827586206897,0.6896551724137931,2.5,0,501567.8117958241,1707937.0947884514,1267338.735603032,1162099.7695937427,817210.7831623845,3.3437854119721607e-06,0.0,0.0,0.0,3.3437854119721607e-06,0.0,22.350190787524646,2.1164300422363347,0.08172107831623845,0.0
953,1.0344827586206897,0.6896551724137931,2.857142857142857,0,121017.70265488996,594476.9320881523,665280.126918755,525545.0973869832,425036.6660386962,8.06784684365933e-07,0.0,0.0,0.0,8.06784684365933e-07,0.0,23.02595132559251,2.4150401612727133,0.022784131039573222,0.0
954,1.0344827586206897,0.6896551724137931,3.2142857142857144,0,355781.5125803067,407392.85092508723,655912.3512076017,248352.35719347402,37780.52343267389,2.371876750535378e-06,0.0,0.0,0.0,2.371876750535378e-06,0.0,22.719406838582284,2.707016337597264,0.0014922361639916758,0.0
955,1.0344827586206897,0.6896551724137931,3.5714285714285716,0,186705.99160904743,490211.043289619,302836.5939728068,304180.7674030142,35929.41198603821,1.244706610726983e-06,0.0,0.0,0.0,1.244706610726983e-06,0.0,22.246116768517037,2.998859359769429,0.0012649923410266127,0.0
956,1.0344827586206897,0.6896551724137931,3.928571428571429,0,409688.609433942,571038.0178224016,237359.647755265,113787.37345583561,-36946.49326424785,2.7312573962262802e-06,0.0,0.0,0.0,2.7312573962262802e-06,0.0,23.749918700671692,3.2946684134352484,-0.0012526075758152744,0.0
957,1.0344827586206897,0.6896551724137931,4.285714285714286,0,319670.36930114945,312195.10844498256,308424.49933011254,-9343.886673519482,6855.876695224795,2.131135795340996e-06,0.0,0.0,0.0,2.131135795340996e-06,0.0,22.98783938451388,3.5945649851647503,0.00022971741220088567,0.0
958,1.0344827586206897,0.6896551724137931,4.642857142857143,0,66342.67920499199,180537.11600434064,256894.73886729332,213378.6849702931,4411.395209195129,4.4228452803327995e-07,0.0,0.0,0.0,4.4228452803327995e-07,0.0,23.216286144678733,3.8968484328970194,0.00014727898465479271,0.0
959,1.0344827586206897,0.6896551724137931,5.0,0,362618.82965383533,504728.93271540856,177313.3147979288,114986.44615762541,17448.03674256136,2.4174588643589023e-06,0.0,0.0,0.0,2.4174588643589023e-06,0.0,23.46245434414638,4.200079978796399,0.0005818808231158024,0.0
960,1.3793103448275863,0.6896551724137931,0.0,0,248626.75145927924,475058.7901992405,300571.8141557427,190379.27979405955,42637.137552966735,1.6575116763951949e-06,0.0,0.0,0.0,1.6575116763951949e-06,0.0,23.64390293613661,-0.04991562469392928,0.0014219211628608665,0.0
961,1.3793103448275863,0.6896551724137931,0.35714285714285715,0,131633.01270760907,354284.8920381442,326796.33982919384,211078.1323425783,18274.210494009974,8.775534180507272e-07,0.0,0.0,0.0,8.775534180507272e-07,0.0,23.537827573497445,0.25401437021974665,0.0006101033889042106,0.0
962,1.3793103448275863,0.6896551724137931,0.7142857142857143,0,212909.51339799928,364930.7656550379,433463.17709935555,194727.065690338,31530.349314414634,1.419396755986662e-06,0.0,0.0,0.0,1.419396755986662e-06,0.0,23.50215594215084,0.558944581148625,0.0010564761550251028,0.0
963,1.3793103448275863,0.6896551724137931,1.0714285714285714,0,370705.45326524595,377452.3355867859,415527.5865550619,27253.93963156252,-90542.22707420844,2.471369688434973e-06,0.0,0.0,0.0,2.471369688434973e-06,0.0,23.6405813490391,0.8663928768993978,-0.0030696791371561086,0.0
964,1.3793103448275863,0.6896551724137931,1.4285714285714286,0,316572.39759719087,556213.2922895768,513702.5738357943,220533.51920008278,31895.284820165623,2.110482650647939e-06,0.0,0.0,0.0,2.110482650647939e-06,0.0,23.160720733067823,1.1781533854268094,0.0011229599590455426,0.0
965,1.3793103448275863,0.6896551724137931,1.7857142857142858,0,289545.305439783,681886.0715567116,657981.3536795011,381129.4410956348,87964.32196480368,1.93030203626522e-06,0.0,0.0,0.0,1.93030203626522e-06,0.0,23.058969071450566,1.4940979419297968,0.0034743706664308992,0.0
966,1.3793103448275863,0.6896551724137931,2.142857142857143,0,995715.3202321583,1269078.0612516503,885298.1766115932,138580.7734168544,478536.08747391263,6.638102134881055e-06,0.0,0.0,0.0,6.638102134881055e-06,0.0,22.261551462694207,1.8099020246713888,0.0256519726304687,0.0
967,1.3793103448275863,0.6896551724137931,2.5,0,470415.2167345489,583087.8082076452,617246.6646746147,130683.09876546323,712210.9362472773,3.1361014448969927e-06,0.0,0.0,0.0,3.1361014448969927e-06,0.0,23.743941273349936,2.11870749062995,0.07122109362472773,0.0
968,1.3793103448275863,0.6896551724137931,2.857142857142857,0,692081.935244002,957028.9825573161,843086.7935070771,215046.72881147798,568530.137520531,4.6138795682933466e-06,0.0,0.0,0.0,4.6138795682933466e-06,0.0,23.086737408358278,2.417044881814246,0.030476112270358936,0.0
969,1.3793103448275863,0.6896551724137931,3.2142857142857144,0,195436.71085549504,603973.5401210363,638716.9609162206,428238.59868187545,101635.28727605159,1.3029114057033002e-06,0.0,0.0,0.0,1.3029114057033002e-06,0.0,24.426010951703454,2.7083836562155112,0.004014339596995714,0.0
970,1.3793103448275863,0.6896551724137931,3.5714285714285716,0,528118.4527576952,516283.75598170015,539550.6951517469,183.30842720045933,-33691.18854265142,3.5207896850513014e-06,0.0,0.0,0.0,3.5207896850513014e-06,0.0,23.80791961606085,2.9995819568553808,-0.0011861896176619576,0.0
971,1.3793103448275863,0.6896551724137931,3.928571428571429,0,141727.23196529332,417882.67982847185,392065.4860622514,265021.545776248,-26312.54435344441,9.448482131019555e-07,0.0,0.0,0.0,9.448482131019555e-07,0.0,23.918769033958334,3.294964305470827,-0.0008920817507731844,0.0
972,1.3793103448275863,0.6896551724137931,4.285714285714286,0,274465.98182710377,527047.5628868141,430920.11982474104,217447.5891877904,41039.23825160474,1.8297732121806917e-06,0.0,0.0,0.0,1.8297732121806917e-06,0.0,23.801331047824664,3.5946588668629107,0.0013750871010297723,0.0
973,1.3793103448275863,0.6896551724137931,4.642857142857143,0,109746.70907508682,284590.49702691037,223637.4598912601,157896.07159780097,-3864.168767562721,7.316447271672454e-07,0.0,0.0,0.0,7.316447271672454e-07,0.0,23.71854029294281,3.89687151307689,-0.00012900926478660142,0.0
974,1.3793103448275863,0.6896551724137931,5.0,0,356879.45479094755,457105.59909820644,287516.5440457849,47053.31293017015,-213.64571796475207,2.3791963652729838e-06,0.0,0.0,0.0,2.3791963652729838e-06,0.0,23.69592476525225,4.200084375306071,-7.1249475261161655e-06,0.0
975,1.7241379310344829,0.6896551724137931,0.0,0,343865.070155609,501521.77319306595,354540.42133602273,108593.23456222011,-8919.678584971247,2.292433801037393e-06,0.0,0.0,0.0,2.292433801037393e-06,0.0,23.737707415700022,-0.04991146749922844,-0.00029746555406379486,0.0
976,1.7241379310344829,0.6896551724137931,0.35714285714285715,0,318785.44111634215,618789.224329485,420635.20500729996,251057.42513805826,45625.61143712051,2.1252362741089476e-06,0.0,0.0,0.0,2.1252362741089476e-06,0.0,23.545388624554935,0.25403619407744765,0.001523258154859182,0.0
977,1.7241379310344829,0.6896551724137931,0.7142857142857143,0,110040.91055886126,409057.0868273772,303723.3105513086,294846.728863612,21840.126474613324,7.336060703924084e-07,0.0,0.0,0.0,7.336060703924084e-07,0.0,23.154417250181748,0.5590333525894406,0.0007317893186997761,0.0
978,1.7241379310344829,0.6896551724137931,1.0714285714285714,0,352760.47978019674,496634.41049970925,318769.486730803,90348.82075251476,-55065.54465572529,2.3517365318679783e-06,0.0,0.0,0.0,2.3517365318679783e-06,0.0,22.878032811048666,0.8666726626599758,-0.0018669029807194606,0.0
979,1.7241379310344829,0.6896551724137931,1.4285714285714286,0,110478.21240718478,346443.3929033528,453862.58474710997,340560.42775916704,-46071.48104700315,7.365214160478985e-07,0.0,0.0,0.0,7.365214160478985e-07,0.0,23.68352742119374,1.178836649425075,-0.0016220713739166885,0.0
980,1.7241379310344829,0.6896551724137931,1.7857142857142858,0,43636.90795711938,404959.0645308463,368638.4141649187,417044.19361468335,82134.40161992186,2.909127197141292e-07,0.0,0.0,0.0,2.909127197141292e-07,0.0,24.12260981294254,1.4953908333684272,0.0032441033969123475,0.0
981,1.7241379310344829,0.6896551724137931,2.142857142857143,0,814611.2901440233,1344603.627031961,1174970.022943554,458531.631991735,359867.1477458074,5.430741934293489e-06,0.0,0.0,0.0,5.430741934293489e-06,0.0,23.41887571235405,1.8117976223692516,0.01929071279307338,0.0
982,1.7241379310344829,0.6896551724137931,2.5,0,885638.2388819923,1351916.1478541377,709426.5714229319,341642.7330177432,488513.1590835024,5.904254925879949e-06,0.0,0.0,0.0,5.904254925879949e-06,0.0,23.56202315873978,2.120860970799629,0.04885131590835025,0.0
983,1.7241379310344829,0.6896551724137931,2.857142857142857,0,1076788.7237939879,1421380.8845709057,363807.09676658415,326354.44930678734,348136.25738848536,7.1785914919599195e-06,0.0,0.0,0.0,7.1785914919599195e-06,0.0,22.83227142432863,2.4189404795121083,0.018661877296119435,0.0
984,1.7241379310344829,0.6896551724137931,3.2142857142857144,0,42523.51855041881,563113.0029111471,545019.0117829193,593597.0741641142,60156.26094550837,2.8349012366945877e-07,0.0,0.0,0.0,2.8349012366945877e-07,0.0,23.268795754637733,2.709676547654142,0.0023760218206975345,0.0
985,1.7241379310344829,0.6896551724137931,3.5714285714285716,0,346092.19366445753,598326.5115348247,563483.8412218235,236130.9056451805,-14866.390523638333,2.3072812910963834e-06,0.0,0.0,0.0,2.3072812910963834e-06,0.0,22.886093686246355,3.0002652208536467,-0.0005234115759651416,0.0
986,1.7241379310344829,0.6896551724137931,3.928571428571429,0,301075.7688601117,640683.222943981,381160.48827178706,310590.67671676143,33913.14486697002,2.0071717924007446e-06,0.0,0.0,0.0,2.0071717924007446e-06,0.0,22.92555576280863,3.295244091231405,0.0011497670936254775,0.0
987,1.7241379310344829,0.6896551724137931,4.285714285714286,0,252074.6357868664,490671.57066964917,384871.324113622,202938.84131106114,-101145.39724787908,1.6804975719124425e-06,0.0,0.0,0.0,1.6804975719124425e-06,0.0,23.559356280200305,3.5947476383037267,-0.0033890427066748064,0.0
988,1.7241379310344829,0.6896551724137931,4.642857142857143,0,291699.05713069596,476193.62190703023,319598.0789714184,139638.77525935104,-34851.62650628092,1.9446603808713064e-06,0.0,0.0,0.0,1.9446603808713064e-06,0.0,23.48593110247431,3.896893336934591,-0.001163557541775911,0.0
989,1.7241379310344829,0.6896551724137931,5.0,0,193726.3772982643,451915.77758809365,302051.809339649,233159.2387914117,35895.8276920547,1.2915091819884286e-06,0.0,0.0,0.0,1.2915091819884286e-06,0.0,23.913287108885854,4.2000885325007715,0.0011971028071556889,0.0
990,2.0689655172413794,0.6896551724137931,0.0,0,173782.48836560163,306592.3357829045,174801.7152365116,371745.7855745708,-29847.311559971644,1.1585499224373441e-06,0.0,0.0,0.0,1.1585499224373441e-06,0.0,23.89381912172324,-0.04990757928494666,-0.0009953886775092013,0.0
991,2.0689655172413794,0.6896551724137931,0.35714285714285715,0,452345.37825505296,568354.709039488,110943.36727023148,121251.48884547934,-54164.98214083361,3.015635855033686e-06,0.0,0.0,0.0,3.015635855033686e-06,0.0,23.078466333014852,0.2540566058794688,-0.0018083538643100733,0.0
992,2.0689655172413794,0.6896551724137931,0.7142857142857143,0,114688.17104862363,393757.37273630104,331598.83308904525,261408.09975197038,-30527.114312931953,7.645878069908242e-07,0.0,0.0,0.0,7.645878069908242e-07,0.0,22.55239307813902,0.5591163803061661,-0.0010228611180845358,0.0
993,2.0689655172413794,0.6896551724137931,1.0714285714285714,0,279856.860840566,508758.5722487832,444805.7234346862,202460.46184889006,20916.806306906856,1.8657124056037733e-06,0.0,0.0,0.0,1.8657124056037733e-06,0.0,23.050688654639664,0.8669343456140839,0.0007091484935931882,0.0
994,2.0689655172413794,0.6896551724137931,1.4285714285714286,0,334055.0972774764,369161.0714857072,412894.5831847798,59126.72311455166,-6858.265693652798,2.2270339818498425e-06,0.0,0.0,0.0,2.2270339818498425e-06,0.0,23.17436594160005,1.179475704611917,-0.00024146383410247925,0.0
995,2.0689655172413794,0.6896551724137931,1.7857142857142858,0,531426.9896666338,587834.2222878742,634463.3764215895,81258.30421944344,25264.684661102627,3.5428465977775586e-06,0.0,0.0,0.0,3.5428465977775586e-06,0.0,23.810413967126955,1.4966000716452545,0.0009978918420843826,0.0
996,2.0689655172413794,0.6896551724137931,2.142857142857143,0,996411.434908585,1466948.3049771432,1158888.8190484915,352887.1758260861,484803.32694610214,6.642742899390567e-06,0.0,0.0,0.0,6.642742899390567e-06,0.0,23.84533608467721,1.8135705703718683,0.025987928600389072,0.0
997,2.0689655172413794,0.6896551724137931,2.5,0,542681.7018711721,1247962.8299468518,1026965.2171451347,629651.5868159065,824098.9212854507,3.6178780124744803e-06,0.0,0.0,0.0,3.6178780124744803e-06,0.0,23.520577532798335,2.122875115662652,0.08240989212854508,0.0
998,2.0689655172413794,0.6896551724137931,2.857142857142857,0,764438.4125335881,1471094.4753097438,769902.5776286643,656156.4881755802,285875.7285873425,5.096256083557254e-06,0.0,0.0,0.0,5.096256083557254e-06,0.0,23.918669868150662,2.4207134275147255,0.015324395708897463,0.0
999,2.0689655172413794,0.6896551724137931,3.2142857142857144,0,598641.6798221443,757271.0137190304,412575.9047252256,66019.97860449852,88328.29936211182,3.990944532147629e-06,0.0,0.0,0.0,3.990944532147629e-06,0.0,24.834466035757732,2.710885785930969,0.00348874686310024,0.0
1000,2.0689655172413794,0.6896551724137931,3.5714285714285716,0,284973.80883052,339208.62353246677,593135.3666451345,284923.6059414245,-63037.55764472687,1.8998253922034668e-06,0.0,0.0,0.0,1.8998253922034668e-06,0.0,23.498833553877603,3.000904276040489,-0.0022194080896339187,0.0
1001,2.0689655172413794,0.6896551724137931,3.928571428571429,0,321269.68315536977,544581.5274588675,372158.5848841015,173910.99765840798,54369.73927779142,2.1417978877024652e-06,0.0,0.0,0.0,2.1417978877024652e-06,0.0,23.446229721240204,3.295505774185513,0.0018433128910874258,0.0
1002,2.0689655172413794,0.6896551724137931,4.285714285714286,0,195879.85739637108,395638.2071798661,229338.80685576267,179720.6621814032,55232.65188214483,1.3058657159758073e-06,0.0,0.0,0.0,1.3058657159758073e-06,0.0,23.14721661757401,3.594830666020452,0.0018506607430959156,0.0
1003,2.0689655172413794,0.6896551724137931,4.642857142857143,0,290435.5565361921,509612.06098582235,208258.61585689505,231489.70949599077,-12862.715320327883,1.936237043574614e-06,0.0,0.0,0.0,1.936237043574614e-06,0.0,23.731667804408985,3.896913748736612,-0.00042943503414358047,0.0
1004,2.0689655172413794,0.6896551724137931,5.0,0,104346.65537274991,449296.5519907142,424964.2851199737,334933.6471817935,47608.30906562196,6.956443691516661e-07,0.0,0.0,0.0,6.956443691516661e-07,0.0,24.145703934336677,4.200092420715054,0.0015877065411422865,0.0
1005,2.413793103448276,0.6896551724137931,0.0,0,95355.60566914231,304492.48611400195,216909.50096193107,202911.66003758716,-33304.80665237818,6.357040377942821e-07,0.0,0.0,0.0,6.357040377942821e-07,0.0,23.314482493911783,-0.0499039923898561,-0.001110693919008425,0.0
1006,2.413793103448276,0.6896551724137931,0.35714285714285715,0,406911.13229516614,454976.574432222,471675.0758288278,56671.74655259538,-6161.8414276553485,2.7127408819677744e-06,0.0,0.0,0.0,2.7127408819677744e-06,0.0,23.37297795714879,0.2540754358582593,-0.0002057194393232557,0.0
1007,2.413793103448276,0.6896551724137931,0.7142857142857143,0,529408.5069462758,636014.3450072241,65715.07272013013,160227.82300815007,-25836.162426333096,3.5293900463085056e-06,0.0,0.0,0.0,3.5293900463085056e-06,0.0,23.31248889345134,0.5591929737467328,-0.0008656830683540165,0.0
1008,2.413793103448276,0.6896551724137931,1.0714285714285714,0,219161.88575357842,500169.2306564362,448231.699005052,259703.84068123525,-832.1710099573365,1.4610792383571895e-06,0.0,0.0,0.0,1.4610792383571895e-06,0.0,23.002611572963215,0.8671757493113467,-2.821333283218776e-05,0.0
1009,2.413793103448276,0.6896551724137931,1.4285714285714286,0,188702.2278595718,522996.85443301115,421879.80471977324,305285.592559813,10155.484234409709,1.2580148523971453e-06,0.0,0.0,0.0,1.2580148523971453e-06,0.0,23.649847654739528,1.1800652358841561,0.0003575513504350378,0.0
1010,2.413793103448276,0.6896551724137931,1.7857142857142858,0,461863.1504974265,920903.589998791,548508.3516216227,404086.9912991729,79633.12257486052,3.0790876699828436e-06,0.0,0.0,0.0,3.0790876699828436e-06,0.0,23.67245527005779,1.4977155993718982,0.003145309131821592,0.0
1011,2.413793103448276,0.6896551724137931,2.142857142857143,0,723673.6438874695,1170218.7694226631,746629.9122694756,334619.16057813464,413389.7957632378,4.824490959249797e-06,0.0,0.0,0.0,4.824490959249797e-06,0.0,23.571540904289098,1.8152061228454521,0.022159799447124692,0.0
1012,2.413793103448276,0.6896551724137931,2.5,0,1234190.5055131605,1376603.8103476653,1424484.2095518943,167050.2708380389,779170.2740448389,8.22793670342107e-06,0.0,0.0,0.0,8.22793670342107e-06,0.0,24.516469282855233,2.1247331733202994,0.07791702740448388,0.0
1013,2.413793103448276,0.6896551724137931,2.857142857142857,0,334810.5223661756,877747.9534576775,944826.8054365775,581555.0537646037,564485.2056325495,2.2320701491078373e-06,0.0,0.0,0.0,2.2320701491078373e-06,0.0,23.801766401306725,2.422348979988309,0.03025928331054038,0.0
1014,2.413793103448276,0.6896551724137931,3.2142857142857144,0,587257.9717548073,793349.3002066716,393623.6951303528,119106.36963367532,-72569.8241640755,3.915053145032049e-06,0.0,0.0,0.0,3.915053145032049e-06,0.0,23.04821821539964,2.7120013136576127,-0.002866326514113259,0.0
1015,2.413793103448276,0.6896551724137931,3.5714285714285716,0,410528.85039125156,638650.3307753768,188468.96031347103,284965.3716814603,108283.29057711526,2.736859002608344e-06,0.0,0.0,0.0,2.736859002608344e-06,0.0,23.92731259601848,3.0014938073127277,0.0038124067628615243,0.0
1016,2.413793103448276,0.6896551724137931,3.928571428571429,0,118160.65254669836,379151.41528468137,334839.87843151606,245240.08508802616,-15678.407058894803,7.877376836446557e-07,0.0,0.0,0.0,7.877376836446557e-07,0.0,23.44615835550556,3.295747177882776,-0.0005315495389028259,0.0
1017,2.413793103448276,0.6896551724137931,4.285714285714286,0,376842.2189904591,567807.7820874312,309241.237697965,135427.88403632073,-3436.5041777713723,2.512281459936394e-06,0.0,0.0,0.0,2.512281459936394e-06,0.0,23.45618136226826,3.5949072594610185,-0.0001151457183127311,0.0
1018,2.413793103448276,0.6896551724137931,4.642857142857143,0,262146.3783638424,432422.7955412842,174450.47159580508,166292.7902947565,58556.07187290161,1.747642522425616e-06,0.0,0.0,0.0,1.747642522425616e-06,0.0,23.538615583243057,3.8969325787154023,0.00195495492964175,0.0
1019,2.413793103448276,0.6896551724137931,5.0,0,148175.16940405467,362217.5612214524,303411.2411909634,193666.12284361338,26719.49202652362,9.878344626936977e-07,0.0,0.0,0.0,9.878344626936977e-07,0.0,23.487446026923358,4.200096007610144,0.0008910779042380281,0.0
1020,2.7586206896551726,0.6896551724137931,0.0,0,350710.2462135216,517175.04273122974,252314.24031453556,119444.35259251301,23067.30434647355,2.3380683080901437e-06,0.0,0.0,0.0,2.3380683080901437e-06,0.0,23.746887050227592,-0.04990074139236876,0.0007692797899403297,0.0
1021,2.7586206896551726,0.6896551724137931,0.35714285714285715,0,314388.7957800735,406499.5777680706,302665.5322050858,53328.205393808414,53715.98121311976,2.09592530520049e-06,0.0,0.0,0.0,2.09592530520049e-06,0.0,24.674361392281444,0.2540925024889215,0.001793363504660383,0.0
1022,2.7586206896551726,0.6896551724137931,0.7142857142857143,0,286395.0051591416,498326.3817082354,365636.5620902696,169651.22620230942,-7121.554998477692,1.9093000343942773e-06,0.0,0.0,0.0,1.9093000343942773e-06,0.0,23.437213813186005,0.5592623945345012,-0.0002386194002345512,0.0
1023,2.7586206896551726,0.6896551724137931,1.0714285714285714,0,249259.373526009,419694.0832793393,445042.7859176163,184077.64188458025,41246.3140126303,1.66172915684006e-06,0.0,0.0,0.0,1.66172915684006e-06,0.0,23.67065183560378,0.8673945465700962,0.0013983856339803622,0.0
1024,2.7586206896551726,0.6896551724137931,1.4285714285714286,0,144170.86869464235,511754.7433459032,456718.71938124544,348172.34796443116,-58776.494468563804,9.61139124630949e-07,0.0,0.0,0.0,9.61139124630949e-07,0.0,23.748017111740015,1.1805995600381587,-0.002069385810266492,0.0
1025,2.7586206896551726,0.6896551724137931,1.7857142857142858,0,556091.0554969253,815197.6298149034,412314.5702947972,180742.02145292613,109133.88429751249,3.707273703312835e-06,0.0,0.0,0.0,3.707273703312835e-06,0.0,23.37926275355234,1.4987266626299025,0.004310515420884565,0.0
1026,2.7586206896551726,0.6896551724137931,2.142857142857143,0,428629.08137983084,1163238.0901784124,850606.1253007243,674628.8181487994,476366.02715330536,2.8575272091988724e-06,0.0,0.0,0.0,2.8575272091988724e-06,0.0,23.439609075267672,1.8166885127252215,0.025535646339917586,0.0
1027,2.7586206896551726,0.6896551724137931,2.5,0,641165.8997812475,777218.9317912245,921731.9367219394,220642.62293331925,894548.4739029089,4.274439331874983e-06,0.0,0.0,0.0,4.274439331874983e-06,0.0,24.141817018238076,2.126417231711706,0.08945484739029089,0.0
1028,2.7586206896551726,0.6896551724137931,2.857142857142857,0,614119.1207392616,852769.7619003253,476620.5327980586,144093.46415762606,492417.2454991221,4.094127471595078e-06,0.0,0.0,0.0,4.094127471595078e-06,0.0,23.39465724363646,2.4238313698680787,0.026396073430936112,0.0
1029,2.7586206896551726,0.6896551724137931,3.2142857142857144,0,543778.4687435016,879874.0317779103,578464.6037082939,252137.5676759946,93327.25650645565,3.6251897916233438e-06,0.0,0.0,0.0,3.6251897916233438e-06,0.0,23.21051178262209,2.713012376915617,0.003686193164931598,0.0
1030,2.7586206896551726,0.6896551724137931,3.5714285714285716,0,422154.12312188075,504264.0730805382,554900.0009157414,109711.69298941475,-9940.016035141623,2.8143608208125382e-06,0.0,0.0,0.0,2.8143608208125382e-06,0.0,24.55073294849302,3.0020281314667305,-0.0003499652084209453,0.0
1031,2.7586206896551726,0.6896551724137931,3.928571428571429,0,308503.40860639815,399015.96809947374,314881.5936993871,57173.18415247071,-14366.431701446954,2.056689390709321e-06,0.0,0.0,0.0,2.056689390709321e-06,0.0,23.0613878786877,3.2959659751415256,-0.00048706926143052796,0.0
1032,2.7586206896551726,0.6896551724137931,4.285714285714286,0,164842.81850663148,315064.49252831587,164895.66707654714,341272.4670289028,-13849.692953283668,1.0989521233775432e-06,0.0,0.0,0.0,1.0989521233775432e-06,0.0,24.11042579408352,3.594976680248787,-0.0004640567160755869,0.0
1033,2.7586206896551726,0.6896551724137931,4.642857142857143,0,189998.4244889464,338110.74878681597,304474.87251562544,133540.65439493765,-55968.993515771625,1.2666561632596425e-06,0.0,0.0,0.0,1.2666561632596425e-06,0.0,23.57276831233944,3.896949645346065,-0.001868582647043653,0.0
1034,2.7586206896551726,0.6896551724137931,5.0,0,153728.7183850765,256809.92029621094,197146.30307884119,371763.15387670574,75167.86882106995,1.0248581225671767e-06,0.0,0.0,0.0,1.0248581225671767e-06,0.0,23.070584921934636,4.200099258607631,0.0025068001647871375,0.0
1035,3.1034482758620694,0.6896551724137931,0.0,0,306531.6359030383,410793.9316392637,365920.6742341489,84299.02416965218,41873.154703941036,2.043544239353589e-06,0.0,0.0,0.0,2.043544239353589e-06,0.0,23.466142970743796,-0.04989786233623639,0.0013964428253495159,0.0
1036,3.1034482758620694,0.6896551724137931,0.35714285714285715,0,330069.8673473449,369176.7069630963,337581.58172667323,24445.36928269252,10673.037679937544,2.2004657823156325e-06,0.0,0.0,0.0,2.2004657823156325e-06,0.0,23.546446951377316,0.2541076165540226,0.0003563303848648705,0.0
1037,3.1034482758620694,0.6896551724137931,0.7142857142857143,0,60915.51778428074,339378.4798736991,280115.55845964816,276934.9799732458,34291.011313417555,4.061034518952049e-07,0.0,0.0,0.0,4.061034518952049e-07,0.0,22.848937375486223,0.5593238730024228,0.0011489766707963366,0.0
1038,3.1034482758620694,0.6896551724137931,1.0714285714285714,0,274720.0386621751,427533.40647422627,274699.31889405666,110383.30326416946,32918.019496682624,1.831466924414501e-06,0.0,0.0,0.0,1.831466924414501e-06,0.0,23.882661565093446,0.8675883115889873,0.0011160290722984525,0.0
1039,3.1034482758620694,0.6896551724137931,1.4285714285714286,0,285220.5801730993,540368.17445242,331210.60325061035,215470.04752851804,-43684.9194798222,1.9014705344873287e-06,0.0,0.0,0.0,1.9014705344873287e-06,0.0,23.83704670671714,1.1810727530314624,-0.0015380460048111347,0.0
1040,3.1034482758620694,0.6896551724137931,1.7857142857142858,0,807620.5095700417,1023610.7226616946,506274.80365974986,92987.74408505234,121949.45866602813,5.3841367304669446e-06,0.0,0.0,0.0,5.3841367304669446e-06,0.0,23.504037692033336,1.499622051778775,0.00481669854905385,0.0
1041,3.1034482758620694,0.6896551724137931,2.142857142857143,0,282601.5363206481,745785.6495566774,583216.7387570553,419466.2165274288,538939.9971347942,1.884010242137654e-06,0.0,0.0,0.0,1.884010242137654e-06,0.0,23.919654178778227,1.8180013047807486,0.02888992997152024,0.0
1042,3.1034482758620694,0.6896551724137931,2.5,0,1247408.7352127733,1549517.7523736276,531378.7335733569,158080.2605067398,640511.3999606059,8.316058234751822e-06,0.0,0.0,0.0,8.316058234751822e-06,0.0,23.78972579451526,2.127908619711215,0.06405113999606059,0.0
1043,3.1034482758620694,0.6896551724137931,2.857142857142857,0,763702.2567998305,1277094.1924744418,991788.8428560904,411813.13450382603,239240.96986627017,5.0913483786655365e-06,0.0,0.0,0.0,5.0913483786655365e-06,0.0,24.33924739426664,2.4251441619236056,0.012824535017812857,0.0
1044,3.1034482758620694,0.6896551724137931,3.2142857142857144,0,338580.3771218958,609113.967018329,449463.9777035046,220224.92971629353,-7841.406247038336,2.257202514145972e-06,0.0,0.0,0.0,2.257202514145972e-06,0.0,23.158163439544595,2.7139077660644895,-0.0003097159307290387,0.0
1045,3.1034482758620694,0.6896551724137931,3.5714285714285716,0,259421.04135510875,524175.7100332713,369419.1344823224,224677.90839065227,1478.7284848181225,1.7294736090340584e-06,0.0,0.0,0.0,1.7294736090340584e-06,0.0,23.555578978357044,3.002501324460034,5.2062644623288034e-05,0.0
1046,3.1034482758620694,0.6896551724137931,3.928571428571429,0,144945.90279358128,393767.666505743,328137.66980840475,227615.34259976097,-52591.00850442917,9.663060186238751e-07,0.0,0.0,0.0,9.663060186238751e-07,0.0,24.20717143060007,3.2961597401604164,-0.0017830080706511835,0.0
1047,3.1034482758620694,0.6896551724137931,4.285714285714286,0,214765.06239978372,436333.07481462334,321591.6116115399,188568.4633374549,-7230.535950642919,1.4317670826652248e-06,0.0,0.0,0.0,1.4317670826652248e-06,0.0,23.982015757994233,3.595038158716709,-0.00024227098608177358,0.0
1048,3.1034482758620694,0.6896551724137931,4.642857142857143,0,345723.2678593118,545946.9442301524,195106.22133614754,205579.1114211115,-27456.73155143479,2.3048217857287453e-06,0.0,0.0,0.0,2.3048217857287453e-06,0.0,22.565292773534388,3.8969647594111656,-0.0009166713370875538,0.0
1049,3.1034482758620694,0.6896551724137931,5.0,0,314338.60991654755,470071.6434834791,152969.32682036702,158571.63010739192,-33.50540871109006,2.0955907327769835e-06,0.0,0.0,0.0,2.0955907327769835e-06,0.0,22.886205714645687,4.200102137663764,-1.1173838688729424e-06,0.0
1050,3.4482758620689657,0.6896551724137931,0.0,0,281270.8375091691,446218.48879539047,235827.1153133599,126745.20988391984,-20642.31486218602,1.8751389167277942e-06,0.0,0.0,0.0,1.8751389167277942e-06,0.0,23.691481430273615,-0.04989539155445671,-0.0006884079475672347,0.0
1051,3.4482758620689657,0.6896551724137931,0.35714285714285715,0,150430.66433315296,370235.81420485437,315630.10105036595,200128.73206029358,-1457.49463133297,1.002871095554353e-06,0.0,0.0,0.0,1.002871095554353e-06,0.0,24.51574410455416,0.2541205873176866,-4.8659963404570194e-05,0.0
1052,3.4482758620689657,0.6896551724137931,0.7142857142857143,0,114691.30333640303,285770.7444743779,225308.19031960182,153498.76610670378,24491.466923467397,7.646086889093535e-07,0.0,0.0,0.0,7.646086889093535e-07,0.0,23.48470321721345,0.5593766333069808,0.0008206268363287774,0.0
1053,3.4482758620689657,0.6896551724137931,1.0714285714285714,0,208527.50424983288,401232.7980328953,263362.2734309544,161336.9880516098,-39844.57574610612,1.3901833616655525e-06,0.0,0.0,0.0,1.3901833616655525e-06,0.0,24.02977382281765,0.8677545990999644,-0.0013508620988128875,0.0
1054,3.4482758620689657,0.6896551724137931,1.4285714285714286,0,345924.552721882,603979.0797891632,547605.0410871996,233329.98663123228,19804.912770364386,2.306163684812547e-06,0.0,0.0,0.0,2.306163684812547e-06,0.0,23.751340755961056,1.181478843282007,0.0006972856382661219,0.0
1055,3.4482758620689657,0.6896551724137931,1.7857142857142858,0,312627.8905984326,484106.3030539083,230644.81471367442,134767.9367629604,14017.49313847383,2.0841859373228843e-06,0.0,0.0,0.0,2.0841859373228843e-06,0.0,24.004222160306277,1.5003904672222537,0.0005536559128676798,0.0
1056,3.4482758620689657,0.6896551724137931,2.142857142857143,0,215335.65477841618,814750.0518428963,566923.1581819726,708324.2378605976,388884.9827265015,1.435571031856108e-06,0.0,0.0,0.0,1.435571031856108e-06,0.0,24.25487750986072,1.8191279318912221,0.020846216606065955,0.0
1057,3.4482758620689657,0.6896551724137931,2.5,0,855051.6265347506,1245732.990227207,1311427.352086697,425423.4023538039,691137.2415996102,5.700344176898337e-06,0.0,0.0,0.0,5.700344176898337e-06,0.0,24.19634248186531,2.129188516360047,0.06911372415996102,0.0
1058,3.4482758620689657,0.6896551724137931,2.857142857142857,0,347507.4937929899,829297.0430868182,713650.7449418952,438711.3532494494,426198.26779244666,2.3167166252865994e-06,0.0,0.0,0.0,2.3167166252865994e-06,0.0,24.183489776204162,2.426270789034079,0.02284639881242188,0.0
1059,3.4482758620689657,0.6896551724137931,3.2142857142857144,0,274803.5289176217,586514.3592004521,389480.4402725418,272590.3302157628,86287.05290440285,1.832023526117478e-06,0.0,0.0,0.0,1.832023526117478e-06,0.0,23.426243273317105,2.714676181507968,0.003408122734394312,0.0
1060,3.4482758620689657,0.6896551724137931,3.5714285714285716,0,191847.77143082506,445339.9744895351,454328.4647404088,258144.43719235156,66395.2268127743,1.278985142872167e-06,0.0,0.0,0.0,1.278985142872167e-06,0.0,23.662835821455808,3.0029074147105783,0.0023376239341607293,0.0
1061,3.4482758620689657,0.6896551724137931,3.928571428571429,0,105299.95000762957,304335.5574195843,297707.5220118515,195878.15508508758,-822.8703660096069,7.019996667175305e-07,0.0,0.0,0.0,7.019996667175305e-07,0.0,24.00243886593826,3.2963260276713937,-2.7898010428365473e-05,0.0
1062,3.4482758620689657,0.6896551724137931,4.285714285714286,0,146718.8705777328,327217.50253836886,256164.8952975912,158499.33641571846,-25495.617226476243,9.78125803851552e-07,0.0,0.0,0.0,9.78125803851552e-07,0.0,23.98913940764777,3.5950909190212665,-0.0008542725419507283,0.0
1063,3.4482758620689657,0.6896551724137931,4.642857142857143,0,173647.94102275278,462091.0749498446,299155.3065103453,279417.66250305675,37663.192907817116,1.1576529401516853e-06,0.0,0.0,0.0,1.1576529401516853e-06,0.0,24.050011535585046,3.89697773017483,0.0012574245895626659,0.0
1064,3.4482758620689657,0.6896551724137931,5.0,0,367021.0938735226,299117.265888683,230204.1289702,-97475.62775509158,13405.489680084545,2.4468072924901507e-06,0.0,0.0,0.0,2.4468072924901507e-06,0.0,22.873016738291835,4.200104608445543,0.00044706447403852144,0.0
1065,3.793103448275862,0.6896551724137931,0.0,0,66166.2744764547,264467.1485432826,192979.83079590072,252071.90351415903,34364.956347386644,4.4110849650969795e-07,0.0,0.0,0.0,4.4110849650969795e-07,0.0,24.319639839378755,-0.04989336407656204,0.001146049230683848,0.0
1066,3.793103448275862,0.6896551724137931,0.35714285714285715,0,99669.44279959763,339770.77074062114,263296.87848266575,227050.2312492711,-4663.795312842848,6.644629519973176e-07,0.0,0.0,0.0,6.644629519973176e-07,0.0,22.87418752754436,0.25413123088678774,-0.00015570562276568254,0.0
1067,3.793103448275862,0.6896551724137931,0.7142857142857143,0,377800.7439450308,447089.1668640946,194140.77707940218,12806.206332403406,-51033.429463910164,2.5186716263002053e-06,0.0,0.0,0.0,2.5186716263002053e-06,0.0,23.355130183748805,0.5594199274384525,-0.0017099588970658239,0.0
1068,3.793103448275862,0.6896551724137931,1.0714285714285714,0,133496.1016142136,385973.19676046266,282117.73080349335,235395.8779271046,90417.38081808679,8.899740107614241e-07,0.0,0.0,0.0,8.899740107614241e-07,0.0,23.832970731907324,0.8678910515602497,0.0030654464386666563,0.0
1069,3.793103448275862,0.6896551724137931,1.4285714285714286,0,119568.75147468975,423545.8331467616,359948.63297633105,285618.8512446272,-22270.020007319305,7.97125009831265e-07,0.0,0.0,0.0,7.97125009831265e-07,0.0,23.72534166993714,1.18181207344138,-0.0007840764205858827,0.0
1070,3.793103448275862,0.6896551724137931,1.7857142857142858,0,296875.0395049775,674805.0932091085,582327.2064305816,342697.8769670931,-7194.094068651495,1.9791669300331835e-06,0.0,0.0,0.0,1.9791669300331835e-06,0.0,24.454143010324465,1.5010210147430372,-0.0002841487189961887,0.0
1071,3.793103448275862,0.6896551724137931,2.142857142857143,0,732709.2679784527,644999.3239006427,917252.6517320073,87388.67045832043,444819.14581817004,4.884728453189685e-06,0.0,0.0,0.0,4.884728453189685e-06,0.0,23.164124343161035,1.8200524212900042,0.023844572755776137,0.0
1072,3.793103448275862,0.6896551724137931,2.5,0,613450.352459289,1281396.552056471,721599.8140389128,625609.843229732,562591.1293226646,4.08966901639526e-06,0.0,0.0,0.0,4.08966901639526e-06,0.0,23.572205274790747,2.130238775911217,0.05625911293226646,0.0
1073,3.793103448275862,0.6896551724137931,2.857142857142857,0,409715.3490913415,1066994.4032013135,792682.1774312225,596025.0650302799,334878.61346014286,2.7314356606089434e-06,0.0,0.0,0.0,2.7314356606089434e-06,0.0,22.774344567041883,2.427195278432861,0.017951200028309654,0.0
1074,3.793103448275862,0.6896551724137931,3.2142857142857144,0,389321.65190177364,614116.1141348244,534096.6541840236,191001.94257539266,78789.02539491537,2.5954776793451575e-06,0.0,0.0,0.0,2.5954776793451575e-06,0.0,23.829521868782162,2.7153067290287516,0.0031119694048037222,0.0
1075,3.793103448275862,0.6896551724137931,3.5714285714285716,0,290660.6967633431,560870.8577924429,357465.69281662867,227968.37307959227,-822.7152878976176,1.9377379784222874e-06,0.0,0.0,0.0,1.9377379784222874e-06,0.0,23.664413278227954,3.0032406448699516,-2.8965921803574384e-05,0.0
1076,3.793103448275862,0.6896551724137931,3.928571428571429,0,156307.26934885408,311192.66653685365,242729.2791196407,132335.47062059474,-14344.34931163118,1.0420484623256939e-06,0.0,0.0,0.0,1.0420484623256939e-06,0.0,23.15319249957651,3.296462480131679,-0.0004863205958243631,0.0
1077,3.793103448275862,0.6896551724137931,4.285714285714286,0,270485.483640131,477973.30687809625,192809.26060679258,225057.7127149964,62002.86718390749,1.8032365576008734e-06,0.0,0.0,0.0,1.8032365576008734e-06,0.0,24.432517546704478,3.5951342131527384,0.0020775079295756544,0.0
1078,3.793103448275862,0.6896551724137931,4.642857142857143,0,237852.85554327065,400768.0312438371,311160.42082284787,131126.86702450662,-4333.1915373777865,1.5856857036218044e-06,0.0,0.0,0.0,1.5856857036218044e-06,0.0,24.32265776271253,3.896988373743931,-0.00014466807431116104,0.0
1079,3.793103448275862,0.6896551724137931,5.0,0,238958.34520523623,362516.83878240886,139390.98231177055,110375.71211679281,-34958.811432005896,1.5930556347015748e-06,0.0,0.0,0.0,1.5930556347015748e-06,0.0,23.82343915170578,4.200106635923438,-0.0011658539164802072,0.0
1080,4.137931034482759,0.6896551724137931,0.0,0,194686.5672067911,369255.09858590557,239650.90071780357,145377.78671159543,36218.439315409116,1.297910448045274e-06,0.0,0.0,0.0,1.297910448045274e-06,0.0,24.31332953356229,-0.049891811683883444,0.0012078616976666354,0.0
1081,4.137931034482759,0.6896551724137931,0.35714285714285715,0,303907.49310448987,362847.2310530836,70183.1080347309,48823.34598509617,-26791.79287865467,2.0260499540299324e-06,0.0,0.0,0.0,2.0260499540299324e-06,0.0,23.70260171323567,0.25413938042015144,-0.000894471672822463,0.0
1082,4.137931034482759,0.6896551724137931,0.7142857142857143,0,313651.37694299116,462771.3996902082,160965.5212764459,138484.21934703665,-4051.9409272470984,2.091009179619941e-06,0.0,0.0,0.0,2.091009179619941e-06,0.0,24.110427986483394,0.5594530767481931,-0.00013576693770562932,0.0
1083,4.137931034482759,0.6896551724137931,1.0714285714285714,0,111029.2195532186,300715.8755961196,201038.22498788006,181050.39297895704,-34423.4290511851,7.401947970214574e-07,0.0,0.0,0.0,7.401947970214574e-07,0.0,24.189838336540618,0.8679955300361334,-0.0011670674049268765,0.0
1084,4.137931034482759,0.6896551724137931,1.4285714285714286,0,140567.99011572995,377446.8303893732,409445.86660361727,255637.03783064953,15014.806591685105,9.371199341048663e-07,0.0,0.0,0.0,9.371199341048663e-07,0.0,23.228721845821003,1.1820672200257434,0.0005286369659447329,0.0
1085,4.137931034482759,0.6896551724137931,1.7857142857142858,0,418547.5412265845,770208.7416459672,534386.2740205014,286958.1216604641,69740.67470741872,2.7903169415105636e-06,0.0,0.0,0.0,2.7903169415105636e-06,0.0,23.98398879831884,1.5015038103174514,0.00275458218796373,0.0
1086,4.137931034482759,0.6896551724137931,2.142857142857143,0,634193.5285326046,832646.9051804008,556942.1330080352,107264.44277158965,353762.0380202659,4.227956856884031e-06,0.0,0.0,0.0,4.227956856884031e-06,0.0,23.85668761378872,1.8207602813253116,0.01896344780369233,0.0
1087,4.137931034482759,0.6896551724137931,2.5,0,498764.9309626484,1312488.1927670406,940762.1050848668,745664.2018978442,658411.1846784897,3.3250995397509894e-06,0.0,0.0,0.0,3.3250995397509894e-06,0.0,23.265179662027588,2.1310429352276485,0.06584111846784897,0.0
1088,4.137931034482759,0.6896551724137931,2.857142857142857,0,549515.462630464,1266502.1871252547,829462.9717331292,649592.3350367753,433805.1627343941,3.6634364175364266e-06,0.0,0.0,0.0,3.6634364175364266e-06,0.0,23.14323044861585,2.4279031384681686,0.023254167141627195,0.0
1089,4.137931034482759,0.6896551724137931,3.2142857142857144,0,274674.25450201106,586713.047614077,426086.16085936583,269555.3547290493,112058.81422561588,1.8311616966800738e-06,0.0,0.0,0.0,1.8311616966800738e-06,0.0,24.035647014618903,2.715789524603166,0.004426042836052209,0.0
1090,4.137931034482759,0.6896551724137931,3.5714285714285716,0,362482.54282660666,506058.27459322143,188445.63759345686,111168.80661505777,-40693.51534162813,2.416550285510711e-06,0.0,0.0,0.0,2.416550285510711e-06,0.0,23.650475440819243,3.003495791454315,-0.0014327255134765904,0.0
1091,4.137931034482759,0.6896551724137931,3.928571428571429,0,165173.0183604989,294812.94826732314,252332.92518833114,112548.98905629617,-25609.892662699058,1.1011534557366594e-06,0.0,0.0,0.0,1.1011534557366594e-06,0.0,23.063719615846736,3.2965669586075625,-0.0008682595486309656,0.0
1092,4.137931034482759,0.6896551724137931,4.285714285714286,0,256539.08586398748,428135.8304016031,253107.1528052011,133652.83675424042,34390.543775919716,1.7102605724265832e-06,0.0,0.0,0.0,1.7102605724265832e-06,0.0,24.090642503714463,3.595167362462479,0.0011523116694744638,0.0
1093,4.137931034482759,0.6896551724137931,4.642857142857143,0,217018.02886735988,385591.39337916323,168162.1028304426,168986.97768107706,-29027.455302405928,1.4467868591157326e-06,0.0,0.0,0.0,1.4467868591157326e-06,0.0,24.273055089089194,3.8969965232772945,-0.0009691115715816208,0.0
1094,4.137931034482759,0.6896551724137931,5.0,0,243467.0971581816,405802.4119219246,286725.0025823932,125715.17441330574,18236.041512029686,1.623113981054544e-06,0.0,0.0,0.0,1.623113981054544e-06,0.0,23.22484143817795,4.200108188316117,0.0006081602762510036,0.0
1095,4.482758620689656,0.6896551724137931,0.0,0,208760.73160476206,306326.71236908075,265903.43389684666,80310.52513092692,29528.09664930682,1.3917382106984137e-06,0.0,0.0,0.0,1.3917382106984137e-06,0.0,23.758865437550075,-0.04989076078145035,0.0009847430651856446,0.0
1096,4.482758620689656,0.6896551724137931,0.35714285714285715,0,57104.730547489984,234933.6860300072,277582.0837672558,212705.77956794147,-57752.59655856542,3.806982036499332e-07,0.0,0.0,0.0,3.806982036499332e-07,0.0,24.523585094759888,0.25414489730035744,-0.0019281300765331539,0.0
1097,4.482758620689656,0.6896551724137931,0.7142857142857143,0,198554.9309186469,388457.4047098716,266742.39915824623,159334.7728675037,-14336.164337872367,1.323699539457646e-06,0.0,0.0,0.0,1.323699539457646e-06,0.0,23.313406796774572,0.5594755173914288,-0.0004803567390406052,0.0
1098,4.482758620689656,0.6896551724137931,1.0714285714285714,0,208255.2030159267,213557.3291975025,307605.71791340987,68914.09017627974,29868.79286911657,1.388368020106178e-06,0.0,0.0,0.0,1.388368020106178e-06,0.0,24.627429885683036,0.8680662574274864,0.0010126502659054,0.0
1099,4.482758620689656,0.6896551724137931,1.4285714285714286,0,175583.3422931369,395737.60476002726,280634.8778114328,193642.02044803323,-898.9503503741389,1.1705556152875792e-06,0.0,0.0,0.0,1.1705556152875792e-06,0.0,23.61667107075464,1.182239943184002,-3.1649983824627195e-05,0.0
1100,4.482758620689656,0.6896551724137931,1.7857142857142858,0,398486.6240319875,719246.7224029168,448142.61966379615,261718.71907277475,39295.9800776904,2.6565774935465833e-06,0.0,0.0,0.0,2.6565774935465833e-06,0.0,23.74822360780104,1.5018306419566607,0.001552092910409842,0.0
1101,4.482758620689656,0.6896551724137931,2.142857142857143,0,607827.5757948108,931239.6464628141,556433.7719855405,229935.1824317467,412781.6242868748,4.052183838632072e-06,0.0,0.0,0.0,4.052183838632072e-06,0.0,23.090715141546244,1.8212394718314613,0.022127198357103143,0.0
1102,4.482758620689656,0.6896551724137931,2.5,0,823193.2985362193,1466401.8764589,615297.2067713414,674294.1737892426,725346.2310693815,5.487955323574795e-06,0.0,0.0,0.0,5.487955323574795e-06,0.0,23.11370174641965,2.1315873161654686,0.07253462310693815,0.0
1103,4.482758620689656,0.6896551724137931,2.857142857142857,0,619398.320967835,1080687.7952126376,867807.9008603756,382922.30913834565,277404.4311383734,4.129322139785567e-06,0.0,0.0,0.0,4.129322139785567e-06,0.0,23.469535357449747,2.428382328974318,0.014870291000822837,0.0
1104,4.482758620689656,0.6896551724137931,3.2142857142857144,0,331826.19808910694,526144.3614602686,176293.1369611052,215897.9589543549,170726.45743192197,2.2121746539273796e-06,0.0,0.0,0.0,2.2121746539273796e-06,0.0,24.245082967036304,2.716116356242375,0.006743267979971146,0.0
1105,4.482758620689656,0.6896551724137931,3.5714285714285716,0,240175.1178608535,424865.656083071,369886.43114289246,161967.77940331594,-70081.8528341281,1.60116745240569e-06,0.0,0.0,0.0,1.60116745240569e-06,0.0,24.977278959754816,3.0036685146125737,-0.002467421596395062,0.0
1106,4.482758620689656,0.6896551724137931,3.928571428571429,0,168846.52701475233,360168.70554190484,209402.11820100748,177728.29257933173,-54567.6551113006,1.1256435134316821e-06,0.0,0.0,0.0,1.1256435134316821e-06,0.0,25.11468140987179,3.296637685998916,-0.0018500228884518386,0.0
1107,4.482758620689656,0.6896551724137931,4.285714285714286,0,91246.77381151938,241253.48587464524,194111.23095859977,136078.56204608886,-16031.6900475149,6.083118254101292e-07,0.0,0.0,0.0,6.083118254101292e-07,0.0,23.75483155290377,3.595189803105715,-0.0005371681135232354,0.0
1108,4.482758620689656,0.6896551724137931,4.642857142857143,0,141272.68160541414,285642.66948398494,264673.0582426581,135057.2674289186,-11769.076204676536,9.418178773694276e-07,0.0,0.0,0.0,9.418178773694276e-07,0.0,23.642976510088022,3.8970020401575005,-0.0003929227628793417,0.0
1109,4.482758620689656,0.6896551724137931,5.0,0,148395.16495591484,312293.03579742543,141427.59696904206,215685.50798303433,-10157.050978205229,9.893010997060988e-07,0.0,0.0,0.0,9.893010997060988e-07,0.0,23.33380268298492,4.20010923921855,-0.00033873112894188077,0.0
1110,4.827586206896552,0.6896551724137931,0.0,0,149926.03464462527,197020.47700234508,178420.29582092896,38662.2071349692,-17765.9065913568,9.99506897630835e-07,0.0,0.0,0.0,9.99506897630835e-07,0.0,24.324835168168672,-0.04989023035716538,-0.0005924815784895922,0.0
1111,4.827586206896552,0.6896551724137931,0.35714285714285715,0,248089.69077375022,335604.05737243453,176253.7179599601,49763.67075252418,-24122.618312591832,1.6539312718250014e-06,0.0,0.0,0.0,1.6539312718250014e-06,0.0,23.409198404128244,0.25414768184737757,-0.0008053585235093557,0.0
1112,4.827586206896552,0.6896551724137931,0.7142857142857143,0,118532.96100534269,316894.1162706783,218687.71061221513,185227.66943766424,-7342.929388416651,7.90219740035618e-07,0.0,0.0,0.0,7.90219740035618e-07,0.0,23.65836045625192,0.5594868439064007,-0.00024603691286568527,0.0
1113,4.827586206896552,0.6896551724137931,1.0714285714285714,0,103561.76485536595,228638.05484840603,185259.11012006743,303456.2998215042,-20046.849029481473,6.904117657024397e-07,0.0,0.0,0.0,6.904117657024397e-07,0.0,24.030171314226788,0.8681019558185117,-0.0006796540820790878,0.0
1114,4.827586206896552,0.6896551724137931,1.4285714285714286,0,190914.41814229128,431578.52769245015,407373.533725464,229715.90909510676,32248.42586225494,1.2727627876152751e-06,0.0,0.0,0.0,1.2727627876152751e-06,0.0,24.012096625142114,1.1823271221216762,0.0011353932466740386,0.0
1115,4.827586206896552,0.6896551724137931,1.7857142857142858,0,192396.117578801,653881.8906382204,605965.7604810498,442056.05447458004,62002.423395621096,1.2826407838586733e-06,0.0,0.0,0.0,1.2826407838586733e-06,0.0,23.485909131923933,1.501995604405193,0.0024489406191247464,0.0
1116,4.827586206896552,0.6896551724137931,2.142857142857143,0,628133.2074482265,885936.1154382295,250509.02616840551,265360.16480720154,300884.71513691376,4.18755471632151e-06,0.0,0.0,0.0,4.18755471632151e-06,0.0,23.748328707158,1.8214813347043433,0.016128953865029553,0.0
1117,4.827586206896552,0.6896551724137931,2.5,0,607596.0538359529,932506.0650757124,806546.2869501958,271802.5230110421,568155.0877400477,4.050640358906352e-06,0.0,0.0,0.0,4.050640358906352e-06,0.0,23.508716278686677,2.1318620827475976,0.05681550877400478,0.0
1118,4.827586206896552,0.6896551724137931,2.857142857142857,0,463636.49994828255,947699.9931127982,738754.9042067137,416360.64689272334,414047.5329390979,3.090909999655217e-06,0.0,0.0,0.0,3.090909999655217e-06,0.0,23.389127851542177,2.4286241918472,0.022195057511197287,0.0
1119,4.827586206896552,0.6896551724137931,3.2142857142857144,0,271936.5457532149,649803.3449047729,462507.6389983165,337890.2317108413,32601.05074872441,1.8129103050214327e-06,0.0,0.0,0.0,1.8129103050214327e-06,0.0,23.297496625421868,2.716281318690908,0.0012876599499228117,0.0
1120,4.827586206896552,0.6896551724137931,3.5714285714285716,0,319692.0760569063,423847.3715952953,226952.05113049987,54979.30148621337,-45827.12249856367,2.131280507046042e-06,0.0,0.0,0.0,2.131280507046042e-06,0.0,23.079047327743993,3.003755693550248,-0.001613468068848394,0.0
1121,4.827586206896552,0.6896551724137931,3.928571428571429,0,143402.3487984135,286931.79747853306,223745.09118714972,122787.2702454849,-33361.9400676727,9.5601565865609e-07,0.0,0.0,0.0,9.5601565865609e-07,0.0,24.000529489228295,3.296673384389941,-0.001131079438954508,0.0
1122,4.827586206896552,0.6896551724137931,4.285714285714286,0,199521.8840774132,351957.27694133803,183544.2555603468,131600.94841109996,-7766.777314112225,1.3301458938494215e-06,0.0,0.0,0.0,1.3301458938494215e-06,0.0,23.70397902980081,3.5952011296206865,-0.0002602386339563398,0.0
1123,4.827586206896552,0.6896551724137931,4.642857142857143,0,284275.0099954842,411932.8646718681,204769.3361625949,87840.92911072852,16007.436460545716,1.895166733303228e-06,0.0,0.0,0.0,1.895166733303228e-06,0.0,23.26127679706573,3.8970048247045206,0.0005344247969261917,0.0
1124,4.827586206896552,0.6896551724137931,5.0,0,175799.23231584794,292718.88955523475,152232.57426499212,95577.87339796446,29243.08279486284,1.171994882105653e-06,0.0,0.0,0.0,1.171994882105653e-06,0.0,23.219832661572784,4.200109769642835,0.0009752380361287808,0.0
1125,5.172413793103448,0.6896551724137931,0.0,0,251409.38001589515,444857.5642466817,212165.3521277291,178187.05173779326,51663.53251471877,1.676062533439301e-06,0.0,0.0,0.0,1.676062533439301e-06,0.0,23.145716284662296,-0.04989023035716538,0.001722945639574662,0.0
1126,5.172413793103448,0.6896551724137931,0.35714285714285715,0,142798.75211320602,280482.9459321866,125197.55329947248,154816.1022390492,23167.596766919567,9.519916807547068e-07,0.0,0.0,0.0,9.519916807547068e-07,0.0,23.466147133190915,0.25414768184737757,0.0007734741429675985,0.0
1127,5.172413793103448,0.6896551724137931,0.7142857142857143,0,127674.55004363855,316471.56234071887,207517.70879606108,175985.4263104709,-27758.459767407843,8.511636669575904e-07,0.0,0.0,0.0,8.511636669575904e-07,0.0,24.3397936427812,0.5594868439064007,-0.0009300927989111461,0.0
1128,5.172413793103448,0.6896551724137931,1.0714285714285714,0,131828.25842037587,280377.789662091,145868.42022580374,151405.10215271395,-6375.8395526150725,8.788550561358392e-07,0.0,0.0,0.0,8.788550561358392e-07,0.0,23.441051527708705,0.8681019558185117,-0.0002161619201223777,0.0
1129,5.172413793103448,0.6896551724137931,1.4285714285714286,0,270098.7468342891,393272.1086410029,279094.7536018082,84835.10361822984,-76721.37036764265,1.800658312228594e-06,0.0,0.0,0.0,1.800658312228594e-06,0.0,24.065246006065532,1.1823271221216762,-0.002701183808570189,0.0
1130,5.172413793103448,0.6896551724137931,1.7857142857142858,0,77992.34965631893,351367.4321874447,304213.489269415,261343.59582589357,40004.83419657721,5.199489977087928e-07,0.0,0.0,0.0,5.199489977087928e-07,0.0,24.571434516007614,1.501995604405193,0.0015800908748393808,0.0
1131,5.172413793103448,0.6896551724137931,2.142857142857143,0,499779.755969953,711731.8446767516,605725.6537951893,167453.04242922014,252999.8171270226,3.331865039799687e-06,0.0,0.0,0.0,3.331865039799687e-06,0.0,23.88013498502637,1.8214813347043433,0.013562079338080785,0.0
1132,5.172413793103448,0.6896551724137931,2.5,0,493031.89281906676,734763.8817509131,861434.0958651917,317426.0854954839,324992.1779203308,3.286879285460445e-06,0.0,0.0,0.0,3.286879285460445e-06,0.0,23.418208849940346,2.1318620827475976,0.032499217792033075,0.0
1133,5.172413793103448,0.6896551724137931,2.857142857142857,0,662973.3544363219,820614.7588932527,813281.4212885757,154005.15490551628,469736.6995649736,4.419822362908812e-06,0.0,0.0,0.0,4.419822362908812e-06,0.0,23.76062075997385,2.4286241918472,0.02518028060198133,0.0
1134,5.172413793103448,0.6896551724137931,3.2142857142857144,0,520661.88055717055,646530.6669130342,104834.49131015847,149822.59180033483,36421.7108690287,3.4710792037144703e-06,0.0,0.0,0.0,3.4710792037144703e-06,0.0,23.788430127018536,2.716281318690908,0.0014385664669275004,0.0
1135,5.172413793103448,0.6896551724137931,3.5714285714285716,0,248888.45134107972,425100.8282658743,200714.67531803504,157396.97407892067,-74596.24210448093,1.6592563422738648e-06,0.0,0.0,0.0,1.6592563422738648e-06,0.0,24.678651413178436,3.003755693550248,-0.0026263629075867997,0.0
1136,5.172413793103448,0.6896551724137931,3.928571428571429,0,94327.90878076419,170289.05512165462,207126.67267198543,99938.51769632217,-8673.100195852796,6.288527252050946e-07,0.0,0.0,0.0,6.288527252050946e-07,0.0,22.953375934096165,3.296673384389941,-0.00029404660770993794,0.0
1137,5.172413793103448,0.6896551724137931,4.285714285714286,0,322783.94540174137,442852.65068316914,249052.0199861042,70234.25093468433,51910.15139609102,2.1518929693449426e-06,0.0,0.0,0.0,2.1518929693449426e-06,0.0,24.382114407327418,3.5952011296206865,0.001739334905770972,0.0
1138,5.172413793103448,0.6896551724137931,4.642857142857143,0,189031.32495618428,331943.05059950636,115947.97164710304,196697.8283603737,59774.81135222538,1.2602088330412285e-06,0.0,0.0,0.0,1.2602088330412285e-06,0.0,22.957519747212476,3.8970048247045206,0.001995643805736863,0.0
1139,5.172413793103448,0.6896551724137931,5.0,0,131507.82990129897,264704.47480376746,157807.8066592761,117853.05684210273,1829.162586052727,8.767188660086598e-07,0.0,0.0,0.0,8.767188660086598e-07,0.0,24.239608103607566,4.200109769642835,6.1001397858630604e-05,0.0
1140,5.517241379310345,0.6896551724137931,0.0,0,189513.5234304224,304760.0111827892,214535.63282870426,86991.95988117984,2847.717334915042,1.2634234895361494e-06,0.0,0.0,0.0,1.2634234895361494e-06,0.0,23.554979778754596,-0.04989076078145035,9.496954478548702e-05,0.0
1141,5.517241379310345,0.6896551724137931,0.35714285714285715,0,220295.0233609479,305947.02299232356,211890.58416813868,54236.27610320179,36220.369008461144,1.4686334890729861e-06,0.0,0.0,0.0,1.4686334890729861e-06,0.0,24.677304174327382,0.25414489730035744,0.0012092544236954395,0.0
1142,5.517241379310345,0.6896551724137931,0.7142857142857143,0,236997.20403406848,256935.53023876422,229924.569034716,7590.102424460248,-4458.185720199702,1.5799813602271233e-06,0.0,0.0,0.0,1.5799813602271233e-06,0.0,24.10595711423843,0.5594755173914288,-0.0001493788369135244,0.0
1143,5.517241379310345,0.6896551724137931,1.0714285714285714,0,183062.80968327008,317538.0540546578,240917.12050839403,108614.2328921129,14255.013036049017,1.2204187312218005e-06,0.0,0.0,0.0,1.2204187312218005e-06,0.0,24.06058641345188,0.8680662574274864,0.00048329180240711,0.0
1144,5.517241379310345,0.6896551724137931,1.4285714285714286,0,250359.06222270892,311836.1732606186,272511.1091157741,44141.75909531473,34264.13288895748,1.6690604148180596e-06,0.0,0.0,0.0,1.6690604148180596e-06,0.0,23.307677887736535,1.182239943184002,0.0012063616764252153,0.0
1145,5.517241379310345,0.6896551724137931,1.7857142857142858,0,165939.7275912285,467355.29873746535,375627.79774901934,275801.6640204107,-1147.586357513028,1.10626485060819e-06,0.0,0.0,0.0,1.10626485060819e-06,0.0,24.68595617802112,1.5018306419566607,-4.532679032454639e-05,0.0
1146,5.517241379310345,0.6896551724137931,2.142857142857143,0,303626.34620189713,649955.5857017696,535749.2985072767,305786.8553793793,399911.08817721036,2.024175641345981e-06,0.0,0.0,0.0,2.024175641345981e-06,0.0,25.195580879795102,1.8212394718314613,0.021437272040851038,0.0
1147,5.517241379310345,0.6896551724137931,2.5,0,106719.01862690746,632428.195513276,738343.3990815076,630838.3301104062,433485.5486864602,7.114601241793831e-07,0.0,0.0,0.0,7.114601241793831e-07,0.0,24.798506381623103,2.1315873161654686,0.04334855486864602,0.0
1148,5.517241379310345,0.6896551724137931,2.857142857142857,0,528030.7186129673,775331.845100693,189948.37645287023,334954.34377701546,236390.20131582365,3.520204790753115e-06,0.0,0.0,0.0,3.520204790753115e-06,0.0,23.29596499145239,2.428382328974318,0.01267171929764872,0.0
1149,5.517241379310345,0.6896551724137931,3.2142857142857144,0,413751.5946425422,567999.3251294438,512985.5702265774,129493.05942072613,58637.03605724662,2.7583439642836147e-06,0.0,0.0,0.0,2.7583439642836147e-06,0.0,23.707314226586295,2.716116356242375,0.002316016238097803,0.0
1150,5.517241379310345,0.6896551724137931,3.5714285714285716,0,348838.57043602667,391514.9338116592,91971.95466868422,8518.550717923123,37814.155331293616,2.325590469573511e-06,0.0,0.0,0.0,2.325590469573511e-06,0.0,23.21270923729484,3.0036685146125737,0.0013313498393757491,0.0
1151,5.517241379310345,0.6896551724137931,3.928571428571429,0,196927.28442820383,355536.2384080588,147887.75869976296,171450.32022364068,20886.92184238669,1.3128485628546922e-06,0.0,0.0,0.0,1.3128485628546922e-06,0.0,23.506960829169117,3.296637685998916,0.0007081353120067948,0.0
1152,5.517241379310345,0.6896551724137931,4.285714285714286,0,237913.72299789224,315708.3807305538,194087.71939283435,41569.077246116096,-1460.4451211283263,1.586091486652615e-06,0.0,0.0,0.0,1.586091486652615e-06,0.0,23.9582160091274,3.595189803105715,-4.8934613150303726e-05,0.0
1153,5.517241379310345,0.6896551724137931,4.642857142857143,0,161951.93809972878,264045.44299521635,246628.99466679397,94089.17775770738,8398.194634399595,1.0796795873315253e-06,0.0,0.0,0.0,1.0796795873315253e-06,0.0,24.18600971897709,3.8970020401575005,0.0002803824005859979,0.0
1154,5.517241379310345,0.6896551724137931,5.0,0,274635.65865974815,345094.41157627903,29827.1577553442,217119.91494011978,31712.9804167005,1.8309043910649876e-06,0.0,0.0,0.0,1.8309043910649876e-06,0.0,24.09246633162979,4.20010923921855,0.001057607536056581,0.0
1155,5.862068965517242,0.6896551724137931,0.0,0,53525.787930801394,203586.19310255695,194050.61233524114,145933.48522642656,234.5635172062039,3.568385862053426e-07,0.0,0.0,0.0,3.568385862053426e-07,0.0,22.883687124060216,-0.049891811683883444,7.822542700861329e-06,0.0
1156,5.862068965517242,0.6896551724137931,0.35714285714285715,0,101392.76470454717,229165.66364034082,239958.69802141044,133601.17082667424,-22698.218006148436,6.759517646969811e-07,0.0,0.0,0.0,6.759517646969811e-07,0.0,23.73064119553352,0.25413938042015144,-0.000757803448317343,0.0
1157,5.862068965517242,0.6896551724137931,0.7142857142857143,0,77352.61148547934,226334.47832457747,252060.1692637453,165122.57693060252,-16902.690829708983,5.156840765698623e-07,0.0,0.0,0.0,5.156840765698623e-07,0.0,24.01233970312944,0.5594530767481931,-0.0005663524256987932,0.0
1158,5.862068965517242,0.6896551724137931,1.0714285714285714,0,186420.5850556917,351297.3108524576,161934.45333383273,167965.3565628804,26453.64763679549,1.242803900371278e-06,0.0,0.0,0.0,1.242803900371278e-06,0.0,24.232616667335506,0.8679955300361334,0.0008968656159274183,0.0
1159,5.862068965517242,0.6896551724137931,1.4285714285714286,0,172834.612550903,399027.6889485194,214807.4593222681,240442.1384996705,-23015.14316474187,1.1522307503393533e-06,0.0,0.0,0.0,1.1522307503393533e-06,0.0,23.9771071922219,1.1820672200257434,-0.0008103105011109797,0.0
1160,5.862068965517242,0.6896551724137931,1.7857142857142858,0,344857.2630651192,527790.1158972566,277379.96111583896,134447.76456738685,-24742.168041167664,2.299048420434128e-06,0.0,0.0,0.0,2.299048420434128e-06,0.0,24.012087092838,1.5015038103174514,-0.000977253742722336,0.0
1161,5.862068965517242,0.6896551724137931,2.142857142857143,0,559063.4694476727,865284.9765205699,442811.75823029166,231331.85747611301,247063.76659095308,3.7270897963178183e-06,0.0,0.0,0.0,3.7270897963178183e-06,0.0,23.653427582387017,1.8207602813253114,0.013243876782682839,0.0
1162,5.862068965517242,0.6896551724137931,2.5,0,442437.37795259553,690942.1426190588,413851.51209026005,180689.3882786673,477426.0564917744,2.94958251968397e-06,0.0,0.0,0.0,2.94958251968397e-06,0.0,23.913162024800986,2.1310429352276485,0.04774260564917744,0.0
1163,5.862068965517242,0.6896551724137931,2.857142857142857,0,443178.8273265305,762205.6093273914,372046.6032126479,280351.91731434426,330051.0680837666,2.9545255155102033e-06,0.0,0.0,0.0,2.9545255155102033e-06,0.0,25.074265260615984,2.4279031384681686,0.017692418997769507,0.0
1164,5.862068965517242,0.6896551724137931,3.2142857142857144,0,256269.20414920992,468879.4667467963,378423.49968836195,179649.03750665594,-19448.81974587508,1.7084613609947329e-06,0.0,0.0,0.0,1.7084613609947329e-06,0.0,24.390161990265085,2.715789524603166,-0.0007681797268761705,0.0
1165,5.862068965517242,0.6896551724137931,3.5714285714285716,0,328106.8864885587,392588.06668223656,243844.29735282678,16453.697146606282,15851.9524790125,2.187379243257058e-06,0.0,0.0,0.0,2.187379243257058e-06,0.0,23.973802691789295,3.003495791454315,0.0005581109561175358,0.0
1166,5.862068965517242,0.6896551724137931,3.928571428571429,0,184161.72053386774,282235.65285096725,230628.40087530133,77775.77041619508,33444.236349401275,1.2277448035591183e-06,0.0,0.0,0.0,1.2277448035591183e-06,0.0,24.160528437088033,3.2965669586075625,0.0011338695534375623,0.0
1167,5.862068965517242,0.6896551724137931,4.285714285714286,0,59751.12610708626,258820.19978086476,208288.20166002578,192871.4654940428,-22915.13478187444,3.983408407139084e-07,0.0,0.0,0.0,3.983408407139084e-07,0.0,23.838832707019446,3.595167362462479,-0.0007678092381668925,0.0
1168,5.862068965517242,0.6896551724137931,4.642857142857143,0,160554.00073822413,309754.6199174194,235036.0597075563,125458.48356745492,2282.109444908073,1.0703600049214943e-06,0.0,0.0,0.0,1.0703600049214943e-06,0.0,23.841131814760125,3.8969965232772945,7.619058052576913e-05,0.0
1169,5.862068965517242,0.6896551724137931,5.0,0,153063.37314617337,328431.7560511113,244707.81403131885,151769.479595031,-60100.59744204557,1.0204224876411558e-06,0.0,0.0,0.0,1.0204224876411558e-06,0.0,24.285588932131276,4.200108188316117,-0.0020043163380108284,0.0
1170,6.206896551724139,0.6896551724137931,0.0,0,133837.28825614593,230513.93153765588,93569.04761427507,100017.35070110875,23233.19948518683,8.922485883743062e-07,0.0,0.0,0.0,8.922485883743062e-07,0.0,23.421633488448922,-0.04989336407656204,0.0007748122863059479,0.0
1171,6.206896551724139,0.6896551724137931,0.35714285714285715,0,222549.75488179634,262882.49651637377,140821.28775979712,6009.635753999134,21173.507282302984,1.4836650325453089e-06,0.0,0.0,0.0,1.4836650325453089e-06,0.0,23.66111204411693,0.25413123088678774,0.0007068994062509775,0.0
1172,6.206896551724139,0.6896551724137931,0.7142857142857143,0,97665.32233777149,210465.85410819034,174533.39831362604,99924.47213180568,-529.6452445817298,6.511021489184766e-07,0.0,0.0,0.0,6.511021489184766e-07,0.0,23.045526453741186,0.5594199274384525,-1.774663407446694e-05,0.0
1173,6.206896551724139,0.6896551724137931,1.0714285714285714,0,46557.44998505236,137637.39405475883,191295.4740408491,167330.69455715112,-36332.10122150881,3.1038299990034904e-07,0.0,0.0,0.0,3.1038299990034904e-07,0.0,24.123442990311247,0.8678910515602497,-0.001231777665876291,0.0
1174,6.206896551724139,0.6896551724137931,1.4285714285714286,0,243104.07074923094,332465.7967434355,180916.33408787352,52059.29981838734,25334.949779537255,1.620693804994873e-06,0.0,0.0,0.0,1.620693804994873e-06,0.0,24.274849037090213,1.18181207344138,0.0008919855811684928,0.0
1175,6.206896551724139,0.6896551724137931,1.7857142857142858,0,227983.03289738248,513656.4328127754,404047.52734831057,251570.3379333174,37014.711760153405,1.5198868859825498e-06,0.0,0.0,0.0,1.5198868859825498e-06,0.0,24.046322607734215,1.5010210147430372,0.0014619885186783848,0.0
1176,6.206896551724139,0.6896551724137931,2.142857142857143,0,688773.1891808182,713972.1315146141,743534.9187019389,40456.32378852477,67246.30081703814,4.591821261205454e-06,0.0,0.0,0.0,4.591821261205454e-06,0.0,23.632374197182713,1.8200524212900042,0.0036047443718713597,0.0
1177,6.206896551724139,0.6896551724137931,2.5,0,232477.597175214,486993.986426769,588485.5024970119,322517.91166446306,522701.9538995804,1.54985064783476e-06,0.0,0.0,0.0,1.54985064783476e-06,0.0,23.732171912689214,2.130238775911217,0.052270195389958043,0.0
1178,6.206896551724139,0.6896551724137931,2.857142857142857,0,247310.14415693562,630809.9198605167,486333.5452933949,345247.471657388,334812.72128736746,1.6487342943795708e-06,0.0,0.0,0.0,1.6487342943795708e-06,0.0,23.83243960311078,2.427195278432861,0.017947667872100663,0.0
1179,6.206896551724139,0.6896551724137931,3.2142857142857144,0,212200.7754636673,254740.1812199454,398317.6828221521,154574.59249269316,109558.97340199226,1.4146718364244485e-06,0.0,0.0,0.0,1.4146718364244485e-06,0.0,24.31117050378358,2.7153067290287516,0.004327305377110394,0.0
1180,6.206896551724139,0.6896551724137931,3.5714285714285716,0,263903.6396423949,407215.49706522754,104471.9940735396,285925.46034338546,-36801.447839492794,1.759357597615966e-06,0.0,0.0,0.0,1.759357597615966e-06,0.0,24.286679783226933,3.0032406448699516,-0.001295694727031408,0.0
1181,6.206896551724139,0.6896551724137931,3.928571428571429,0,123195.61066723597,215315.10222924085,194109.15828109256,82893.04536439854,-52547.3262248773,8.213040711149065e-07,0.0,0.0,0.0,8.213040711149065e-07,0.0,23.055835523379763,3.296462480131679,-0.0017815270977776766,0.0
1182,6.206896551724139,0.6896551724137931,4.285714285714286,0,226130.99152558215,334017.2609585248,239165.26759285148,75907.73420211644,-10952.857260370056,1.507539943503881e-06,0.0,0.0,0.0,1.507539943503881e-06,0.0,23.338810937803952,3.5951342131527384,-0.00036699347696996366,0.0
1183,6.206896551724139,0.6896551724137931,4.642857142857143,0,184250.17196871882,316478.8427363106,152060.40007991737,117337.77092956731,13782.136813574614,1.2283344797914587e-06,0.0,0.0,0.0,1.2283344797914587e-06,0.0,23.99988640308568,3.896988373743931,0.0004601308701713569,0.0
1184,6.206896551724139,0.6896551724137931,5.0,0,133249.31935357602,218154.74162348156,120983.66153647182,66255.51901936789,-25085.839703391317,8.883287956905069e-07,0.0,0.0,0.0,8.883287956905069e-07,0.0,23.118150363685174,4.200106635923438,-0.0008365966481233804,0.0
1185,6.551724137931035,0.6896551724137931,0.0,0,157192.27836331417,198035.43139568839,169715.9085963469,28608.42989572207,-40737.47925239353,1.0479485224220945e-06,0.0,0.0,0.0,1.0479485224220945e-06,0.0,24.1504188296978,-0.04989539155445671,-0.0013585687781836875,0.0
1186,6.551724137931035,0.6896551724137931,0.35714285714285715,0,197951.35027087378,274040.2593114722,176158.02600958044,46216.39229890622,18555.874138775114,1.3196756684724918e-06,0.0,0.0,0.0,1.3196756684724918e-06,0.0,23.55815488590059,0.2541205873176866,0.0006195070205554194,0.0
1187,6.551724137931035,0.6896551724137931,0.7142857142857143,0,76458.28213852287,213528.814025526,133149.7955859079,141712.11786810556,-8865.199681070239,5.097218809234859e-07,0.0,0.0,0.0,5.097218809234859e-07,0.0,24.05416228165028,0.5593766333069808,-0.00029704307996058534,0.0
1188,6.551724137931035,0.6896551724137931,1.0714285714285714,0,194765.89365830747,270111.2491533115,296245.10777521,89731.7533030107,16648.70303529634,1.298439291055383e-06,0.0,0.0,0.0,1.298439291055383e-06,0.0,23.722409955589395,0.8677545990999644,0.0005644457621554871,0.0
1189,6.551724137931035,0.6896551724137931,1.4285714285714286,0,79802.1214533804,277890.1465224657,185866.38483443158,227743.16567385307,4352.334308138626,5.320141430225361e-07,0.0,0.0,0.0,5.320141430225361e-07,0.0,23.660665158924704,1.181478843282007,0.00015323572697271441,0.0
1190,6.551724137931035,0.6896551724137931,1.7857142857142858,0,126748.92401977172,283658.277100568,206769.71145657607,137365.020731871,39094.68371686428,8.449928267984781e-07,0.0,0.0,0.0,8.449928267984781e-07,0.0,23.171248104849358,1.5003904672222537,0.0015441422077193422,0.0
1191,6.551724137931035,0.6896551724137931,2.142857142857143,0,87258.42671108505,361603.41613418754,444753.1843562012,353897.26874662633,242032.83131915104,5.81722844740567e-07,0.0,0.0,0.0,5.81722844740567e-07,0.0,23.445785212106873,1.8191279318912221,0.012974193017391132,0.0
1192,6.551724137931035,0.6896551724137931,2.5,0,370694.7460665406,802950.6574499429,677158.6781833898,385728.7186886222,415675.7075415232,2.471298307110271e-06,0.0,0.0,0.0,2.471298307110271e-06,0.0,23.66659671443718,2.129188516360047,0.04156757075415232,0.0
1193,6.551724137931035,0.6896551724137931,2.857142857142857,0,334433.5548667772,579504.3683639964,459250.5221747739,201572.3761179416,216285.03040950277,2.2295570324451812e-06,0.0,0.0,0.0,2.2295570324451812e-06,0.0,23.65474465571352,2.426270789034079,0.01159397969280031,0.0
1194,6.551724137931035,0.6896551724137931,3.2142857142857144,0,275013.05315990985,391881.0067025092,351227.8173809215,98804.21853706767,-2111.194942395341,1.833420354399399e-06,0.0,0.0,0.0,1.833420354399399e-06,0.0,24.095832832639175,2.714676181507968,-8.338691886820382e-05,0.0
1195,6.551724137931035,0.6896551724137931,3.5714285714285716,0,289984.84692580573,350401.59937143757,161701.00228784204,16499.06238924476,18733.930970863716,1.933232312838705e-06,0.0,0.0,0.0,1.933232312838705e-06,0.0,23.417083564361537,3.0029074147105783,0.0006595788209579595,0.0
1196,6.551724137931035,0.6896551724137931,3.928571428571429,0,169232.9486874724,326804.7474635299,264034.2599984292,135155.06491499674,33190.19936770872,1.1282196579164828e-06,0.0,0.0,0.0,1.1282196579164828e-06,0.0,23.728379415843108,3.2963260276713937,0.0011252568646627588,0.0
1197,6.551724137931035,0.6896551724137931,4.285714285714286,0,68236.22847039347,242908.23635875358,208700.6654190454,164334.42206454184,-12854.339566789933,4.5490818980262315e-07,0.0,0.0,0.0,4.5490818980262315e-07,0.0,24.500153540497784,3.5950909190212665,-0.00043070576559393865,0.0
1198,6.551724137931035,0.6896551724137931,4.642857142857143,0,214842.82241024292,238649.56759142346,232928.42678242433,21003.313883585743,47789.850083995196,1.4322854827349528e-06,0.0,0.0,0.0,1.4322854827349528e-06,0.0,24.16343137270663,3.89697773017483,0.0015955134970688232,0.0
1199,6.551724137931035,0.6896551724137931,5.0,0,172340.8122836365,281655.7094898991,197930.22721008933,83447.55494958909,9642.052776802555,1.1489387485575767e-06,0.0,0.0,0.0,1.1489387485575767e-06,0.0,23.80981553074173,4.200104608445543,0.00032155626957192313,0.0
1200,6.8965517241379315,0.6896551724137931,0.0,0,135793.37777361536,182153.79827241975,216244.88658716693,66654.29453925577,6454.38500752037,9.052891851574357e-07,0.0,0.0,0.0,9.052891851574357e-07,0.0,22.925503910281503,-0.04989786233623639,0.00021524959606033682,0.0
1201,6.8965517241379315,0.6896551724137931,0.35714285714285715,0,131766.88819698401,261210.1760607678,131373.7882456597,127594.11374043018,16378.780430479399,8.784459213132268e-07,0.0,0.0,0.0,8.784459213132268e-07,0.0,22.972420992070276,0.2541076165540226,0.0005468224988449666,0.0
1202,6.8965517241379315,0.6896551724137931,0.7142857142857143,0,171295.4230738591,278536.525042865,150940.07551102753,83851.01473627845,24463.944297640126,1.1419694871590607e-06,0.0,0.0,0.0,1.1419694871590607e-06,0.0,23.98269380113869,0.5593238730024228,0.0008197046455334824,0.0
1203,6.8965517241379315,0.6896551724137931,1.0714285714285714,0,107012.5067573356,293598.4145613676,250503.75897600682,171757.44490903016,-11582.321582217284,7.134167117155708e-07,0.0,0.0,0.0,7.134167117155708e-07,0.0,24.038638614872237,0.8675883115889873,-0.0003926787761872176,0.0
1204,6.8965517241379315,0.6896551724137931,1.4285714285714286,0,179917.96797996227,183998.94959555857,303921.6599604572,97044.06042058086,20438.372254836784,1.1994531198664152e-06,0.0,0.0,0.0,1.1994531198664152e-06,0.0,22.70095229082129,1.1810727530314624,0.0007195882965038809,0.0
1205,6.8965517241379315,0.6896551724137931,1.7857142857142858,0,259261.21423882653,364711.68496943294,202456.8522189677,65704.9346833642,90346.70776500928,1.7284080949255103e-06,0.0,0.0,0.0,1.7284080949255103e-06,0.0,24.02810014031154,1.499622051778775,0.0035684689457726963,0.0
1206,6.8965517241379315,0.6896551724137931,2.142857142857143,0,309277.73737015727,525452.1751370457,478028.3394854293,195201.5914110442,216226.3489123782,2.061851582467715e-06,0.0,0.0,0.0,2.061851582467715e-06,0.0,23.4018835760881,1.8180013047807486,0.011590834065547617,0.0
1207,6.8965517241379315,0.6896551724137931,2.5,0,451542.29552180244,764979.7637224072,460356.4563967031,246206.7544972517,433103.5556758242,3.01028197014535e-06,0.0,0.0,0.0,3.01028197014535e-06,0.0,23.484993390267736,2.127908619711215,0.04331035556758241,0.0
1208,6.8965517241379315,0.6896551724137931,2.857142857142857,0,360318.4135110664,698702.8375313939,357331.3876175706,322035.2954086645,191502.2203031916,2.4021227567404425e-06,0.0,0.0,0.0,2.4021227567404425e-06,0.0,24.136862191531257,2.4251441619236056,0.010265494792300817,0.0
1209,6.8965517241379315,0.6896551724137931,3.2142857142857144,0,363693.6002030137,559005.613889058,325664.29849619867,139949.59324217535,24106.15342057771,2.4246240013534247e-06,0.0,0.0,0.0,2.4246240013534247e-06,0.0,24.06332749250398,2.7139077660644895,0.0009521327562605397,0.0
1210,6.8965517241379315,0.6896551724137931,3.5714285714285716,0,128311.23047276278,270602.25277312053,278767.01478354784,146568.3804713503,-6727.195067459707,8.554082031517519e-07,0.0,0.0,0.0,8.554082031517519e-07,0.0,23.65252310836818,3.002501324460034,-0.00023684913742076758,0.0
1211,6.8965517241379315,0.6896551724137931,3.928571428571429,0,157905.82667753898,232720.42288267816,204252.60851550856,62517.16692317438,-23202.32292647318,1.0527055111835932e-06,0.0,0.0,0.0,1.0527055111835932e-06,0.0,24.050723015423518,3.2961597401604164,-0.000786635020172175,0.0
1212,6.8965517241379315,0.6896551724137931,4.285714285714286,0,196702.3903255215,308527.27937595634,159564.1471452802,85555.58130972603,-1575.524605893719,1.31134926883681e-06,0.0,0.0,0.0,1.31134926883681e-06,0.0,23.529593353760696,3.595038158716709,-5.279054035158057e-05,0.0
1213,6.8965517241379315,0.6896551724137931,4.642857142857143,0,180804.71559258175,264882.1085905808,200783.43189984563,60760.503695990286,8272.420011570272,1.2053647706172118e-06,0.0,0.0,0.0,1.2053647706172118e-06,0.0,23.321175901995055,3.8969647594111656,0.00027618328491687107,0.0
1214,6.8965517241379315,0.6896551724137931,5.0,0,223285.52603535246,313383.5678323737,157001.68843869967,57668.10311191958,10698.790432646168,1.4885701735690163e-06,0.0,0.0,0.0,1.4885701735690163e-06,0.0,24.350793459064704,4.200102137663764,0.00035679779193184677,0.0
1215,7.241379310344828,0.6896551724137931,0.0,0,88617.08493206145,262880.7906107509,194455.01824832126,162778.42879563905,-20092.881492130186,5.90780566213743e-07,0.0,0.0,0.0,5.90780566213743e-07,0.0,24.274805878052007,-0.04990074139236876,-0.0006700846974312743,0.0
1216,7.241379310344828,0.6896551724137931,0.35714285714285715,0,159931.19736061842,191051.64689249374,243431.2320223066,63878.23596509373,-15071.828154071743,1.0662079824041228e-06,0.0,0.0,0.0,1.0662079824041228e-06,0.0,23.29487582357849,0.2540925024889215,-0.0005031885474228928,0.0
1217,7.241379310344828,0.6896551724137931,0.7142857142857143,0,106657.16215072405,182883.09565582016,70963.3364096874,82412.25271177405,21222.980934047773,7.110477476714937e-07,0.0,0.0,0.0,7.110477476714937e-07,0.0,23.35450669261613,0.5592623945345012,0.0007111108434540385,0.0
1218,7.241379310344828,0.6896551724137931,1.0714285714285714,0,56901.89936228115,177195.5036196201,220808.02955225093,156442.55092860843,-15474.61805466541,3.7934599574854096e-07,0.0,0.0,0.0,3.7934599574854096e-07,0.0,24.071786864337223,0.8673945465700962,-0.0005246404217441317,0.0
1219,7.241379310344828,0.6896551724137931,1.4285714285714286,0,201618.296123278,338098.59527542273,117094.0845788918,164211.07333866658,28360.467669222995,1.3441219741551867e-06,0.0,0.0,0.0,1.3441219741551867e-06,0.0,23.284124588924218,1.1805995600381587,0.0009985071395947395,0.0
1220,7.241379310344828,0.6896551724137931,1.7857142857142858,0,189379.2976279718,529359.9635876133,404451.5188558646,311461.44671053573,13724.682735316808,1.2625286508531453e-06,0.0,0.0,0.0,1.2625286508531453e-06,0.0,24.036001526859675,1.4987266626299025,0.0005420906344362537,0.0
1221,7.241379310344828,0.6896551724137931,2.142857142857143,0,530938.531894089,868039.1513092803,362832.8899139127,314652.54411224305,262882.33349618595,3.5395902126272597e-06,0.0,0.0,0.0,3.5395902126272597e-06,0.0,23.128105977645124,1.8166885127252215,0.014091832571029507,0.0
1222,7.241379310344828,0.6896551724137931,2.5,0,607574.845485804,871303.2888152348,340332.8062302686,208703.51387444173,486295.055656994,4.05049896990536e-06,0.0,0.0,0.0,4.05049896990536e-06,0.0,23.501744676412496,2.126417231711706,0.0486295055656994,0.0
1223,7.241379310344828,0.6896551724137931,2.857142857142857,0,258552.9334235922,781034.0668330833,531678.4051162679,514173.48435102985,71092.3033414623,1.723686222823948e-06,0.0,0.0,0.0,1.723686222823948e-06,0.0,24.139093057601805,2.4238313698680787,0.003810909704174789,0.0
1224,7.241379310344828,0.6896551724137931,3.2142857142857144,0,139646.7027866612,378076.39762145065,330533.234333571,220865.9261529076,82194.88578700183,9.309780185777412e-07,0.0,0.0,0.0,9.309780185777412e-07,0.0,23.170003414360558,2.713012376915617,0.003246492370205067,0.0
1225,7.241379310344828,0.6896551724137931,3.5714285714285716,0,105354.65607456044,229512.27772311066,149331.27068256697,110188.83825406732,42688.01927446848,7.023643738304029e-07,0.0,0.0,0.0,7.023643738304029e-07,0.0,23.365306995838814,3.0020281314667305,0.0015029474308341838,0.0
1226,7.241379310344828,0.6896551724137931,3.928571428571429,0,190195.53365599536,300597.77745754656,115458.8238143807,105719.86058518324,-7771.89993063207,1.2679702243733024e-06,0.0,0.0,0.0,1.2679702243733024e-06,0.0,23.852130147376922,3.2959659751415256,-0.000263492956204544,0.0
1227,7.241379310344828,0.6896551724137931,4.285714285714286,0,141958.94448014768,270203.6839864507,165209.93877005432,108690.40427825,8625.232663404831,9.463929632009846e-07,0.0,0.0,0.0,9.463929632009846e-07,0.0,22.7696447981578,3.594976680248787,0.00028900259079162803,0.0
1228,7.241379310344828,0.6896551724137931,4.642857142857143,0,154729.10866416717,253920.1850051727,114142.93013099188,87658.13626902094,-20858.74768471628,1.031527391094448e-06,0.0,0.0,0.0,1.031527391094448e-06,0.0,23.709903262522857,3.896949645346065,-0.0006963908320370206,0.0
1229,7.241379310344828,0.6896551724137931,5.0,0,206969.86701579238,267783.94981489424,121209.09081327327,31023.636067105414,9033.55703152889,1.3797991134386159e-06,0.0,0.0,0.0,1.3797991134386159e-06,0.0,24.258827975499837,4.200099258607631,0.0003012633271425546,0.0
1230,7.586206896551724,0.6896551724137931,0.0,0,85827.27902792773,268427.33840558224,182321.5570178721,182881.2996282224,62050.53777087449,5.721818601861849e-07,0.0,0.0,0.0,5.721818601861849e-07,0.0,23.996204697165922,-0.0499039923898561,0.0020693455960475184,0.0
1231,7.586206896551724,0.6896551724137931,0.35714285714285715,0,204586.09545630106,316930.93030054617,127811.43664254584,99770.88456097679,-55397.30961000158,1.363907303042007e-06,0.0,0.0,0.0,1.363907303042007e-06,0.0,23.543725031735537,0.2540754358582593,-0.0018494963894782918,0.0
1232,7.586206896551724,0.6896551724137931,0.7142857142857143,0,180852.0764781716,318507.83638971223,198671.3896187447,110478.52940327635,-12663.736283292874,1.2056805098544774e-06,0.0,0.0,0.0,1.2056805098544774e-06,0.0,23.583588489608346,0.5591929737467328,-0.00042431928943802513,0.0
1233,7.586206896551724,0.6896551724137931,1.0714285714285714,0,66839.10483129177,289009.4331993894,260126.4885911434,212585.72499080616,20933.673255607162,4.455940322086118e-07,0.0,0.0,0.0,4.455940322086118e-07,0.0,24.323914767225126,0.8671757493113467,0.0007097203386008263,0.0
1234,7.586206896551724,0.6896551724137931,1.4285714285714286,0,238014.07511043898,354128.77542632027,203024.80133239433,79764.33476931731,42019.62364520691,1.58676050073626e-06,0.0,0.0,0.0,1.58676050073626e-06,0.0,24.268034523321468,1.1800652358841561,0.0014794147509194636,0.0
1235,7.586206896551724,0.6896551724137931,1.7857142857142858,0,218418.45323482665,478495.7845261323,315014.9211835335,230436.00279578817,-14277.272969671278,1.456123021565511e-06,0.0,0.0,0.0,1.456123021565511e-06,0.0,23.54018424838894,1.4977155993718982,-0.0005639165663358429,0.0
1236,7.586206896551724,0.6896551724137931,2.142857142857143,0,503187.5490434884,583553.4660504505,709456.90504776,155273.1094904656,201430.50835500326,3.3545836602899225e-06,0.0,0.0,0.0,3.3545836602899225e-06,0.0,23.27739713047239,1.8152061228454521,0.010797701620665387,0.0
1237,7.586206896551724,0.6896551724137931,2.5,0,520372.4304174579,870836.3566691305,349812.97559021413,351117.32901246654,392540.00584746164,3.469149536116386e-06,0.0,0.0,0.0,3.469149536116386e-06,0.0,24.02559600005031,2.1247331733202994,0.039254000584746165,0.0
1238,7.586206896551724,0.6896551724137931,2.857142857142857,0,277970.7537763445,463556.6379908561,603148.0351947065,283045.6820168456,200478.77114269725,1.8531383585089636e-06,0.0,0.0,0.0,1.8531383585089636e-06,0.0,24.1669648979558,2.422348979988309,0.010746683656585923,0.0
1239,7.586206896551724,0.6896551724137931,3.2142857142857144,0,245579.6763483394,525340.7193355304,396646.9497718311,242160.99265839026,40663.5459695953,1.6371978423222626e-06,0.0,0.0,0.0,1.6371978423222626e-06,0.0,24.29578570329695,2.7120013136576127,0.0016061083420429868,0.0
1240,7.586206896551724,0.6896551724137931,3.5714285714285716,0,60147.56069163655,230529.3149002092,263777.1236482292,194345.39345980587,-39466.491191427194,4.009837379442437e-07,0.0,0.0,0.0,4.009837379442437e-07,0.0,23.902956925226377,3.0014938073127277,-0.0013895248022358377,0.0
1241,7.586206896551724,0.6896551724137931,3.928571428571429,0,189928.90779148697,275538.6537396838,249784.50392759862,74046.80517987974,-6466.912334131869,1.2661927186099132e-06,0.0,0.0,0.0,1.2661927186099132e-06,0.0,23.437829705798187,3.295747177882776,-0.00021924958679922843,0.0
1242,7.586206896551724,0.6896551724137931,4.285714285714286,0,32346.507659973453,210223.0426747712,191286.0222620515,172873.7415683508,-23679.66417941657,2.1564338439982301e-07,0.0,0.0,0.0,2.1564338439982301e-07,0.0,22.785661435917685,3.5949072594610185,-0.0007934260516777315,0.0
1243,7.586206896551724,0.6896551724137931,4.642857142857143,0,121170.03236321422,280091.0300189109,147125.5272601233,175894.77906735436,-1736.3520102654925,8.078002157547615e-07,0.0,0.0,0.0,8.078002157547615e-07,0.0,24.594492703890772,3.8969325787154023,-5.79699049729594e-05,0.0
1244,7.586206896551724,0.6896551724137931,5.0,0,153665.4224847376,250419.64784433768,231686.28704295694,88246.36430678393,-17778.467629318053,1.0244361498982505e-06,0.0,0.0,0.0,1.0244361498982505e-06,0.0,24.431509722618845,4.200096007610144,-0.0005929004810409751,0.0
1245,7.931034482758621,0.6896551724137931,0.0,0,119520.7282121787,177909.52399270976,242046.30930786836,104147.58522565714,-4415.724764652627,7.96804854747858e-07,0.0,0.0,0.0,7.96804854747858e-07,0.0,23.127222387266748,-0.04990757928494666,-0.0001472615858517337,0.0
1246,7.931034482758621,0.6896551724137931,0.35714285714285715,0,186958.48099544964,283264.5711604138,240655.70058536626,78679.37657894492,-27080.048494347844,1.2463898733029977e-06,0.0,0.0,0.0,1.2463898733029977e-06,0.0,23.610797194092616,0.2540566058794688,-0.0009040953842305549,0.0
1247,7.931034482758621,0.6896551724137931,0.7142857142857143,0,126424.03554930899,231818.29685989613,185813.1422962334,88833.71642862126,24975.332796640567,8.428269036620599e-07,0.0,0.0,0.0,8.428269036620599e-07,0.0,23.409797667802902,0.5591163803061661,0.0008368395573532209,0.0
1248,7.931034482758621,0.6896551724137931,1.0714285714285714,0,239706.31744667632,317635.73764189595,150350.96913849772,43019.60311566273,-8619.525337520316,1.5980421163111754e-06,0.0,0.0,0.0,1.5980421163111754e-06,0.0,23.558033312468584,0.8669343456140839,-0.00029223024389590763,0.0
1249,7.931034482758621,0.6896551724137931,1.4285714285714286,0,121512.80778559399,313904.82999862864,231685.8595012795,174330.1573804795,4378.677209006452,8.100853852372933e-07,0.0,0.0,0.0,8.100853852372933e-07,0.0,23.329469925643835,1.179475704611917,0.00015416320020414866,0.0
1250,7.931034482758621,0.6896551724137931,1.7857142857142858,0,452890.3718493872,485095.8667837835,399395.6035425158,-4521.863901687726,40798.26504161849,3.019269145662581e-06,0.0,0.0,0.0,3.019269145662581e-06,0.0,23.880153800343795,1.4966000716452545,0.0016114294083752374,0.0
1251,7.931034482758621,0.6896551724137931,2.142857142857143,0,400900.2347931219,538486.898164066,602682.9238181603,173558.27337740795,251687.30112506714,2.672668231954146e-06,0.0,0.0,0.0,2.672668231954146e-06,0.0,22.97209594342066,1.8135705703718683,0.013491721792557013,0.0
1252,7.931034482758621,0.6896551724137931,2.5,0,333944.87740832486,691310.7650948967,481230.5204225522,306236.8961386661,452355.41110282496,2.226299182722166e-06,0.0,0.0,0.0,2.226299182722166e-06,0.0,23.346932144689283,2.122875115662652,0.045235541110282496,0.0
1253,7.931034482758621,0.6896551724137931,2.857142857142857,0,143913.42702711312,604948.7467008263,508240.78217087284,439561.6423035098,304831.31256802165,9.594228468474208e-07,0.0,0.0,0.0,9.594228468474208e-07,0.0,23.985354785160382,2.4207134275147255,0.016340511596904427,0.0
1254,7.931034482758621,0.6896551724137931,3.2142857142857144,0,367171.9266694374,526569.1359102847,197010.12962278954,130795.32598551326,34493.52364325893,2.447812844462916e-06,0.0,0.0,0.0,2.447812844462916e-06,0.0,22.566570065520715,2.710885785930969,0.0013624078950546705,0.0
1255,7.931034482758621,0.6896551724137931,3.5714285714285716,0,231024.11624004444,419101.064404932,281494.8650130085,152382.4708708773,-18643.945216929587,1.5401607749336297e-06,0.0,0.0,0.0,1.5401607749336297e-06,0.0,23.712331995491592,3.000904276040489,-0.0006564106285708307,0.0
1256,7.931034482758621,0.6896551724137931,3.928571428571429,0,108021.655294555,226559.10967171672,146726.18588974277,103644.41754121309,1299.5765136226516,7.201443686303667e-07,0.0,0.0,0.0,7.201443686303667e-07,0.0,23.288906884661102,3.295505774185513,4.405991590792115e-05,0.0
1257,7.931034482758621,0.6896551724137931,4.285714285714286,0,142670.77256642564,318566.11247271416,224645.5906672111,154391.72685567202,-16061.453972951469,9.511384837761709e-07,0.0,0.0,0.0,9.511384837761709e-07,0.0,24.375214184303314,3.594830666020452,-0.0005381654027441736,0.0
1258,7.931034482758621,0.6896551724137931,4.642857142857143,0,24439.077159916804,147901.5933526148,122838.15303177304,124138.82418103426,-1957.3114160683465,1.6292718106611202e-07,0.0,0.0,0.0,1.6292718106611202e-07,0.0,23.736819800574693,3.896913748736612,-6.53468629178605e-05,0.0
1259,7.931034482758621,0.6896551724137931,5.0,0,77249.57871275184,198837.42361469113,236747.21606497306,147866.40805757465,-27481.975957733743,5.149971914183456e-07,0.0,0.0,0.0,5.149971914183456e-07,0.0,23.183487141866834,4.200092420715054,-0.0009165062538025869,0.0
1260,8.275862068965518,0.6896551724137931,0.0,0,137506.4597720133,223221.93641697656,211103.85623116317,80057.49680060122,28993.02536542739,9.16709731813422e-07,0.0,0.0,0.0,9.16709731813422e-07,0.0,24.17918837183966,-0.04991146749922844,0.0009668987814027066,0.0
1261,8.275862068965518,0.6896551724137931,0.35714285714285715,0,129262.86182862482,201513.63536139988,150197.34040696605,54472.351278481765,-21561.08381624875,8.617524121908322e-07,0.0,0.0,0.0,8.617524121908322e-07,0.0,23.468794283378536,0.25403619407744765,-0.0007198390490824731,0.0
1262,8.275862068965518,0.6896551724137931,0.7142857142857143,0,87889.11084950839,189349.70670291476,232299.9076202187,131194.68731493087,33241.481280469394,5.859274056633893e-07,0.0,0.0,0.0,5.859274056633893e-07,0.0,23.52826895208385,0.5590333525894406,0.0011138104427683604,0.0
1263,8.275862068965518,0.6896551724137931,1.0714285714285714,0,195460.57476647562,309085.4354377878,166142.06617300786,86351.62343881087,-1562.1781246316157,1.3030704984431708e-06,0.0,0.0,0.0,1.3030704984431708e-06,0.0,23.91101948007785,0.8666726626599758,-5.296297377104527e-05,0.0
1264,8.275862068965518,0.6896551724137931,1.4285714285714286,0,167910.93351112932,317579.65172905114,281987.3169026115,134726.00684576682,32576.36333030413,1.1194062234075288e-06,0.0,0.0,0.0,1.1194062234075288e-06,0.0,23.169222369104492,1.178836649425075,0.0011469391741603858,0.0
1265,8.275862068965518,0.6896551724137931,1.7857142857142858,0,258925.81156183846,511340.00059301045,306637.2058194703,220268.83674844957,13595.502546966956,1.726172077078923e-06,0.0,0.0,0.0,1.726172077078923e-06,0.0,24.200488122706016,1.4953908333684272,0.000536988340153052,0.0
1266,8.275862068965518,0.6896551724137931,2.142857142857143,0,482091.74607602914,801408.822770856,250536.04637994722,456568.9778303414,127085.63450258854,3.2139449738401942e-06,0.0,0.0,0.0,3.2139449738401942e-06,0.0,23.77011237021616,1.8117976223692516,0.0068124375638940055,0.0
1267,8.275862068965518,0.6896551724137931,2.5,0,434800.1153887712,872552.3570110518,417182.57256260817,461755.72321731126,341456.1065643729,2.8986674359251417e-06,0.0,0.0,0.0,2.8986674359251417e-06,0.0,23.16568262422764,2.120860970799629,0.03414561065643729,0.0
1268,8.275862068965518,0.6896551724137931,2.857142857142857,0,532456.5378100309,796802.2300807065,432300.2447064427,185757.94027909104,441830.5791036516,3.5497102520668724e-06,0.0,0.0,0.0,3.5497102520668724e-06,0.0,23.27482886290347,2.4189404795121083,0.02368437035187836,0.0
1269,8.275862068965518,0.6896551724137931,3.2142857142857144,0,384470.39700853516,468666.1772691644,462746.26920639054,81270.00981310951,21645.32425106161,2.5631359800569013e-06,0.0,0.0,0.0,2.5631359800569013e-06,0.0,22.86759101290208,2.709676547654142,0.000854936160064582,0.0
1270,8.275862068965518,0.6896551724137931,3.5714285714285716,0,42962.40200152781,253019.31479631158,292046.266665626,246010.33314153075,40539.353561722855,2.864160133435187e-07,0.0,0.0,0.0,2.864160133435187e-07,0.0,23.654381371130988,3.0002652208536467,0.0014272978301364068,0.0
1271,8.275862068965518,0.6896551724137931,3.928571428571429,0,298998.2178368331,345904.7681834332,292575.51339965075,23830.379260618447,-36868.34589799235,1.993321452245554e-06,0.0,0.0,0.0,1.993321452245554e-06,0.0,23.416365536958452,3.295244091231405,-0.0012499581232054816,0.0
1272,8.275862068965518,0.6896551724137931,4.285714285714286,0,182792.3906178578,244467.12493914313,285632.8299822141,85767.80708665153,4960.25223346502,1.2186159374523854e-06,0.0,0.0,0.0,1.2186159374523854e-06,0.0,23.666340917032176,3.5947476383037267,0.0001662014002861069,0.0
1273,8.275862068965518,0.6896551724137931,4.642857142857143,0,71229.83830683306,224546.87226852597,163821.6774881717,146142.33586269701,9624.295300688258,4.748655887122204e-07,0.0,0.0,0.0,4.748655887122204e-07,0.0,22.66387086389973,3.896893336934591,0.00032131703750974477,0.0
1274,8.275862068965518,0.6896551724137931,5.0,0,76029.22913413252,266353.7491460968,182915.57827770032,200991.53755792673,78336.38615005727,5.068615275608835e-07,0.0,0.0,0.0,5.068615275608835e-07,0.0,23.257503391262265,4.2000885325007715,0.0026124681834101414,0.0
1275,8.620689655172415,0.6896551724137931,0.0,0,117534.99568738558,243016.36789098757,183649.3295025083,107639.22885160605,-9449.63316068851,7.835666379159039e-07,0.0,0.0,0.0,7.835666379159039e-07,0.0,22.90058681167057,-0.04991562469392928,-0.00031513919891462976,0.0
1276,8.620689655172415,0.6896551724137931,0.35714285714285715,0,134616.22881092428,272524.6734354209,168209.80647545893,120565.75971782423,-21149.45923215755,8.974415254061619e-07,0.0,0.0,0.0,8.974415254061619e-07,0.0,23.64287119654655,0.25401437021974665,-0.0007060965372627344,0.0
1277,8.620689655172415,0.6896551724137931,0.7142857142857143,0,237399.76416521714,318824.6295216002,98945.9205719838,67115.52143662266,10472.461001935395,1.5826650944347809e-06,0.0,0.0,0.0,1.5826650944347809e-06,0.0,23.10020745339321,0.558944581148625,0.0003508970110875679,0.0
1278,8.620689655172415,0.6896551724137931,1.0714285714285714,0,172192.30770059268,328735.2949150787,214220.68607992114,130712.24855808576,-28223.255506818397,1.1479487180039512e-06,0.0,0.0,0.0,1.1479487180039512e-06,0.0,23.641016307345087,0.8663928768993978,-0.0009568611399507495,0.0
1279,8.620689655172415,0.6896551724137931,1.4285714285714286,0,202051.4182597038,293012.6354539482,158174.15463850214,60703.39022696789,19117.058066471436,1.347009455064692e-06,0.0,0.0,0.0,1.347009455064692e-06,0.0,23.144045326687245,1.1781533854268094,0.0006730678488822647,0.0
1280,8.620689655172415,0.6896551724137931,1.7857142857142858,0,295231.7083218557,461699.6300649871,354624.7956796494,127871.29885679824,51153.97432821894,1.9682113888123714e-06,0.0,0.0,0.0,1.9682113888123714e-06,0.0,24.228363699465472,1.4940979419297968,0.0020204540193970427,0.0
1281,8.620689655172415,0.6896551724137931,2.142857142857143,0,470960.49068368203,920854.3790284048,851337.4452050747,418999.2082974272,228745.07009390934,3.13973660455788e-06,0.0,0.0,0.0,3.13973660455788e-06,0.0,23.4458511449662,1.8099020246713888,0.012261901309007311,0.0
1282,8.620689655172415,0.6896551724137931,2.5,0,614699.8685024468,980408.6950416365,533451.7154175292,279407.40775191586,558698.0884071412,4.097999123349645e-06,0.0,0.0,0.0,4.097999123349645e-06,0.0,23.88270958618431,2.11870749062995,0.055869808840714116,0.0
1283,8.620689655172415,0.6896551724137931,2.857142857142857,0,580426.3332299588,1072562.9658891752,560118.9167487231,442247.9706790577,294094.178773714,3.869508888199725e-06,0.0,0.0,0.0,3.869508888199725e-06,0.0,23.372839264848885,2.417044881814246,0.015764946515334118,0.0
1284,8.620689655172415,0.6896551724137931,3.2142857142857144,0,386115.5017430192,632352.9661526809,450889.86817427224,188933.82347704942,92788.58556218204,2.5741033449534613e-06,0.0,0.0,0.0,2.5741033449534613e-06,0.0,23.895685646241688,2.7083836562155112,0.003664917010169765,0.0
1285,8.620689655172415,0.6896551724137931,3.5714285714285716,0,342188.0597599649,438878.8212514293,270021.2648863585,45082.927030194645,63505.57928470003,2.281253731733099e-06,0.0,0.0,0.0,2.281253731733099e-06,0.0,23.05249135983183,2.9995819568553808,0.0022358860601120003,0.0
1286,8.620689655172415,0.6896551724137931,3.928571428571429,0,34194.04480889632,222019.3015387451,233104.66472916785,194743.2576468946,-15219.75619139482,2.2796029872597546e-07,0.0,0.0,0.0,2.2796029872597546e-07,0.0,23.422738295016618,3.294964305470827,-0.0005159997667722007,0.0
1287,8.620689655172415,0.6896551724137931,4.285714285714286,0,262476.3051326709,343870.15329481126,187188.11530528305,40847.43726024599,-12271.057415775342,1.749842034217806e-06,0.0,0.0,0.0,1.749842034217806e-06,0.0,23.21593990069214,3.5946588668629107,-0.00041116193884930597,0.0
1288,8.620689655172415,0.6896551724137931,4.642857142857143,0,182853.88850486395,294190.93778497295,194354.68783564263,83151.47052943443,-40012.67847275572,1.2190259233657596e-06,0.0,0.0,0.0,1.2190259233657596e-06,0.0,24.38750806020719,3.89687151307689,-0.0013358645914341787,0.0
1289,8.620689655172415,0.6896551724137931,5.0,0,140748.89683058075,264530.0282019136,151022.86808639579,107042.41511207499,15489.72700428356,9.383259788705383e-07,0.0,0.0,0.0,9.383259788705383e-07,0.0,22.86362629646206,4.200084375306071,0.0005165724506474454,0.0
1290,8.965517241379311,0.6896551724137931,0.0,0,122805.4630674025,335736.563611557,282337.8261170826,195271.5898481449,-20942.920340674777,8.187030871160166e-07,0.0,0.0,0.0,8.187030871160166e-07,0.0,24.361698932583355,-0.049920021203600784,-0.0006984329472756247,0.0
1291,8.965517241379311,0.6896551724137931,0.35714285714285715,0,281755.9327547003,386303.03372692055,114262.89946611109,95744.84943446485,11225.75785563244,1.8783728850313354e-06,0.0,0.0,0.0,1.8783728850313354e-06,0.0,22.64416044202256,0.25399129003987614,0.0003747835187180524,0.0
1292,8.965517241379311,0.6896551724137931,0.7142857142857143,0,261587.0785958484,358569.5712609379,291446.1571929003,69961.52500363471,37990.01022924388,1.743913857305656e-06,0.0,0.0,0.0,1.743913857305656e-06,0.0,23.704041847620495,0.5588506994504645,0.0012729177065604932,0.0
1293,8.965517241379311,0.6896551724137931,1.0714285714285714,0,133835.017384278,276789.30236675317,140781.31101668093,145238.61838352119,-22765.864894748913,8.922334492285201e-07,0.0,0.0,0.0,8.922334492285201e-07,0.0,23.029854313879834,0.8660969848638191,-0.0007718376581288257,0.0
1294,8.965517241379311,0.6896551724137931,1.4285714285714286,0,272903.2933698777,448161.6068736812,348277.50217983563,139388.37063606642,-13602.31829379633,1.819355289132518e-06,0.0,0.0,0.0,1.819355289132518e-06,0.0,23.472944517859517,1.1774307883408572,-0.0004789064866562507,0.0
1295,8.965517241379311,0.6896551724137931,1.7857142857142858,0,274875.0962415419,487700.10965616093,351730.5051422833,171339.54666550696,115590.30753275954,1.8325006416102793e-06,0.0,0.0,0.0,1.8325006416102793e-06,0.0,23.264820801552723,1.4927306233115494,0.004565527987315541,0.0
1296,8.965517241379311,0.6896551724137931,2.142857142857143,0,492721.1426349592,864073.8622297919,375685.64890678594,367131.18640345416,370945.98834413994,3.2848076175663947e-06,0.0,0.0,0.0,3.2848076175663947e-06,0.0,22.939748185623568,1.8078973041298565,0.01988459510047876,0.0
1297,8.965517241379311,0.6896551724137931,2.5,0,707679.4190878997,915337.0795374414,795020.5704052774,155212.31618449284,620873.9479842463,4.717862793919332e-06,0.0,0.0,0.0,4.717862793919332e-06,0.0,23.40024479944388,2.1164300422363347,0.062087394798424636,0.0
1298,8.965517241379311,0.6896551724137931,2.857142857142857,0,718455.3620708664,791930.9280415357,733566.172543485,46073.39809653853,279944.4152184389,4.789702413805776e-06,0.0,0.0,0.0,4.789702413805776e-06,0.0,23.155898894195797,2.4150401612727133,0.015006447089797462,0.0
1299,8.965517241379311,0.6896551724137931,3.2142857142857144,0,263630.79902531044,644642.6967544417,342310.4517240144,462693.3254524304,-21392.298565020566,1.7575386601687363e-06,0.0,0.0,0.0,1.7575386601687363e-06,0.0,23.654875796671224,2.707016337597264,-0.0008449422784339555,0.0
1300,8.965517241379311,0.6896551724137931,3.5714285714285716,0,155995.25379537,309037.1515301879,329391.2301238533,164218.0527456669,-22871.977130252126,1.0399683586357999e-06,0.0,0.0,0.0,1.0399683586357999e-06,0.0,22.87117965071605,2.998859359769429,-0.0008052699527937668,0.0
1301,8.965517241379311,0.6896551724137931,3.928571428571429,0,357003.9120934114,466418.41074213816,81590.07099470108,146011.448315778,-33681.632251325136,2.3800260806227427e-06,0.0,0.0,0.0,2.3800260806227427e-06,0.0,23.61489296300856,3.2946684134352484,-0.001141918054904008,0.0
1302,8.965517241379311,0.6896551724137931,4.285714285714286,0,110702.96244912552,207216.27018586954,142063.58458019924,79395.54926133627,18958.48589950142,7.380197496608368e-07,0.0,0.0,0.0,7.380197496608368e-07,0.0,23.815448891039377,3.5945649851647503,0.0006352352169801747,0.0
1303,8.965517241379311,0.6896551724137931,4.642857142857143,0,112600.09610898516,286051.10508382384,311397.1803899892,188284.27677500245,9243.744663961777,7.506673073932344e-07,0.0,0.0,0.0,7.506673073932344e-07,0.0,23.334004401024924,3.8968484328970194,0.00030861196151247617,0.0
1304,8.965517241379311,0.6896551724137931,5.0,0,219818.65126764143,348872.12343475374,212844.57313983212,95271.12185266762,-19444.3683202605,1.4654576751176096e-06,0.0,0.0,0.0,1.4654576751176096e-06,0.0,22.73145256071905,4.200079978796399,-0.0006484571995175131,0.0
1305,9.310344827586208,0.6896551724137931,0.0,0,399898.6926092,400979.6277102693,117600.6705669626,-56449.04598423607,-15361.72239027027,2.6659912840613333e-06,0.0,0.0,0.0,2.6659912840613333e-06,0.0,24.124512009403272,-0.049924630207971735,-0.0005123035789535323,0.0
1306,9.310344827586208,0.6896551724137931,0.35714285714285715,0,217197.96540834085,351878.18200683943,201174.1997325009,102914.01251655252,17080.35158171463,1.4479864360556057e-06,0.0,0.0,0.0,1.4479864360556057e-06,0.0,23.49658688682808,0.2539670943351345,0.0005702451762332097,0.0
1307,9.310344827586208,0.6896551724137931,0.7142857142857143,0,208370.53614558434,356105.74720519234,185639.17251909946,123820.97051337628,-11498.575475593243,1.389136907637229e-06,0.0,0.0,0.0,1.389136907637229e-06,0.0,22.907291851242995,0.5587522802066769,-0.0003852786623320738,0.0
1308,9.310344827586208,0.6896551724137931,1.0714285714285714,0,231153.9021331383,401615.32479002344,247479.61685226508,135831.37684590588,-21330.8684042696,1.541026014220922e-06,0.0,0.0,0.0,1.541026014220922e-06,0.0,23.51948971487889,0.8657867915997959,-0.0007231865598395572,0.0
1309,9.310344827586208,0.6896551724137931,1.4285714285714286,0,222124.21455525936,411372.6039199842,269932.0759696963,155355.0127065642,90759.09643599231,1.4808280970350623e-06,0.0,0.0,0.0,1.4808280970350623e-06,0.0,22.439464562801586,1.1766732662662036,0.0031954200061676437,0.0
1310,9.310344827586208,0.6896551724137931,1.7857142857142858,0,539678.3660995212,789988.4909407252,454595.85886300897,167444.31506647659,31123.089773042324,3.5978557739968077e-06,0.0,0.0,0.0,3.5978557739968077e-06,0.0,23.8702158130127,1.4912972186431057,0.0012292841886443466,0.0
1311,9.310344827586208,0.6896551724137931,2.142857142857143,0,726617.6006798182,1069051.1144854408,628052.2142211924,230398.67755151493,406454.0381872522,4.844117337865455e-06,0.0,0.0,0.0,4.844117337865455e-06,0.0,24.349010230293956,1.8057956902522945,0.021788007500461004,0.0
1312,9.310344827586208,0.6896551724137931,2.5,0,811637.4113600198,1265078.557629348,1046847.5744833417,366636.3174816246,663747.2775143273,5.4109160757334654e-06,0.0,0.0,0.0,5.4109160757334654e-06,0.0,23.703546396321325,2.114042518863229,0.06637472775143273,0.0
1313,9.310344827586208,0.6896551724137931,2.857142857142857,0,663820.6653258681,738504.3377575007,718494.9850244873,64905.21064107803,205811.0898253368,4.425471102172454e-06,0.0,0.0,0.0,4.425471102172454e-06,0.0,22.79470501738301,2.4129385473951515,0.011032523108373271,0.0
1314,9.310344827586208,0.6896551724137931,3.2142857142857144,0,552979.358889072,608026.9518848014,489039.0085351154,5239.713768685501,23130.15471391743,3.68652905926048e-06,0.0,0.0,0.0,3.68652905926048e-06,0.0,22.306433988558574,2.70558293292882,0.0009135832489017292,0.0
1315,9.310344827586208,0.6896551724137931,3.5714285714285716,0,222938.17938822493,405386.3965404919,402421.00921387936,180980.31539296778,40750.61412095856,1.4862545292548328e-06,0.0,0.0,0.0,1.4862545292548328e-06,0.0,23.987716363501534,2.998101837694775,0.0014347358307777204,0.0
1316,9.310344827586208,0.6896551724137931,3.928571428571429,0,120904.5412558276,296496.968985393,230941.05573138475,156972.93620400826,-4641.999481926476,8.060302750388507e-07,0.0,0.0,0.0,8.060302750388507e-07,0.0,23.236704968326773,3.294358220171225,-0.00015737904207591797,0.0
1317,9.310344827586208,0.6896551724137931,4.285714285714286,0,205763.76151747184,386189.7951403285,161252.54040484817,207455.42150901534,-52768.04742683989,1.371758410116479e-06,0.0,0.0,0.0,1.371758410116479e-06,0.0,23.119461185761885,3.5944665659209627,-0.0017680801217195472,0.0
1318,9.310344827586208,0.6896551724137931,4.642857142857143,0,204548.47893860942,320481.1342227222,338049.1790898938,125283.28715375264,14165.890240153016,1.3636565262573962e-06,0.0,0.0,0.0,1.3636565262573962e-06,0.0,23.902402997102946,3.896824237192278,0.0004729428746153152,0.0
1319,9.310344827586208,0.6896551724137931,5.0,0,302933.98324264714,406084.1948819193,261070.2813485295,57901.30179768083,-20906.085403156194,2.019559888284314e-06,0.0,0.0,0.0,2.019559888284314e-06,0.0,23.029457043318622,4.200075369792028,-0.0006972045257586956,0.0
1320,9.655172413793103,0.6896551724137931,0.0,0,298725.0777713055,314498.5103666954,291253.5183084982,4830.003044653516,17442.000505619646,1.99150051847537e-06,0.0,0.0,0.0,1.99150051847537e-06,0.0,23.568512502013522,-0.04992942771909295,0.0005816795184892711,0.0
1321,9.655172413793103,0.6896551724137931,0.35714285714285715,0,397778.7040750985,537824.3220076354,229462.05867930976,88834.04304315722,107571.2564587264,2.651858027167323e-06,0.0,0.0,0.0,2.651858027167323e-06,0.0,23.203948900674003,0.253941909034093,0.0035913774844426455,0.0
1322,9.655172413793103,0.6896551724137931,0.7142857142857143,0,120826.12465807342,329525.93120215717,231517.53105397048,194529.18770025848,15360.60173518762,8.055074977204894e-07,0.0,0.0,0.0,8.055074977204894e-07,0.0,23.32030139000289,0.5586498356484576,0.000514682197086982,0.0
1323,9.655172413793103,0.6896551724137931,1.0714285714285714,0,127383.93599405274,431793.4561551688,359604.81695556984,284711.44612431515,25587.679905908473,8.492262399603516e-07,0.0,0.0,0.0,8.492262399603516e-07,0.0,24.01619054951105,0.8654639115341454,0.0008675064631557994,0.0
1324,9.655172413793103,0.6896551724137931,1.4285714285714286,0,315859.80327381095,556835.7641911161,431159.77178712864,197482.04492519237,-6167.197274188021,2.105732021825406e-06,0.0,0.0,0.0,2.105732021825406e-06,0.0,22.96183361122828,1.175884761789918,-0.0002171328971506579,0.0
1325,9.655172413793103,0.6896551724137931,1.7857142857142858,0,491993.3537449035,610013.4780490886,589970.1692553427,108304.76925825799,-4559.962191221741,3.2799556916326902e-06,0.0,0.0,0.0,3.2799556916326902e-06,0.0,22.92087171283794,1.489805188199091,-0.00018010709937096874,0.0
1326,9.655172413793103,0.6896551724137931,2.142857142857143,0,852302.6421404299,1194174.7168019982,875963.0374401397,228548.0843712247,489255.65544569393,5.682017614269533e-06,0.0,0.0,0.0,5.682017614269533e-06,0.0,23.114644097242536,1.8036081210641106,0.026226596094446376,0.0
1327,9.655172413793103,0.6896551724137931,2.5,0,667592.2279936707,905316.8784744221,976913.4124226848,276408.56723339873,619919.0518574526,4.4506148532911386e-06,0.0,0.0,0.0,4.4506148532911386e-06,0.0,22.619053462447035,2.1115573465759514,0.06199190518574525,0.0
1328,9.655172413793103,0.6896551724137931,2.857142857142857,0,862182.1078091247,1316530.9027055132,740998.8659430541,325252.1672954961,361409.7552630041,5.747880718727498e-06,0.0,0.0,0.0,5.747880718727498e-06,0.0,23.693443864124017,2.4107509782069676,0.019373404416226755,0.0
1329,9.655172413793103,0.6896551724137931,3.2142857142857144,0,247904.9163925185,690550.9892296304,457868.26966762653,429811.1821422119,196034.25265360787,1.65269944261679e-06,0.0,0.0,0.0,1.65269944261679e-06,0.0,23.631736266423438,2.7040909024848054,0.00774286258135337,0.0
1330,9.655172413793103,0.6896551724137931,3.5714285714285716,0,133038.44750414937,423365.88087161846,452855.7480437323,307546.6949035551,-10191.338547633524,8.869229833609958e-07,0.0,0.0,0.0,8.869229833609958e-07,0.0,23.23002289481294,2.99731333321849,-0.00035881369872057395,0.0
1331,9.655172413793103,0.6896551724137931,3.928571428571429,0,206161.7200396693,388899.20876465656,258637.41608055218,151209.47076342558,50537.22441501785,1.3744114669311287e-06,0.0,0.0,0.0,1.3744114669311287e-06,0.0,22.77738166584048,3.294035340105575,0.0017133780386184838,0.0
1332,9.655172413793103,0.6896551724137931,4.285714285714286,0,252352.29102305663,466458.26093399816,310760.6923492764,175301.29785519253,15562.920396854475,1.6823486068203776e-06,0.0,0.0,0.0,1.6823486068203776e-06,0.0,21.871577642819737,3.5943641213627435,0.0005214612162356822,0.0
1333,9.655172413793103,0.6896551724137931,4.642857142857143,0,222918.56581531256,353441.4324592872,215799.76444038644,96249.24870713612,-22135.98126933293,1.4861237721020837e-06,0.0,0.0,0.0,1.4861237721020837e-06,0.0,22.83206581501594,3.8967990518912363,-0.0007390325942435091,0.0
1334,9.655172413793103,0.6896551724137931,5.0,0,278263.29227743205,340174.5138912579,227338.36409740188,23215.727580836145,13661.23754437981,1.8550886151828803e-06,0.0,0.0,0.0,1.8550886151828803e-06,0.0,23.13807855333368,4.200070572280907,0.00045559350111371266,0.0
1335,10.0,0.6896551724137931,0.0,0,119485.76277884969,428583.39493154304,292736.3543544628,339778.45511078765,-32128.140997469312,7.96571751858998e-07,0.0,0.0,0.0,7.96571751858998e-07,0.0,22.164302752058315,-0.049934392449232125,-0.0010714528748776368,0.0
1336,10.0,0.6896551724137931,0.35714285714285715,0,333053.1074155637,342958.5534980485,241859.33326682128,-28929.792394379543,40580.77236503074,2.2203540494370915e-06,0.0,0.0,0.0,2.2203540494370915e-06,0.0,24.36585791089891,0.25391584589010324,0.001354830992691644,0.0
1337,10.0,0.6896551724137931,0.7142857142857143,0,523823.87192971556,613813.3383930614,386784.22315319744,14773.51425397862,56122.24901487485,3.4921591461981037e-06,0.0,0.0,0.0,3.4921591461981037e-06,0.0,23.33110134647437,0.5585438203474118,0.0018804681565481446,0.0
1338,10.0,0.6896551724137931,1.0714285714285714,0,189063.61433375336,411074.4687728074,199525.6896589208,351994.68068659346,2569.033733156183,1.2604240955583557e-06,0.0,0.0,0.0,1.2604240955583557e-06,0.0,23.400287613245393,0.8651297773648284,8.709868873510646e-05,0.0
1339,10.0,0.6896551724137931,1.4285714285714286,0,357704.1450672743,628344.7042846659,387809.58287851856,217286.1586355195,79096.4845998513,2.3846943004484954e-06,0.0,0.0,0.0,2.3846943004484954e-06,0.0,23.057812645952133,1.1750687736995553,0.002784806143218325,0.0
1340,10.0,0.6896551724137931,1.7857142857142858,0,586633.2483208062,804066.3852369806,560666.9407585446,134912.46321835442,93645.51395846755,3.910888322138708e-06,0.0,0.0,0.0,3.910888322138708e-06,0.0,23.50631569712802,1.4882611524841511,0.0036987635381345615,0.0
1341,10.0,0.6896551724137931,2.142857142857143,0,462330.57847832027,918257.7206527903,386286.75935456005,613481.3126149691,535811.8995172782,3.082203856522135e-06,0.0,0.0,0.0,3.082203856522135e-06,0.0,22.99184275404535,1.8013443033457748,0.028722248000253386,0.0
1342,10.0,0.6896551724137931,2.5,0,563091.0092035854,1343747.1958510354,823078.3711411892,746145.1362523203,1173305.6861310755,3.7539400613572363e-06,0.0,0.0,0.0,3.7539400613572363e-06,0.0,23.06603179761486,2.108985552692839,0.11733056861310756,0.0
1343,10.0,0.6896551724137931,2.857142857142857,0,1020547.387405852,1322687.1489264616,858854.2751006929,152601.60742218935,714251.3942355567,6.803649249372346e-06,0.0,0.0,0.0,6.803649249372346e-06,0.0,23.85424461030752,2.4084871604886318,0.03828751414114287,0.0
1344,10.0,0.6896551724137931,3.2142857142857144,0,463366.39629903535,742677.7105691809,606387.6105293483,226451.0009240307,67203.86322071202,3.0891093086602356e-06,0.0,0.0,0.0,3.0891093086602356e-06,0.0,23.705485440918768,2.702546866769866,0.0026543844803157894,0.0
1345,10.0,0.6896551724137931,3.5714285714285716,0,337068.4428061338,667295.1713466581,355104.11406535306,309909.57104091434,22584.229687792344,2.247122952040892e-06,0.0,0.0,0.0,2.247122952040892e-06,0.0,23.155747930119695,2.9964973451281267,0.0007951390240993849,0.0
1346,10.0,0.6896551724137931,3.928571428571429,0,392141.64644607395,558302.106991806,387272.19530588394,109693.98423576879,-48563.16362683539,2.6142776429738263e-06,0.0,0.0,0.0,2.6142776429738263e-06,0.0,24.177193467895677,3.293701205936258,-0.001646450888571743,0.0
1347,10.0,0.6896551724137931,4.285714285714286,0,290550.2563221797,532671.4314340433,305143.83246732416,205382.82020690962,35943.24991636416,1.937001708814531e-06,0.0,0.0,0.0,1.937001708814531e-06,0.0,23.129679178713467,3.5942581060616976,0.0012043376396526843,0.0
1348,10.0,0.6896551724137931,4.642857142857143,0,96335.1770999311,407306.85692841525,315204.1271274381,307234.36912881216,17458.06157501859,6.422345139995406e-07,0.0,0.0,0.0,6.422345139995406e-07,0.0,22.922533051733698,3.8967729887472466,0.0005828554144163186,0.0
1349,10.0,0.6896551724137931,5.0,0,379472.7971306755,351601.4021467187,336488.20057202317,-35202.21196545515,-34711.11919370907,2.529818647537837e-06,0.0,0.0,0.0,2.529818647537837e-06,0.0,23.24363976515945,4.200065607550768,-0.0011575935393600709,0.0
1350,0.0,1.0344827586206897,0.0,0,246485.91810536833,393420.09289279213,397060.3875053577,148774.48392531456,53224.59493509351,1.6432394540357888e-06,0.0,0.0,0.0,1.6432394540357888e-06,0.0,23.327114357590222,-0.04993014921654327,0.0017750060690375961,0.0
1351,0.0,1.0344827586206897,0.35714285714285715,0,242002.1138635168,466146.3812825586,253361.77593153602,202887.71220360915,-11913.64622616733,1.6133474257567787e-06,0.0,0.0,0.0,1.6133474257567787e-06,0.0,22.585206070566134,0.2539381214179671,-0.0003977493823425683,0.0
1352,0.0,1.0344827586206897,0.7142857142857143,0,416199.8334641226,499091.84701318096,271170.2982292824,18714.469455483868,-23433.217030823027,2.7746655564274843e-06,0.0,0.0,0.0,2.7746655564274843e-06,0.0,23.429885371372862,0.5586344290166255,-0.0007851684350758128,0.0
1353,0.0,1.0344827586206897,1.0714285714285714,0,126038.76973800133,262245.8868229488,262493.8990730124,136331.30621950375,18817.339668482375,8.402584649200089e-07,0.0,0.0,0.0,8.402584649200089e-07,0.0,24.24821823742948,0.8654153536177088,0.000637969672976761,0.0
1354,0.0,1.0344827586206897,1.4285714285714286,0,203509.7174777513,537865.5266904501,341324.1751412831,328038.46178331086,-18283.364368181774,1.3567314498516754e-06,0.0,0.0,0.0,1.3567314498516754e-06,0.0,23.670647133894274,1.1757661786423577,-0.000643715402382211,0.0
1355,0.0,1.0344827586206897,1.7857142857142858,0,579087.5928166725,796135.9008767565,760349.7686181534,199985.14590303885,78847.23700696307,3.86058395211115e-06,0.0,0.0,0.0,3.86058395211115e-06,0.0,23.53238320077849,1.4895808018174934,0.0031142686178576824,0.0
1356,0.0,1.0344827586206897,2.142857142857143,0,896994.9017235159,1079932.3170950692,931351.8071350083,117924.35486628384,630912.8785637192,5.979966011490106e-06,0.0,0.0,0.0,5.979966011490106e-06,0.0,23.445284780809722,1.8032791326466158,0.03382014505647712,0.0
1357,0.0,1.0344827586206897,2.5,0,969283.9637035662,1692792.3331219691,637402.4116329794,842412.5609786505,693570.0419069517,6.461893091357109e-06,0.0,0.0,0.0,6.461893091357109e-06,0.0,22.710894581809395,2.1111836016437184,0.06935700419069517,0.0
1358,0.0,1.0344827586206897,2.857142857142857,0,635239.1247006351,1239853.9734747077,663070.4864051965,559009.2361516764,508472.7633368703,4.234927498004234e-06,0.0,0.0,0.0,4.234927498004234e-06,0.0,22.71632414489533,2.410421989789473,0.02725673099662989,0.0
1359,0.0,1.0344827586206897,3.2142857142857144,0,586589.9415904366,973959.561378164,597750.2304241518,298066.35149649205,36261.36818085084,3.910599610602911e-06,0.0,0.0,0.0,3.910599610602911e-06,0.0,23.300844462909886,2.703866516103208,0.001432233331857071,0.0
1360,0.0,1.0344827586206897,3.5714285714285716,0,280823.58075677295,515470.40595162095,279443.44788158505,204894.36615462645,-45657.74192029575,1.872157205045153e-06,0.0,0.0,0.0,1.872157205045153e-06,0.0,23.009924055439335,2.9971947500709293,-0.0016075045664590193,0.0
1361,0.0,1.0344827586206897,3.928571428571429,0,282227.74783171306,550510.2915217488,257260.5731865871,280775.91335412354,-3483.4148412506865,1.8815183188780871e-06,0.0,0.0,0.0,1.8815183188780871e-06,0.0,22.50543182023001,3.293986782189138,-0.00011809921414328845,0.0
1362,0.0,1.0344827586206897,4.285714285714286,0,340017.45268756273,597121.3306525779,436021.0721041306,206495.56842107634,120798.47945054258,2.266783017917085e-06,0.0,0.0,0.0,2.266783017917085e-06,0.0,23.05819595039874,3.5943487147309114,0.004047551513945458,0.0
1363,0.0,1.0344827586206897,4.642857142857143,0,318618.4786426214,566211.8240355838,258954.40959606727,237333.59217596805,35059.24900410354,2.1241231909508095e-06,0.0,0.0,0.0,2.1241231909508095e-06,0.0,23.4635685502373,3.8967952642751102,0.0011704892332750245,0.0
1364,0.0,1.0344827586206897,5.0,0,261231.45159910608,350498.2840201703,399541.87497540837,117264.5442628742,20720.896284072707,1.7415430106607072e-06,0.0,0.0,0.0,1.7415430106607072e-06,0.0,23.533113569020998,4.200069850783457,0.0006910285875351399,0.0
1365,0.3448275862068966,1.0344827586206897,0.0,0,417188.79027991265,424171.9438193423,424976.19499768637,7385.8605384067205,-23439.21841668538,2.7812586018660844e-06,0.0,0.0,0.0,2.7812586018660844e-06,0.0,22.836412581712644,-0.049925006169381975,-0.0007816828854000794,0.0
1366,0.3448275862068966,1.0344827586206897,0.35714285714285715,0,175608.68434198273,416078.08705884416,247290.33962380455,234362.92968160223,-17188.148180550157,1.170724562279885e-06,0.0,0.0,0.0,1.170724562279885e-06,0.0,23.23457037362244,0.2539651206656509,-0.0005738440770056103,0.0
1367,0.3448275862068966,1.0344827586206897,0.7142857142857143,0,239231.33240654765,492230.1035426238,234046.17017238375,278065.09284757264,-66506.61018987764,1.5948755493769844e-06,0.0,0.0,0.0,1.5948755493769844e-06,0.0,23.469646857643454,0.5587442520438219,-0.002228413238195033,0.0
1368,0.3448275862068966,1.0344827586206897,1.0714285714285714,0,316389.896354416,525333.158092664,297836.6884677694,164023.65056916612,83213.15087691828,2.1092659756961067e-06,0.0,0.0,0.0,2.1092659756961067e-06,0.0,22.632866697797404,0.8657614888038767,0.0028211993612057146,0.0
1369,0.3448275862068966,1.0344827586206897,1.4285714285714286,0,168216.82277594,446740.56384129054,258887.2930465205,310032.37922450365,21182.895855414376,1.1214454851729333e-06,0.0,0.0,0.0,1.1214454851729333e-06,0.0,22.885515416713037,1.1766114743813294,0.0007458012680050619,0.0
1370,0.3448275862068966,1.0344827586206897,1.7857142857142858,0,454936.8082943042,779396.792911767,556888.7375120001,256032.1932743644,94991.34221286599,3.0329120552953612e-06,0.0,0.0,0.0,3.0329120552953612e-06,0.0,23.269872546630125,1.491180294293025,0.003751920387464984,0.0
1371,0.3448275862068966,1.0344827586206897,2.142857142857143,0,286580.88301016315,679036.2883524611,750646.7618907423,435051.3223506645,452921.8491873038,1.9105392200677543e-06,0.0,0.0,0.0,1.9105392200677543e-06,0.0,22.82659659836705,1.8056242593631924,0.024278918943030314,0.0
1372,0.3448275862068966,1.0344827586206897,2.5,0,707017.08518348,1727108.3982755886,1035035.2512551683,1006039.5219949596,1053667.032298313,4.713447234556533e-06,0.0,0.0,0.0,4.713447234556533e-06,0.0,23.12196866340581,2.113847766031144,0.1053667032298313,0.0
1373,0.3448275862068966,1.0344827586206897,2.857142857142857,0,684667.7113898884,1022545.7828619127,1115812.4916457324,389292.48067469604,463819.54351298884,4.564451409265923e-06,0.0,0.0,0.0,4.564451409265923e-06,0.0,24.538563950373188,2.4127671165060494,0.024863090887205633,0.0
1374,0.3448275862068966,1.0344827586206897,3.2142857142857144,0,477346.3396261026,777555.1903028999,663997.863826223,253670.4597125728,66195.0325306701,3.182308930840684e-06,0.0,0.0,0.0,3.182308930840684e-06,0.0,22.541794743187122,2.7054660085787394,0.002614538191745756,0.0
1375,0.3448275862068966,1.0344827586206897,3.5714285714285716,0,456642.34527889756,503560.607126501,428288.69504070113,13959.125916003135,103324.81816004786,3.044282301859317e-06,0.0,0.0,0.0,3.044282301859317e-06,0.0,24.012470818841457,2.998040045809901,0.003637830300735749,0.0
1376,0.3448275862068966,1.0344827586206897,3.928571428571429,0,383989.45909840695,567800.0927077674,141713.95144190214,248522.11790223708,-5693.038393003105,2.559929727322713e-06,0.0,0.0,0.0,2.559929727322713e-06,0.0,23.475709532766192,3.2943329173753058,-0.00019301271624020468,0.0
1377,0.3448275862068966,1.0344827586206897,4.285714285714286,0,210031.35877231797,193914.20482679878,353608.7378667635,115690.55765420181,-75837.24598671866,1.4002090584821197e-06,0.0,0.0,0.0,1.4002090584821197e-06,0.0,22.697602472905167,3.5944585377581078,-0.002541051519880025,0.0
1378,0.3448275862068966,1.0344827586206897,4.642857142857143,0,264854.57072058856,445446.3164918973,466830.8949686551,191932.3066302816,-68246.60200921627,1.7656971381372571e-06,0.0,0.0,0.0,1.7656971381372571e-06,0.0,23.653641509520035,3.896822263522794,-0.0022784832855388157,0.0
1379,0.3448275862068966,1.0344827586206897,5.0,0,352579.4305378168,437385.7336651052,43743.87823146931,150582.46281117757,-8566.410690805862,2.3505295369187785e-06,0.0,0.0,0.0,2.3505295369187785e-06,0.0,23.340531423201032,4.2000749938306186,-0.0002856842966036983,0.0
1380,0.6896551724137931,1.0344827586206897,0.0,0,252499.09588588076,405551.1297053935,373707.20160497975,138640.5870195464,13007.58360909994,1.6833273059058718e-06,0.0,0.0,0.0,1.6833273059058718e-06,0.0,23.92924126951885,-0.049920021203600784,0.00043379456204077144,0.0
1381,0.6896551724137931,1.0344827586206897,0.35714285714285715,0,384028.7701837765,600121.103697965,298055.58964961086,167938.18173360606,36667.486856552445,2.560191801225177e-06,0.0,0.0,0.0,2.560191801225177e-06,0.0,23.66155432611563,0.25399129003987614,0.001224181914787297,0.0
1382,0.6896551724137931,1.0344827586206897,0.7142857142857143,0,170461.48034008872,368108.2955889722,237208.9946517281,175355.2828696223,-41090.487322347064,1.1364098689339248e-06,0.0,0.0,0.0,1.1364098689339248e-06,0.0,23.43420428489704,0.5588506994504645,-0.001376804285342149,0.0
1383,0.6896551724137931,1.0344827586206897,1.0714285714285714,0,207905.17694447713,532241.6098693145,396625.16337377473,292879.61318517814,-10090.52409989307,1.3860345129631808e-06,0.0,0.0,0.0,1.3860345129631808e-06,0.0,23.187555650435424,0.8660969848638191,-0.0003421019375525834,0.0
1384,0.6896551724137931,1.0344827586206897,1.4285714285714286,0,189391.75324646136,573990.1226684029,558285.7730802281,377235.1521015218,-36646.9514624669,1.2626116883097424e-06,0.0,0.0,0.0,1.2626116883097424e-06,0.0,23.929970884652978,1.1774307883408572,-0.0012902552632926177,0.0
1385,0.6896551724137931,1.0344827586206897,1.7857142857142858,0,480831.24923199404,961197.0963336413,656284.7125402011,406907.5821563377,166332.80560932617,3.205541661546627e-06,0.0,0.0,0.0,3.205541661546627e-06,0.0,23.15422705582808,1.4927306233115494,0.006569729724119582,0.0
1386,0.6896551724137931,1.0344827586206897,2.142857142857143,0,259132.7335526559,985445.8154213467,711609.8207871201,744076.108541945,574739.1927813729,1.727551557017706e-06,0.0,0.0,0.0,1.727551557017706e-06,0.0,22.654890084173456,1.8078973041298565,0.030808949270078143,0.0
1387,0.6896551724137931,1.0344827586206897,2.5,0,423575.292250364,1141892.6419877172,684148.5162665944,763793.3539608513,1034073.2748781156,2.8238352816690933e-06,0.0,0.0,0.0,2.8238352816690933e-06,0.0,22.411780387000636,2.1164300422363347,0.10340732748781156,0.0
1388,0.6896551724137931,1.0344827586206897,2.857142857142857,0,724642.2902080939,1386477.9004627103,828926.7915820135,567370.022819816,468879.93187215104,4.830948601387293e-06,0.0,0.0,0.0,4.830948601387293e-06,0.0,22.74645178158946,2.4150401612727133,0.025134353488055667,0.0
1389,0.6896551724137931,1.0344827586206897,3.2142857142857144,0,262122.3869110227,832833.5149863622,671319.1249728228,530394.177974767,224019.95345391243,1.747482579406818e-06,0.0,0.0,0.0,1.747482579406818e-06,0.0,23.770668952864305,2.707016337597264,0.008848227754053669,0.0
1390,0.6896551724137931,1.0344827586206897,3.5714285714285716,0,279625.3073700215,370253.59228556894,333591.5771376382,74105.67556864183,-30391.46531265774,1.864168715800143e-06,0.0,0.0,0.0,1.864168715800143e-06,0.0,23.192309812530148,2.998859359769429,-0.0010700139169554828,0.0
1391,0.6896551724137931,1.0344827586206897,3.928571428571429,0,252915.396536553,411339.452630347,295972.28854430537,121311.27544188258,10251.953427903003,1.68610264357702e-06,0.0,0.0,0.0,1.68610264357702e-06,0.0,22.9926525314434,3.2946684134352484,0.0003475749224385315,0.0
1392,0.6896551724137931,1.0344827586206897,4.285714285714286,0,424686.6950939103,482113.0499664014,565856.3489098741,105536.27501603994,-47468.53993084203,2.831244633959402e-06,0.0,0.0,0.0,2.831244633959402e-06,0.0,23.166606164392633,3.5945649851647503,-0.0015905114164994328,0.0
1393,0.6896551724137931,1.0344827586206897,4.642857142857143,0,327895.45255671354,520851.54789147235,408512.20823673916,151551.98108551023,25576.796686091722,2.1859696837114235e-06,0.0,0.0,0.0,2.1859696837114235e-06,0.0,23.802847653978716,3.8968484328970194,0.0008539077702215082,0.0
1394,0.6896551724137931,1.0344827586206897,5.0,0,162529.8226023618,385427.35231549176,414807.3272562109,239591.4663588015,12700.050273658708,1.083532150682412e-06,0.0,0.0,0.0,1.083532150682412e-06,0.0,23.709520740055634,4.200079978796399,0.0004235385227509423,0.0
1395,1.0344827586206897,1.0344827586206897,0.0,0,104913.22751820646,185677.43563223732,181579.75309380962,78775.40148532589,-109223.36912481494,6.994215167880431e-07,0.0,0.0,0.0,6.994215167880431e-07,0.0,23.478691202418556,-0.04991521615824417,-0.0036425292350971182,0.0
1396,1.0344827586206897,1.0344827586206897,0.35714285714285715,0,257001.39501006357,491786.5846103077,248671.30924892955,222848.6931586684,49399.642703396494,1.7133426334004237e-06,0.0,0.0,0.0,1.7133426334004237e-06,0.0,23.102526197301575,0.25401651489308985,0.001649258086081391,0.0
1397,1.0344827586206897,1.0344827586206897,0.7142857142857143,0,202871.9288676761,337616.22824013914,319305.007983317,126209.42792481955,38207.89592498702,1.3524795257845072e-06,0.0,0.0,0.0,1.3524795257845072e-06,0.0,23.211882441377085,0.5589533048923997,0.0012802183247610168,0.0
1398,1.0344827586206897,1.0344827586206897,1.0714285714285714,0,107277.84264848726,274484.887931514,229962.41643147042,152114.47342170292,-25272.072570224645,7.151856176565818e-07,0.0,0.0,0.0,7.151856176565818e-07,0.0,23.345728641187986,0.8664203719953956,-0.0008568063369805506,0.0
1399,1.0344827586206897,1.0344827586206897,1.4285714285714286,0,311903.7252100208,231821.66101725047,545461.4175185739,235323.20652120168,21758.88315279431,2.0793581680668053e-06,0.0,0.0,0.0,2.0793581680668053e-06,0.0,22.969307711806753,1.178220531121377,0.0007660804621092506,0.0
1400,1.0344827586206897,1.0344827586206897,1.7857142857142858,0,284050.0715367464,890682.6727575439,752243.633832614,563955.0611577888,-33731.96950016866,1.8936671435783093e-06,0.0,0.0,0.0,1.8936671435783093e-06,0.0,23.366104659602847,1.4942249969098156,-0.001332328411503255,0.0
1401,1.0344827586206897,1.0344827586206897,2.142857142857143,0,756996.5368688436,1164072.4064271473,673313.6271249295,292266.14775239077,340621.51537216635,5.046643579125624e-06,0.0,0.0,0.0,5.046643579125624e-06,0.0,22.952708703845452,1.8100883087788011,0.018259048833285565,0.0
1402,1.0344827586206897,1.0344827586206897,2.5,0,838685.6969279627,1275057.6319701655,1411147.0148160656,512738.873969305,993356.9678584727,5.591237979519751e-06,0.0,0.0,0.0,5.591237979519751e-06,0.0,23.613736370711397,2.1189191173541704,0.09933569678584726,0.0
1403,1.0344827586206897,1.0344827586206897,2.857142857142857,0,1075290.8993793621,1450154.3616454508,793450.4207781281,209220.63113487812,297027.8512199957,7.168605995862414e-06,0.0,0.0,0.0,7.168605995862414e-06,0.0,23.674652572921296,2.417231165921658,0.015922206306745106,0.0
1404,1.0344827586206897,1.0344827586206897,3.2142857142857144,0,705009.3633784886,863619.5296498257,932874.4004090017,195793.3903296766,81417.41421742074,4.7000624225232575e-06,0.0,0.0,0.0,4.7000624225232575e-06,0.0,23.99890831318791,2.7085107111955304,0.0032157841881262314,0.0
1405,1.0344827586206897,1.0344827586206897,3.5714285714285716,0,528409.4314637769,707579.4665676749,389780.5497621535,97604.1679586359,-67945.3584013454,3.5227295430918458e-06,0.0,0.0,0.0,3.5227295430918458e-06,0.0,23.57527634472857,2.9996491025499488,-0.0023922005186004587,0.0
1406,1.0344827586206897,1.0344827586206897,3.928571428571429,0,151639.1511769716,331965.1588448174,375119.1417774259,206580.4801809086,15844.916407109304,1.010927674513144e-06,0.0,0.0,0.0,1.010927674513144e-06,0.0,23.564153740503027,3.294991800566825,0.0005371947531732522,0.0
1407,1.0344827586206897,1.0344827586206897,4.285714285714286,0,224025.5963836,443534.00178629614,437679.17403659946,216638.37905348578,25139.569075643936,1.4935039758906667e-06,0.0,0.0,0.0,1.4935039758906667e-06,0.0,23.03664480065819,3.5946675906066856,0.0008423425637051926,0.0
1408,1.0344827586206897,1.0344827586206897,4.642857142857143,0,164175.09491817816,301247.1012195792,425399.4286687064,239254.28621409787,32238.25591676575,1.0945006327878544e-06,0.0,0.0,0.0,1.0945006327878544e-06,0.0,23.435484709937736,3.896873657750233,0.001076307465847956,0.0
1409,1.0344827586206897,1.0344827586206897,5.0,0,285979.3971559768,424690.68623870926,357044.029090961,110952.79403827575,20830.473501309247,1.9065293143731787e-06,0.0,0.0,0.0,1.9065293143731787e-06,0.0,22.95271490504121,4.200084783841756,0.0006946829173775802,0.0
1410,1.3793103448275863,1.0344827586206897,0.0,0,173968.4869610133,421373.5176583844,297878.3603592397,222415.35615075083,63269.00692312237,1.159789913073422e-06,0.0,0.0,0.0,1.159789913073422e-06,0.0,22.613628967270063,-0.04991061605601807,0.0021099807599752585,0.0
1411,1.3793103448275863,1.0344827586206897,0.35714285714285715,0,270204.74447757,499091.4709308266,356061.3048820625,187436.04844171376,-24571.629904116457,1.8013649631838e-06,0.0,0.0,0.0,1.8013649631838e-06,0.0,23.337928883998625,0.25404066386460006,-0.0008203492391813811,0.0
1412,1.3793103448275863,1.0344827586206897,0.7142857142857143,0,249780.0237424599,448980.04436522914,238819.63997777354,172831.10282512146,-47079.122883486234,1.665200158283066e-06,0.0,0.0,0.0,1.665200158283066e-06,0.0,23.223359793578954,0.559051534042559,-0.0015774633585540806,0.0
1413,1.3793103448275863,1.0344827586206897,1.0714285714285714,0,388550.8240986635,515540.7639510852,334819.0449625956,69544.5742066885,-26621.52634017769,2.5903388273244233e-06,0.0,0.0,0.0,2.5903388273244233e-06,0.0,23.785690518366337,0.866729966131029,-0.0009025572558395092,0.0
1414,1.3793103448275863,1.0344827586206897,1.4285714285714286,0,366241.2062811348,607639.3437241426,254702.20920854763,229405.6766889027,-65017.132769954194,2.441608041874232e-06,0.0,0.0,0.0,2.441608041874232e-06,0.0,23.00385466915398,1.1789765900663196,-0.0022891043978527244,0.0
1415,1.3793103448275863,1.0344827586206897,1.7857142857142858,0,796424.786634544,1091952.341532416,262363.94562807167,333458.04058124614,86391.52194436548,5.309498577563627e-06,0.0,0.0,0.0,5.309498577563627e-06,0.0,24.8961888101256,1.495655633002889,0.0034122490001335243,0.0
1416,1.3793103448275863,1.0344827586206897,2.142857142857143,0,507048.3644763325,1059279.951592072,802803.4251288385,475231.544278361,410622.86650104966,3.3803224298422167e-06,0.0,0.0,0.0,3.3803224298422167e-06,0.0,23.254216971716367,1.8121858634562307,0.022011477940007504,0.0
1417,1.3793103448275863,1.0344827586206897,2.5,0,558922.2681436924,1079895.5056732285,1267009.4242083172,638536.221081304,831082.1913509308,3.7261484542912828e-06,0.0,0.0,0.0,3.7261484542912828e-06,0.0,23.4637555053708,2.121302029302078,0.08310821913509309,0.0
1418,1.3793103448275863,1.0344827586206897,2.857142857142857,0,510138.67697151366,1186216.2423477282,1000739.1677844174,609287.4936296752,243680.19564421414,3.4009245131434245e-06,0.0,0.0,0.0,3.4009245131434245e-06,0.0,23.22022392457051,2.4193287205990877,0.013062500139225977,0.0
1419,1.3793103448275863,1.0344827586206897,3.2142857142857144,0,455302.7457656201,640636.7358980885,521652.8410749543,137655.53846883398,79387.08019141576,3.0353516384374674e-06,0.0,0.0,0.0,3.0353516384374674e-06,0.0,23.89729750848675,2.7099413472886034,0.003135591073174118,0.0
1420,1.3793103448275863,1.0344827586206897,3.5714285714285716,0,449486.71356016526,690582.2267675406,559009.5279867562,189991.58304603922,71390.81834369568,2.9965780904011016e-06,0.0,0.0,0.0,2.9965780904011016e-06,0.0,23.40622493565819,3.000405161494891,0.0025135072753066567,0.0
1421,1.3793103448275863,1.0344827586206897,3.928571428571429,0,185701.76506008994,432423.4962536746,268701.5705071068,230639.66725883182,26524.107969962097,1.2380117670672663e-06,0.0,0.0,0.0,1.2380117670672663e-06,0.0,23.02821949838027,3.295301394702458,0.0008992544528459241,0.0
1422,1.3793103448275863,1.0344827586206897,4.285714285714286,0,247427.60962226684,394597.66360852536,140789.33067405198,154087.0730132645,-84331.01974628869,1.649517397481779e-06,0.0,0.0,0.0,1.649517397481779e-06,0.0,22.605850870502994,3.594765819756845,-0.002825649364124691,0.0
1423,1.3793103448275863,1.0344827586206897,4.642857142857143,0,246667.34003790747,401703.0213596524,116900.15451905491,262506.5717005224,-519.2458615684794,1.6444489335860498e-06,0.0,0.0,0.0,1.6444489335860498e-06,0.0,23.814284716318056,3.8968978067217432,-1.733555930754198e-05,0.0
1424,1.3793103448275863,1.0344827586206897,5.0,0,312124.43306387373,507134.2562519286,205642.12449837374,185366.1666955459,-32492.843249124875,2.0808295537591584e-06,0.0,0.0,0.0,2.0808295537591584e-06,0.0,23.856965333485256,4.200089383943982,-0.001083615460818774,0.0
1425,1.7241379310344829,1.0344827586206897,0.0,0,401392.2426473918,426503.69113602483,380206.5649760425,3970.395574310384,566.4350651184936,2.6759482843159453e-06,0.0,0.0,0.0,2.6759482843159453e-06,0.0,23.701761357652327,-0.049906249384656744,1.889024575061833e-05,0.0
1426,1.7241379310344829,1.0344827586206897,0.35714285714285715,0,132690.4622731626,383956.21646114736,252415.37892323438,250145.25960544532,-16767.150051679168,8.846030818210839e-07,0.0,0.0,0.0,8.846030818210839e-07,0.0,23.427513714914493,0.25406358740349455,-0.000559788619713449,0.0
1427,1.7241379310344829,1.0344827586206897,0.7142857142857143,0,367083.6429523847,589072.3468702659,350062.717145602,166407.18071285918,76864.18339825553,2.4472242863492315e-06,0.0,0.0,0.0,2.4472242863492315e-06,0.0,23.380263749915514,0.5591447785827378,0.0025754607450101737,0.0
1428,1.7241379310344829,1.0344827586206897,1.0714285714285714,0,409673.94060978974,377305.9483587933,468581.78494369955,20968.39618501548,4193.976765411553,2.731159604065265e-06,0.0,0.0,0.0,2.731159604065265e-06,0.0,23.933361778883828,0.8670238500012687,0.0001421895992015928,0.0
1429,1.7241379310344829,1.0344827586206897,1.4285714285714286,0,319039.09748243063,532826.1363817903,253939.88368351458,184929.68368754705,23408.835495351912,2.1269273165495375e-06,0.0,0.0,0.0,2.1269273165495375e-06,0.0,23.49881444445835,1.179694283017494,0.0008241715067721952,0.0
1430,1.7241379310344829,1.0344827586206897,1.7857142857142858,0,656833.9890417637,856746.3722122476,603039.7364609303,110897.419140082,76492.4168090718,4.378893260278425e-06,0.0,0.0,0.0,4.378893260278425e-06,0.0,24.11633966900709,1.497013671878776,0.003021259110849307,0.0
1431,1.7241379310344829,1.0344827586206897,2.142857142857143,0,250151.39540028866,756510.0297956592,907040.6747453738,618278.0119616059,476774.57999384135,1.6676759693352577e-06,0.0,0.0,0.0,1.6676759693352577e-06,0.0,23.509286170681676,1.8141769783246733,0.025557546853918214,0.0
1432,1.7241379310344829,1.0344827586206897,2.5,0,853979.8412878027,1448086.6055182363,697390.2000397131,519003.1326117593,733668.678889162,5.6931989419186846e-06,0.0,0.0,0.0,5.6931989419186846e-06,0.0,23.495881226333168,2.1235640210683577,0.07336686788891619,0.0
1433,1.7241379310344829,1.0344827586206897,2.857142857142857,0,766988.7221561657,885914.9567508462,1090123.052324814,241697.36463229446,510355.73771005985,5.113258147707772e-06,0.0,0.0,0.0,5.113258147707772e-06,0.0,23.75370691280181,2.4213198354675303,0.02735766801757622,0.0
1434,1.7241379310344829,1.0344827586206897,3.2142857142857144,0,429354.66322338814,882586.3089950118,486902.20466153615,426053.33310842176,50128.894517821594,2.862364421489254e-06,0.0,0.0,0.0,2.862364421489254e-06,0.0,24.26888488635603,2.7112993861644905,0.001979965931221701,0.0
1435,1.7241379310344829,1.0344827586206897,3.5714285714285716,0,145347.12443149305,427202.23127193295,329738.0740873807,260142.8940756792,79473.33772901786,9.68980829543287e-07,0.0,0.0,0.0,9.68980829543287e-07,0.0,24.166120066348043,3.0011228544460655,0.002798074279147542,0.0
1436,1.7241379310344829,1.0344827586206897,3.928571428571429,0,354065.79996354756,518340.65001648513,510951.213197419,160637.9686012456,22893.14431785117,2.3604386664236505e-06,0.0,0.0,0.0,2.3604386664236505e-06,0.0,23.558365732604926,3.295595278572698,0.0007761528489774672,0.0
1437,1.7241379310344829,1.0344827586206897,4.285714285714286,0,412922.2946838424,539623.0324238747,355525.21084025694,66672.80171692713,-6735.2055082736515,2.7528152978922828e-06,0.0,0.0,0.0,2.7528152978922828e-06,0.0,23.400353230799965,3.5948590642970237,-0.00022567412583126157,0.0
1438,1.7241379310344829,1.0344827586206897,4.642857142857143,0,367838.452862479,516375.1596146834,389854.961994747,101974.62294555694,37092.952629497464,2.452256352416527e-06,0.0,0.0,0.0,2.452256352416527e-06,0.0,22.987794612914755,3.896920730260638,0.0012383865289905531,0.0
1439,1.7241379310344829,1.0344827586206897,5.0,0,345765.5897739412,462533.8506768653,427617.0097253816,100634.6461246759,21712.94401561433,2.305103931826275e-06,0.0,0.0,0.0,2.305103931826275e-06,0.0,23.942727067164192,4.200093750615343,0.0007241127424527815,0.0
1440,2.0689655172413794,1.0344827586206897,0.0,0,171874.1048488577,415477.9001967057,248267.93745880702,239291.44558127454,36040.34977392413,1.1458273656590513e-06,0.0,0.0,0.0,1.1458273656590513e-06,0.0,22.699197841309765,-0.04990214827301091,0.001201922525797813,0.0
1441,2.0689655172413794,1.0344827586206897,0.35714285714285715,0,372706.66097543266,385485.3696366503,413915.05657054024,27807.6616709444,3736.0586454467557,2.484711073169551e-06,0.0,0.0,0.0,2.484711073169551e-06,0.0,24.448442931676517,0.25408511684423896,0.00012473217606194748,0.0
1442,2.0689655172413794,1.0344827586206897,0.7142857142857143,0,358154.7475587765,565707.551677307,262098.91012959965,170713.65920668474,-10536.395143898742,2.3876983170585102e-06,0.0,0.0,0.0,2.3876983170585102e-06,0.0,24.022134462811312,0.5592323524434646,-0.00035303922955152214,0.0
1443,2.0689655172413794,1.0344827586206897,1.0714285714285714,0,199060.85975478668,387332.4084711157,266181.1110907365,157591.1656324615,6380.561500904575,1.3270723983652446e-06,0.0,0.0,0.0,1.3270723983652446e-06,0.0,23.23232266465713,0.8672998612837834,0.00021632200969184606,0.0
1444,2.0689655172413794,1.0344827586206897,1.4285714285714286,0,88727.47362487268,414788.5399377689,337865.1885855596,317720.865520828,-19608.15366075209,5.915164908324846e-07,0.0,0.0,0.0,5.915164908324846e-07,0.0,24.225484144064055,1.180368329373777,-0.000690358200467154,0.0
1445,2.0689655172413794,1.0344827586206897,1.7857142857142858,0,473764.82873347116,849429.7952334163,431499.50267688767,334762.48038651695,152384.81037226523,3.1584321915564745e-06,0.0,0.0,0.0,3.1584321915564745e-06,0.0,23.888863559664777,1.4982891214348637,0.006018818804502053,0.0
1446,2.0689655172413794,1.0344827586206897,2.142857142857143,0,384489.94189595286,933852.2110087835,960130.0403928886,563175.2555478445,582099.086867108,2.563266279306352e-06,0.0,0.0,0.0,2.563266279306352e-06,0.0,23.8533532795259,1.8160470032703258,0.031203477094817626,0.0
1447,2.0689655172413794,1.0344827586206897,2.5,0,639383.1834713247,1058556.9896013567,984659.1836216454,385435.7899736606,829743.6315338094,4.2625545564754984e-06,0.0,0.0,0.0,4.2625545564754984e-06,0.0,23.4907797869784,2.125688449496293,0.08297436315338094,0.0
1448,2.0689655172413794,1.0344827586206897,2.857142857142857,0,568222.8429285706,790022.8593338582,668373.7318019354,170827.16759487166,576431.2364875538,3.7881522861904705e-06,0.0,0.0,0.0,3.7881522861904705e-06,0.0,23.905305337103925,2.4231898604131827,0.03089965143440107,0.0
1449,2.0689655172413794,1.0344827586206897,3.2142857142857144,0,402976.68862017826,677264.0959693643,625899.0360868733,251067.6030521257,163445.11307329536,2.686511257467855e-06,0.0,0.0,0.0,2.686511257467855e-06,0.0,22.925323805971598,2.7125748357205786,0.006455673092785899,0.0
1450,2.0689655172413794,1.0344827586206897,3.5714285714285716,0,204636.3086698247,514677.63368270366,337532.08940507873,290677.34981547686,-7460.243242067907,1.3642420577988315e-06,0.0,0.0,0.0,1.3642420577988315e-06,0.0,23.669873848270466,3.001796900802349,-0.00026265808544483353,0.0
1451,2.0689655172413794,1.0344827586206897,3.928571428571429,0,206755.32802110066,472228.1338305982,285685.333663421,249925.32887031158,37927.16898951996,1.3783688534740045e-06,0.0,0.0,0.0,1.3783688534740045e-06,0.0,23.303244192031013,3.2958712898552127,0.0012858557066759823,0.0
1452,2.0689655172413794,1.0344827586206897,4.285714285714286,0,332265.548007767,520272.1118961292,310231.2641057524,137200.38682159627,-56073.29778847655,2.2151036533851135e-06,0.0,0.0,0.0,2.2151036533851135e-06,0.0,23.503889511854243,3.5949466381577504,-0.0018788279652856457,0.0
1453,2.0689655172413794,1.0344827586206897,4.642857142857143,0,335653.6737118978,481632.0909755466,345388.9912502815,99278.53763581476,8107.379816484836,2.237691158079319e-06,0.0,0.0,0.0,2.237691158079319e-06,0.0,23.30819430542861,3.8969422597013823,0.0002706732475688805,0.0
1454,2.0689655172413794,1.0344827586206897,5.0,0,304764.11814887106,419000.2950668969,338907.0507714776,82187.81929930941,-51506.93066384978,2.03176078765914e-06,0.0,0.0,0.0,2.03176078765914e-06,0.0,23.338536248005678,4.200097851726989,-0.0017177230683920355,0.0
1455,2.413793103448276,1.0344827586206897,0.0,0,218909.5681254757,411851.671388957,269039.7150639929,159821.89118239304,-4702.603674253744,1.4593971208365046e-06,0.0,0.0,0.0,1.4593971208365046e-06,0.0,24.291559870700954,-0.04989834847740244,-0.0001568288133006574,0.0
1456,2.413793103448276,1.0344827586206897,0.35714285714285715,0,254633.82996282948,472700.8083443759,372926.3625063075,183288.67580252414,-61753.614431647264,1.6975588664188632e-06,0.0,0.0,0.0,1.6975588664188632e-06,0.0,22.935637457578242,0.2541050644783095,-0.0020617081900299685,0.0
1457,2.413793103448276,1.0344827586206897,0.7142857142857143,0,249759.36470343932,539823.9371011029,282074.1813438255,298906.48779372784,47094.4826027248,1.6650624313562622e-06,0.0,0.0,0.0,1.6650624313562622e-06,0.0,23.861137923528343,0.5593134920953795,0.0015779780111816685,0.0
1458,2.413793103448276,1.0344827586206897,1.0714285714285714,0,240730.7750562324,454525.219407699,252253.6171629498,188265.35809668674,-17222.094593134254,1.604871833708216e-06,0.0,0.0,0.0,1.604871833708216e-06,0.0,23.09619696224869,0.8675555935217135,-0.0005838856208754839,0.0
1459,2.413793103448276,1.0344827586206897,1.4285714285714286,0,233356.12981929156,466852.61888192466,209371.39967193193,269317.7534132313,53168.86627956963,1.5557075321286103e-06,0.0,0.0,0.0,1.5557075321286103e-06,0.0,24.32702830136091,1.1809928523338182,0.0018719540595559857,0.0
1460,2.413793103448276,1.0344827586206897,1.7857142857142858,0,450710.11600119347,591454.7466147649,661719.1222520557,180003.46317295768,72165.28631105428,3.0047341066746233e-06,0.0,0.0,0.0,3.0047341066746233e-06,0.0,23.884911619367468,1.4994708614216261,0.002850348280909118,0.0
1461,2.413793103448276,1.0344827586206897,2.142857142857143,0,326352.304183174,777378.3964528734,768105.156062467,446488.29856714315,210746.81554418037,2.1756820278878264e-06,0.0,0.0,0.0,2.1756820278878264e-06,0.0,22.97340118535471,1.8177796341250487,0.011297103156493838,0.0
1462,2.413793103448276,1.0344827586206897,2.5,0,787318.1595610619,1457980.220134855,954839.5701756764,550660.7059498127,680045.9142877623,5.24878773040708e-06,0.0,0.0,0.0,5.24878773040708e-06,0.0,23.847814697222873,2.1276567923526004,0.06800459142877623,0.0
1463,2.413793103448276,1.0344827586206897,2.857142857142857,0,727090.232184219,1219817.2672939182,994096.4933416841,406637.09272608603,354367.0844854382,4.84726821456146e-06,0.0,0.0,0.0,4.84726821456146e-06,0.0,23.337283695524384,2.424922491267906,0.01899588137719081,0.0
1464,2.413793103448276,1.0344827586206897,3.2142857142857144,0,473378.33456766146,823221.3176335094,446136.17410697555,291980.4185665731,76648.14283056889,3.1558555637844097e-06,0.0,0.0,0.0,3.1558555637844097e-06,0.0,23.803389514671593,2.713756575707341,0.0030274098991348794,0.0
1465,2.413793103448276,1.0344827586206897,3.5714285714285716,0,282884.2787755099,501934.1812264906,219018.08364282508,219081.7319996943,84168.56297610237,1.8858951918367326e-06,0.0,0.0,0.0,1.8858951918367326e-06,0.0,23.030472930870747,3.00242142376239,0.002963382411083147,0.0
1466,2.413793103448276,1.0344827586206897,3.928571428571429,0,311260.51770864206,568071.5827759517,316515.0035234509,219981.40534264524,74479.83623665919,2.0750701180576136e-06,0.0,0.0,0.0,2.0750701180576136e-06,0.0,24.314900743927943,3.2961270220931427,0.002525111285887542,0.0
1467,2.413793103448276,1.0344827586206897,4.285714285714286,0,100419.69618081945,388641.47716398205,327717.1468758619,272737.6075351909,-9944.032501293243,6.694646412054629e-07,0.0,0.0,0.0,6.694646412054629e-07,0.0,22.70545055263779,3.5950277778096655,-0.00033319114601778645,0.0
1468,2.413793103448276,1.0344827586206897,4.642857142857143,0,463392.19839686906,510885.68670079374,277706.01326571585,-22780.593199066527,-54057.8160607891,3.0892813226457936e-06,0.0,0.0,0.0,3.0892813226457936e-06,0.0,23.305103038438777,3.8969622073354526,-0.00180477601405864,0.0
1469,2.413793103448276,1.0344827586206897,5.0,0,159000.0360065375,425527.9668181823,426598.4193700603,267065.8596303778,-31911.17505629809,1.0600002400435833e-06,0.0,0.0,0.0,1.0600002400435833e-06,0.0,23.172635846004816,4.200101651522598,-0.0010642172000392836,0.0
1470,2.7586206896551726,1.0344827586206897,0.0,0,318512.6702461814,368839.91403881856,85148.47520239881,24288.25796471268,20140.38428944396,2.1234178016412094e-06,0.0,0.0,0.0,2.1234178016412094e-06,0.0,23.88816431258307,-0.04989488906761649,0.0006716688852232347,0.0
1471,2.7586206896551726,1.0344827586206897,0.35714285714285715,0,245419.80364944844,469790.8710421177,388099.8962746495,193943.64216592256,-4546.306211269687,1.6361320243296563e-06,0.0,0.0,0.0,1.6361320243296563e-06,0.0,23.457015138765513,0.2541232252026275,-0.00015178312778005282,0.0
1472,2.7586206896551726,1.0344827586206897,0.7142857142857143,0,91660.29323962757,455877.91763084295,361621.77038220636,367055.1994324667,-66371.4758931615,6.110686215975171e-07,0.0,0.0,0.0,6.110686215975171e-07,0.0,23.615807373034002,0.5593873632544591,-0.0022238853415712735,0.0
1473,2.7586206896551726,1.0344827586206897,1.0714285714285714,0,256927.4587931921,465099.73723957676,343532.2768521141,169949.3423660441,-21583.080451769827,1.7128497252879474e-06,0.0,0.0,0.0,1.7128497252879474e-06,0.0,23.391976175649823,0.8677884172568919,-0.0007317373773461371,0.0
1474,2.7586206896551726,1.0344827586206897,1.4285714285714286,0,431969.23295831104,512678.56988471065,16556.809517325448,219954.31107751155,72507.28946601083,2.87979488638874e-06,0.0,0.0,0.0,2.87979488638874e-06,0.0,23.03325489295408,1.1815614305054185,0.002552815667530133,0.0
1475,2.7586206896551726,1.0344827586206897,1.7857142857142858,0,460620.4397063183,717179.1679558791,691421.090613317,244220.1573623756,97242.24512402494,3.0708029313754554e-06,0.0,0.0,0.0,3.0708029313754554e-06,0.0,23.607940765176135,1.5005467410993498,0.003840825421606482,0.0
1476,2.7586206896551726,1.0344827586206897,2.142857142857143,0,1032328.4561378856,1582124.2405262592,529682.1218366186,571159.7114388588,408884.17568456946,6.882189707585904e-06,0.0,0.0,0.0,6.882189707585904e-06,0.0,23.075498708454305,1.8193570558476566,0.021918275252885963,0.0
1477,2.7586206896551726,1.0344827586206897,2.5,0,894249.1035969269,1558173.4102482824,753936.1740715317,595177.5237276829,677919.1652606309,5.961660690646179e-06,0.0,0.0,0.0,5.961660690646179e-06,0.0,22.81566281163183,2.1294488109875074,0.06779191652606309,0.0
1478,2.7586206896551726,1.0344827586206897,2.857142857142857,0,816819.8908978866,1225469.3136227117,712949.4909980961,283507.3476765712,354573.7650972487,5.445465939319244e-06,0.0,0.0,0.0,5.445465939319244e-06,0.0,24.049376290809334,2.4264999129905136,0.01900696051110817,0.0
1479,2.7586206896551726,1.0344827586206897,3.2142857142857144,0,408107.40736299456,738814.3640214604,564743.739120613,272534.77791022515,115431.8273698881,2.7207160490866304e-06,0.0,0.0,0.0,2.7207160490866304e-06,0.0,23.12161820362305,2.7148324553850642,0.004559268417335428,0.0
1480,2.7586206896551726,1.0344827586206897,3.5714285714285716,0,453322.2249714213,606095.652878688,417650.0227974463,88945.86656465352,13507.928146157168,3.022148166476142e-06,0.0,0.0,0.0,3.022148166476142e-06,0.0,24.474442264386774,3.00299000193399,0.0004755832256499667,0.0
1481,2.7586206896551726,1.0344827586206897,3.928571428571429,0,280006.17143876187,479079.890064668,381392.4541645139,163316.09101496058,33748.562598781704,1.8667078095917458e-06,0.0,0.0,0.0,1.8667078095917458e-06,0.0,24.45945339235567,3.296359845828321,0.0011441872137028263,0.0
1482,2.7586206896551726,1.0344827586206897,4.285714285714286,0,265542.4162301529,423565.5977611833,363703.2635483427,133201.8088035625,23039.264358583307,1.770282774867686e-06,0.0,0.0,0.0,1.770282774867686e-06,0.0,24.19820172481634,3.595101648968745,0.0007719684035671416,0.0
1483,2.7586206896551726,1.0344827586206897,4.642857142857143,0,188362.00065055,394515.9856424252,315258.1824935235,179476.44080740915,828.3320011459984,1.2557466710036667e-06,0.0,0.0,0.0,1.2557466710036667e-06,0.0,23.192197127678458,3.8969803680597708,2.765471926694905e-05,0.0
1484,2.7586206896551726,1.0344827586206897,5.0,0,272607.29146421247,413137.28148734063,328885.2318470745,108350.01198498445,16134.247550524633,1.8173819430947497e-06,0.0,0.0,0.0,1.8173819430947497e-06,0.0,24.82562866238627,4.200105110932384,0.0005380667970598972,0.0
1485,3.1034482758620694,1.0344827586206897,0.0,0,49302.36970628711,149618.8876660184,197023.29455599387,146020.16962083202,-24228.054454824367,3.286824647085807e-07,0.0,0.0,0.0,3.286824647085807e-07,0.0,22.567862078609302,-0.049891811683883444,-0.0008079900608117435,0.0
1486,3.1034482758620694,1.0344827586206897,0.35714285714285715,0,237479.4066921061,426196.76056931826,224849.97526380324,164305.8979011004,-1969.9034003512015,1.5831960446140406e-06,0.0,0.0,0.0,1.5831960446140406e-06,0.0,23.307318523593736,0.25413938042015144,-6.57672593167373e-05,0.0
1487,3.1034482758620694,1.0344827586206897,0.7142857142857143,0,195061.8753748233,370194.42944820493,360670.78853155836,170545.17886030354,55021.770053743065,1.300412502498822e-06,0.0,0.0,0.0,1.300412502498822e-06,0.0,24.170163159255523,0.5594530767481931,0.001843594800977326,0.0
1488,3.1034482758620694,1.0344827586206897,1.0714285714285714,0,316263.2451240103,557332.1622433568,366659.69053061854,192263.75067451157,723.6063306995014,2.108421634160069e-06,0.0,0.0,0.0,2.108421634160069e-06,0.0,24.135636029404363,0.8679955300361334,2.453263332082405e-05,0.0
1489,3.1034482758620694,1.0344827586206897,1.4285714285714286,0,282876.7274718387,493111.6368280305,414955.54289414285,179373.87006052164,-4494.127035492836,1.885844849812258e-06,0.0,0.0,0.0,1.885844849812258e-06,0.0,23.400452883463476,1.1820672200257434,-0.00015822792428966606,0.0
1490,3.1034482758620694,1.0344827586206897,1.7857142857142858,0,323535.00084892486,536328.3794700205,420162.07039351464,170748.98389625497,88931.11305684509,2.156900005659499e-06,0.0,0.0,0.0,2.156900005659499e-06,0.0,23.374932548989957,1.5015038103174514,0.0035125564960459942,0.0
1491,3.1034482758620694,1.0344827586206897,2.142857142857143,0,550439.7326334519,1032128.2312090553,919612.7739615783,434124.156799875,271687.0878223085,3.6695982175563462e-06,0.0,0.0,0.0,3.6695982175563462e-06,0.0,23.664797907942123,1.8207602813253114,0.01456381226682206,0.0
1492,3.1034482758620694,1.0344827586206897,2.5,0,472705.8050651352,970013.4632355064,573771.8370029153,446784.65518108074,734873.7300107493,3.151372033767568e-06,0.0,0.0,0.0,3.151372033767568e-06,0.0,23.733738799280424,2.1310429352276485,0.07348737300107493,0.0
1493,3.1034482758620694,1.0344827586206897,2.857142857142857,0,447444.13102426904,1141236.675184136,954405.636885835,630655.8737614634,570018.5475539997,2.982960873495127e-06,0.0,0.0,0.0,2.982960873495127e-06,0.0,23.54724150369245,2.4279031384681686,0.03055589863222561,0.0
1494,3.1034482758620694,1.0344827586206897,3.2142857142857144,0,295169.0680807916,744596.6906544638,455843.6733372505,443404.84475381044,17222.06650426145,1.9677937872052776e-06,0.0,0.0,0.0,1.9677937872052776e-06,0.0,24.615695460166513,2.715789524603166,0.0006802285442690009,0.0
1495,3.1034482758620694,1.0344827586206897,3.5714285714285716,0,490060.6155977553,585311.5488812422,509304.5462915705,61688.22856328292,19292.565669213796,3.267070770651702e-06,0.0,0.0,0.0,3.267070770651702e-06,0.0,23.449616947981784,3.003495791454315,0.0006792470697764807,0.0
1496,3.1034482758620694,1.0344827586206897,3.928571428571429,0,168202.81751229783,355831.0901021521,167263.636317311,221249.41848668476,-722.1765597131389,1.121352116748652e-06,0.0,0.0,0.0,1.121352116748652e-06,0.0,24.52940101466954,3.2965669586075625,-2.4484159384302134e-05,0.0
1497,3.1034482758620694,1.0344827586206897,4.285714285714286,0,191961.17500247044,413067.0230529131,431890.175544463,231210.83043514172,-2008.2120285282108,1.2797411666831364e-06,0.0,0.0,0.0,1.2797411666831364e-06,0.0,24.003867845033366,3.595167362462479,-6.728844330959275e-05,0.0
1498,3.1034482758620694,1.0344827586206897,4.642857142857143,0,226259.2849386569,297320.0180380867,256713.91401804052,53507.18490386489,-2745.2760540843606,1.5083952329243792e-06,0.0,0.0,0.0,1.5083952329243792e-06,0.0,24.315231832446443,3.8969965232772945,-9.165387607981512e-05,0.0
1499,3.1034482758620694,1.0344827586206897,5.0,0,236317.00415490693,466256.72651477926,255189.88313837585,210944.0767170333,29207.369033564155,1.575446694366046e-06,0.0,0.0,0.0,1.575446694366046e-06,0.0,23.062916105398084,4.200108188316117,0.000974047005118951,0.0
1500,3.4482758620689657,1.0344827586206897,0.0,0,184366.42919908723,436950.5957298014,292534.8264701843,229284.06646080114,-43471.27847309817,1.2291095279939148e-06,0.0,0.0,0.0,1.2291095279939148e-06,0.0,24.297336568248802,-0.04988915924157275,-0.0014497392269996634,0.0
1501,3.4482758620689657,1.0344827586206897,0.35714285714285715,0,307134.9146560524,435210.4907784903,221962.1433631767,83177.04148358338,27267.944190148388,2.047566097707016e-06,0.0,0.0,0.0,2.047566097707016e-06,0.0,24.28437736099961,0.25415330483979365,0.0009103684760725254,0.0
1502,3.4482758620689657,1.0344827586206897,0.7142857142857143,0,222797.59970457648,397340.5819961915,272302.38468292734,140109.240931416,2751.649476992959,1.4853173313638433e-06,0.0,0.0,0.0,1.4853173313638433e-06,0.0,23.45979481130766,0.5595097161751492,9.219853641460763e-05,0.0
1503,3.4482758620689657,1.0344827586206897,1.0714285714285714,0,244101.83866381165,443178.5315439634,226089.76590974606,178941.95715768062,-71873.78925833572,1.6273455910920777e-06,0.0,0.0,0.0,1.6273455910920777e-06,0.0,24.221514518344126,0.8681740435873838,-0.0024367577264676732,0.0
1504,3.4482758620689657,1.0344827586206897,1.4285714285714286,0,373287.14328177425,628164.4413946619,266217.7599799063,244486.2877224659,24041.8486592476,2.4885809552118284e-06,0.0,0.0,0.0,2.4885809552118284e-06,0.0,23.062324251921194,1.182503167453947,0.0008464584510842324,0.0
1505,3.4482758620689657,1.0344827586206897,1.7857142857142858,0,463019.56015747826,642401.2470234263,543209.2698859469,137824.13044815822,79520.85022987518,3.0867970677165216e-06,0.0,0.0,0.0,3.0867970677165216e-06,0.0,23.56970118674803,1.5023287223559145,0.0031408746550546985,0.0
1506,3.4482758620689657,1.0344827586206897,2.142857142857143,0,466733.8195983513,1037318.8611155143,524536.1422578195,637292.9975187995,292691.51765321544,3.111558797322342e-06,0.0,0.0,0.0,3.111558797322342e-06,0.0,24.39530037568967,1.8219697420072585,0.015689756732129283,0.0
1507,3.4482758620689657,1.0344827586206897,2.5,0,832510.8846873495,929623.0929922139,648858.3737837569,-6970.766440270502,704314.5414990957,5.5500725645823305e-06,0.0,0.0,0.0,5.5500725645823305e-06,0.0,23.725498409523073,2.1324169343612813,0.07043145414990958,0.0
1508,3.4482758620689657,1.0344827586206897,2.857142857142857,0,352622.073358299,834058.5272024757,429411.5820962089,670951.9385340926,247825.6385191423,2.3508138223886598e-06,0.0,0.0,0.0,2.3508138223886598e-06,0.0,23.6891043425704,2.4291125991501157,0.01328471700009047,0.0
1509,3.4482758620689657,1.0344827586206897,3.2142857142857144,0,321068.9491602083,694572.022243907,408211.483386724,347471.4216712428,25115.00902900951,2.140459661068055e-06,0.0,0.0,0.0,2.140459661068055e-06,0.0,24.52823405860936,2.716614436641629,0.0009919800290446377,0.0
1510,3.4482758620689657,1.0344827586206897,3.5714285714285716,0,402358.0030022067,580568.9174637365,457650.22837978095,131088.68497197947,7736.350277929743,2.682386686681378e-06,0.0,0.0,0.0,2.682386686681378e-06,0.0,22.853945648565166,3.003931738882519,0.0002723791820718673,0.0
1511,3.4482758620689657,1.0344827586206897,3.928571428571429,0,163105.2080992201,388255.3415936298,217225.21991648173,234440.70521893085,-68718.40572474338,1.0873680539948006e-06,0.0,0.0,0.0,1.0873680539948006e-06,0.0,23.746601593818827,3.296745472158813,-0.0023297798519908764,0.0
1512,3.4482758620689657,1.0344827586206897,4.285714285714286,0,262351.15948609397,378470.1887636562,219925.67660455572,75645.12207356463,-45728.84671197616,1.749007729907293e-06,0.0,0.0,0.0,1.749007729907293e-06,0.0,23.807141940552146,3.5952240018894353,-0.0015322201370574252,0.0
1513,3.4482758620689657,1.0344827586206897,4.642857142857143,0,172072.17711168595,363726.8278792433,292520.1270923327,167480.8976439604,-39669.23843172095,1.1471478474112396e-06,0.0,0.0,0.0,1.1471478474112396e-06,0.0,23.446523588988125,3.8970104476969367,-0.0013243984909977525,0.0
1514,3.4482758620689657,1.0344827586206897,5.0,0,153694.38423701056,353530.76181015297,247751.27335044538,177231.1775678602,3134.1976249851314,1.0246292282467371e-06,0.0,0.0,0.0,1.0246292282467371e-06,0.0,24.53670319408674,4.200110840758428,0.00010452347852897857,0.0
1515,3.793103448275862,1.0344827586206897,0.0,0,251317.79240282552,403634.953260239,436656.432676275,170460.25246138257,16821.609387360615,1.6754519493521702e-06,0.0,0.0,0.0,1.6754519493521702e-06,0.0,23.36064970198046,-0.049886974009061495,0.0005609898730080853,0.0
1516,3.793103448275862,1.0344827586206897,0.35714285714285715,0,172645.47444359955,267066.4283066232,254465.40046551812,88465.68101749291,-34035.79136044145,1.1509698296239971e-06,0.0,0.0,0.0,1.1509698296239971e-06,0.0,23.3716539984545,0.25416477656695613,-0.0011363200429287256,0.0
1517,3.793103448275862,1.0344827586206897,0.7142857142857143,0,316463.99215556175,480418.80169345334,293349.5824362494,115032.59884548002,-36285.75022247096,2.109759947703745e-06,0.0,0.0,0.0,2.109759947703745e-06,0.0,22.589028420018554,0.5595563789495683,-0.001215813675102923,0.0
1518,3.793103448275862,1.0344827586206897,1.0714285714285714,0,178441.30562223736,341576.76900041895,350181.32978482364,167593.40582463983,5694.333314985848,1.189608704148249e-06,0.0,0.0,0.0,1.189608704148249e-06,0.0,24.385262555412393,0.8683211131821946,0.00019305661835221496,0.0
1519,3.793103448275862,1.0344827586206897,1.4285714285714286,0,362883.2423217931,523995.52432624844,405190.1617434547,116601.15933514676,10845.009645699765,2.419221615478621e-06,0.0,0.0,0.0,2.419221615478621e-06,0.0,23.669962346227056,1.182862325686897,0.0003818279616015131,0.0
1520,3.793103448275862,1.0344827586206897,1.7857142857142858,0,191552.19168581857,489311.49773438135,489742.5874233392,297975.2147073919,23162.159449344726,1.2770146112387904e-06,0.0,0.0,0.0,1.2770146112387904e-06,0.0,23.675577192998208,1.5030083317099465,0.0009148473558881957,0.0
1521,3.793103448275862,1.0344827586206897,2.142857142857143,0,721841.7321921441,1101795.3068643454,648942.990218576,269358.3641361211,544239.890122388,4.812278214614294e-06,0.0,0.0,0.0,4.812278214614294e-06,0.0,23.737483486685147,1.822966164358321,0.02917403124083064,0.0
1522,3.793103448275862,1.0344827586206897,2.5,0,594849.8334833393,1297105.028261712,1263278.4144130806,686063.6673441447,680848.5684782236,3.965665556555595e-06,0.0,0.0,0.0,3.965665556555595e-06,0.0,24.44545648335826,2.1335489128269955,0.06808485684782237,0.0
1523,3.793103448275862,1.0344827586206897,2.857142857142857,0,370825.7793014769,1046473.0769491254,660870.3164312866,692443.1573266232,349988.2882144457,2.472171862009846e-06,0.0,0.0,0.0,2.472171862009846e-06,0.0,24.659993132847372,2.430109021501178,0.018761155585263943,0.0
1524,3.793103448275862,1.0344827586206897,3.2142857142857144,0,263010.61397694267,525461.5126715086,401197.22059418244,223343.1746333493,43767.562286984146,1.7534040931796177e-06,0.0,0.0,0.0,1.7534040931796177e-06,0.0,22.992067314141277,2.717294045995661,0.0017287092215856467,0.0
1525,3.793103448275862,1.0344827586206897,3.5714285714285716,0,216400.1509548645,480738.5799297034,261374.97070533838,267428.92894246004,51948.584723109176,1.44266767303243e-06,0.0,0.0,0.0,1.44266767303243e-06,0.0,23.63157134998926,3.0042908971154687,0.001828990739604678,0.0
1526,3.793103448275862,1.0344827586206897,3.928571428571429,0,160484.72762239244,300785.7801953642,139732.83546398097,140875.3702538254,21728.030813863414,1.0698981841492829e-06,0.0,0.0,0.0,1.0698981841492829e-06,0.0,23.300184742112645,3.296892541753624,0.0007366516711162386,0.0
1527,3.793103448275862,1.0344827586206897,4.285714285714286,0,266973.0641631581,363108.3790097786,330553.3249805842,81350.63930215802,-66449.45293412547,1.7798204277543874e-06,0.0,0.0,0.0,1.7798204277543874e-06,0.0,23.760669755497094,3.5952706646638544,-0.0022264980904373377,0.0
1528,3.793103448275862,1.0344827586206897,4.642857142857143,0,356873.6118942595,459712.3221012427,87828.97161030154,120031.07782041149,-26525.995153996402,2.379157412628397e-06,0.0,0.0,0.0,2.379157412628397e-06,0.0,23.831707021004373,3.897021919424099,-0.0008855977412985708,0.0
1529,3.793103448275862,1.0344827586206897,5.0,0,247354.56458646688,441881.798791212,266368.27215924155,158982.69742766963,-17029.225728876194,1.6490304305764458e-06,0.0,0.0,0.0,1.6490304305764458e-06,0.0,23.022627842805036,4.200113025990938,-0.0005679137447006917,0.0
1530,4.137931034482759,1.0344827586206897,0.0,0,307738.09773498785,366231.9117415743,240626.35464986932,15557.339130532526,-436.36404443814644,2.0515873182332525e-06,0.0,0.0,0.0,2.0515873182332525e-06,0.0,24.02486427239931,-0.049885295093204184,-1.4552460721064207e-05,0.0
1531,4.137931034482759,1.0344827586206897,0.35714285714285715,0,197327.66184846577,293996.4721277113,419241.8447664536,191775.5853087299,22902.729650578174,1.3155177456564385e-06,0.0,0.0,0.0,1.3155177456564385e-06,0.0,23.62067465762381,0.25417359030395875,0.0007646312807633934,0.0
1532,4.137931034482759,1.0344827586206897,0.7142857142857143,0,277388.5068714672,413665.02134938503,122243.6999081919,152847.48072370366,-39201.11694411345,1.8492567124764481e-06,0.0,0.0,0.0,1.8492567124764481e-06,0.0,24.24024563073961,0.5595922299958596,-0.0013134978267707548,0.0
1533,4.137931034482759,1.0344827586206897,1.0714285714285714,0,169605.72815106995,378909.9211068194,196189.0722899446,226509.1692305085,-2755.303861030226,1.1307048543404664e-06,0.0,0.0,0.0,1.1307048543404664e-06,0.0,23.869885401413327,0.868434106867573,-9.34138583955756e-05,0.0
1534,4.137931034482759,1.0344827586206897,1.4285714285714286,0,63395.96198281193,235079.60797424446,295103.8283590716,228803.04608952883,80049.05137009046,4.2263974655207957e-07,0.0,0.0,0.0,4.2263974655207957e-07,0.0,23.001365011488335,1.1831382672397874,0.0028183438384396446,0.0
1535,4.137931034482759,1.0344827586206897,1.7857142857142858,0,406865.52132521966,726684.8025714015,415011.0440196979,266407.2006319521,68012.62136833147,2.7124368088347977e-06,0.0,0.0,0.0,2.7124368088347977e-06,0.0,24.171524611163665,1.5035304761112318,0.0026863284039607685,0.0
1536,4.137931034482759,1.0344827586206897,2.142857142857143,0,541352.5975366072,926426.6053955735,549338.483462969,306123.2989201129,286479.06522661983,3.6090173169107144e-06,0.0,0.0,0.0,3.6090173169107144e-06,0.0,23.198909789667653,1.8237317164344309,0.015356737627015697,0.0
1537,4.137931034482759,1.0344827586206897,2.5,0,598723.3368106913,1358785.1173527313,749010.7634887228,771761.3386317589,485879.1109461603,3.9914889120712755e-06,0.0,0.0,0.0,3.9914889120712755e-06,0.0,23.25793223051352,2.1344186127726217,0.04858791109461602,0.0
1538,4.137931034482759,1.0344827586206897,2.857142857142857,0,337274.53343346756,727012.570612261,417141.844944714,776378.9721699486,305786.1056189991,2.2484968895564504e-06,0.0,0.0,0.0,2.2484968895564504e-06,0.0,23.720018905242043,2.430874573577288,0.01639169336950746,0.0
1539,4.137931034482759,1.0344827586206897,3.2142857142857144,0,266387.6680072663,229127.865578911,484721.23064078495,208713.84178736177,-1594.7868324342999,1.7759177867151086e-06,0.0,0.0,0.0,1.7759177867151086e-06,0.0,23.740595437538705,2.717816190396946,-6.299009036910442e-05,0.0
1540,4.137931034482759,1.0344827586206897,3.5714285714285716,0,311963.8062017869,463116.0904856663,103387.08677535021,266890.0698411782,-11794.852612758348,2.0797587080119128e-06,0.0,0.0,0.0,2.0797587080119128e-06,0.0,23.01114590889577,3.004566838668359,-0.0004152697579485841,0.0
1541,4.137931034482759,1.0344827586206897,3.928571428571429,0,261752.6995492637,399456.80160824297,262267.4781872468,97626.651869456,20706.45671011333,1.7450179969950912e-06,0.0,0.0,0.0,1.7450179969950912e-06,0.0,23.81871583982825,3.2970055354390024,0.0007020169507799429,0.0
1542,4.137931034482759,1.0344827586206897,4.285714285714286,0,126685.33251341159,242481.99861748313,212463.4442197203,103483.45467371336,1359.1509311585432,8.445688834227439e-07,0.0,0.0,0.0,8.445688834227439e-07,0.0,23.852852172818302,3.5953065157101456,4.5540584899029805e-05,0.0
1543,4.137931034482759,1.0344827586206897,4.642857142857143,0,196438.157465748,293726.7409568697,329865.5697739006,117867.20317583192,-17529.89147978347,1.30958771643832e-06,0.0,0.0,0.0,1.30958771643832e-06,0.0,23.838025741989885,3.897030733161102,-0.0005852535299647897,0.0
1544,4.137931034482759,1.0344827586206897,5.0,0,320677.0694478827,566321.9573035188,383767.18102725083,196047.97758454937,-65381.98475183156,2.1378471296525515e-06,0.0,0.0,0.0,2.1378471296525515e-06,0.0,23.062835953397784,4.200114704906796,-0.0021804472139571895,0.0
1545,4.482758620689656,1.0344827586206897,0.0,0,228755.27738965533,326997.86375786684,220739.92717840313,64438.91881955646,28977.207602707214,1.5250351825977022e-06,0.0,0.0,0.0,1.5250351825977022e-06,0.0,23.929351557431083,-0.04988415553420404,0.0009663712691715446,0.0
1546,4.482758620689656,1.0344827586206897,0.35714285714285715,0,132744.3950607136,399281.38671385933,340741.5476318402,247329.39900384928,-12278.835184977688,8.849626337380907e-07,0.0,0.0,0.0,8.849626337380907e-07,0.0,24.171895554556105,0.2541795726009765,-0.0004099415928587836,0.0
1547,4.482758620689656,1.0344827586206897,0.7142857142857143,0,91277.811174099,303990.08405437233,222532.39366303445,205337.82114344614,3778.6573721872946,6.0851874116066e-07,0.0,0.0,0.0,6.0851874116066e-07,0.0,23.193569481835038,0.5596165637838144,0.0001266101232154968,0.0
1548,4.482758620689656,1.0344827586206897,1.0714285714285714,0,23835.16575619927,209522.16647164075,182459.76882946654,191651.02502211637,-32595.48957534775,1.5890110504132847e-07,0.0,0.0,0.0,1.5890110504132847e-07,0.0,23.33382487238223,0.8685108009857277,-0.0011050942477130268,0.0
1549,4.482758620689656,1.0344827586206897,1.4285714285714286,0,280421.81619036855,404158.40980279015,438983.3200825442,142775.5740686817,-11851.617981419393,1.869478774602457e-06,0.0,0.0,0.0,1.869478774602457e-06,0.0,24.27000757979183,1.1833255617243443,-0.00041726833662333884,0.0
1550,4.482758620689656,1.0344827586206897,1.7857142857142858,0,199814.04161691276,567520.5816822539,481977.77642073017,339175.817336301,28376.759121134783,1.3320936107794184e-06,0.0,0.0,0.0,1.3320936107794184e-06,0.0,24.671060147897776,1.5038848800256797,0.0011208109981032375,0.0
1551,4.482758620689656,1.0344827586206897,2.142857142857143,0,898562.326322282,816989.917652508,622394.5992195803,-162925.2979374407,216469.19048529566,5.9904155088152135e-06,0.0,0.0,0.0,5.9904155088152135e-06,0.0,23.802621627548614,1.824251332563262,0.011603851611235555,0.0
1552,4.482758620689656,1.0344827586206897,2.5,0,455734.4567190875,1020893.2233312652,874994.2358959841,510075.01739492593,508009.63695147965,3.0382297114605833e-06,0.0,0.0,0.0,3.0382297114605833e-06,0.0,23.66575524983107,2.1350089189491617,0.05080096369514797,0.0
1553,4.482758620689656,1.0344827586206897,2.857142857142857,0,477568.54640726617,934943.535170139,670307.3941810732,383641.5733631111,333616.35741094657,3.1837903093817745e-06,0.0,0.0,0.0,3.1837903093817745e-06,0.0,23.994387349823782,2.4313941897061193,0.01788353667234929,0.0
1554,4.482758620689656,1.0344827586206897,3.2142857142857144,0,504651.4168497767,581364.2911673791,411253.90179635637,13639.546893833029,81029.72980970581,3.3643427789985113e-06,0.0,0.0,0.0,3.3643427789985113e-06,0.0,24.578182369011433,2.718170594311394,0.00320047162385118,0.0
1555,4.482758620689656,1.0344827586206897,3.5714285714285716,0,122179.33706516557,312632.31107413187,181886.46281452736,201358.0495145695,-23356.82816656697,8.145289137677705e-07,0.0,0.0,0.0,8.145289137677705e-07,0.0,23.479729603639214,3.004754133152916,-0.0008223404477886592,0.0
1556,4.482758620689656,1.0344827586206897,3.928571428571429,0,189720.10533281887,395050.50980693585,232547.96490804796,186565.55257419805,-43071.37532393348,1.2648007022187926e-06,0.0,0.0,0.0,1.2648007022187926e-06,0.0,23.66746815306749,3.297082229557157,-0.0014602612119551171,0.0
1557,4.482758620689656,1.0344827586206897,4.285714285714286,0,249090.61486746854,213218.71817560526,288188.2568399765,10223.112800431309,-12451.450583633592,1.6606040991164568e-06,0.0,0.0,0.0,1.6606040991164568e-06,0.0,23.659078791735148,3.5953308494981,-0.00041720630830653096,0.0
1558,4.482758620689656,1.0344827586206897,4.642857142857143,0,165761.17422849333,205504.4137674952,235294.74106515027,56658.412215775636,27158.801600897383,1.1050744948566222e-06,0.0,0.0,0.0,1.1050744948566222e-06,0.0,23.210599940140256,3.89703671545812,0.0009067246380201157,0.0
1559,4.482758620689656,1.0344827586206897,5.0,0,106854.04564739834,399775.0521391701,306653.5391793819,283113.8324705332,-32709.35330923682,7.123603043159889e-07,0.0,0.0,0.0,7.123603043159889e-07,0.0,24.350079645129522,4.200115844465796,-0.0010908359323164914,0.0
1560,4.827586206896552,1.0344827586206897,0.0,0,212396.40161565962,364799.27069522993,257263.35664806282,120140.63340723225,426.672877265182,1.4159760107710641e-06,0.0,0.0,0.0,1.4159760107710641e-06,0.0,23.996493449857873,-0.04988357939967609,1.4229266517913442e-05,0.0
1561,4.827586206896552,1.0344827586206897,0.35714285714285715,0,143485.9779112164,327475.7297245848,173713.41345133283,197152.1873985216,-21878.894801072052,9.56573186074776e-07,0.0,0.0,0.0,9.56573186074776e-07,0.0,22.862022068777343,0.2541825971112195,-0.0007304494970104556,0.0
1562,4.827586206896552,1.0344827586206897,0.7142857142857143,0,83417.02070220471,239584.52135172754,144953.5797511786,207829.83496860802,37509.11828645208,5.561134713480315e-07,0.0,0.0,0.0,5.561134713480315e-07,0.0,23.869718914098204,0.5596288663810778,0.0012568046319593512,0.0
1563,4.827586206896552,1.0344827586206897,1.0714285714285714,0,112568.10452916948,293915.4396173457,228911.10533238633,163932.98959459853,-17126.340098469707,7.504540301944632e-07,0.0,0.0,0.0,7.504540301944632e-07,0.0,24.71125615799993,0.8685495757482053,-0.0005806392287327351,0.0
1564,4.827586206896552,1.0344827586206897,1.4285714285714286,0,138556.5963995408,376986.4963813487,236809.31367401202,240109.44425786837,31342.476496584495,9.237106426636054e-07,0.0,0.0,0.0,9.237106426636054e-07,0.0,24.022569126004058,1.183420253459862,0.0011034968435440246,0.0
1565,4.827586206896552,1.0344827586206897,1.7857142857142858,0,427691.55260660837,388053.5374889969,437324.2887931757,-12868.790314617316,117896.4092588203,2.8512770173773893e-06,0.0,0.0,0.0,2.8512770173773893e-06,0.0,24.69159401936977,1.5040640584025158,0.004656613236560536,0.0
1566,4.827586206896552,1.0344827586206897,2.142857142857143,0,366552.0714110823,719660.1649192256,469844.8664873261,298856.1511467121,448679.362819257,2.443680476073882e-06,0.0,0.0,0.0,2.443680476073882e-06,0.0,23.614264300545646,1.8245140383933798,0.024051500056457405,0.0
1567,4.827586206896552,1.0344827586206897,2.5,0,1164843.5848000175,1123266.5842064735,573247.3537755602,-214743.36575347197,438855.9753092722,7.765623898666783e-06,0.0,0.0,0.0,7.765623898666783e-06,0.0,24.38216153400476,2.135307364023375,0.04388559753092722,0.0
1568,4.827586206896552,1.0344827586206897,2.857142857142857,0,925900.430418307,1085544.8833656628,768994.353839743,42883.71372777161,200437.07885492843,6.172669536122046e-06,0.0,0.0,0.0,6.172669536122046e-06,0.0,24.56126633083547,2.4316568955362365,0.010744448737521839,0.0
1569,4.827586206896552,1.0344827586206897,3.2142857142857144,0,316934.6737383806,522164.8595903058,415879.54499199847,165748.13260630768,126454.69344360678,2.1128978249225373e-06,0.0,0.0,0.0,2.1128978249225373e-06,0.0,23.872173481618105,2.71834977268823,0.004994644052491784,0.0
1570,4.827586206896552,1.0344827586206897,3.5714285714285716,0,310507.945866425,458096.33991888806,222604.54885158257,106207.54634832898,44850.15355390566,2.0700529724428334e-06,0.0,0.0,0.0,2.0700529724428334e-06,0.0,23.707704164472993,3.0048488248884335,0.001579071228930906,0.0
1571,4.827586206896552,1.0344827586206897,3.928571428571429,0,90025.91079402427,211320.26350088147,240882.52231958133,139792.53325813214,-20903.666502516986,6.001727386268285e-07,0.0,0.0,0.0,6.001727386268285e-07,0.0,24.46799843146646,3.2971210043196346,-0.0007087030110299105,0.0
1572,4.827586206896552,1.0344827586206897,4.285714285714286,0,223234.14737145777,376167.9971847679,324287.6725201822,131561.86016234496,-107572.3477101372,1.4882276491430518e-06,0.0,0.0,0.0,1.4882276491430518e-06,0.0,24.192778742330766,3.5953431520953636,-0.0036043882407567627,0.0
1573,4.827586206896552,1.0344827586206897,4.642857142857143,0,125455.15509702785,278012.3348607069,251359.99253980187,141372.59823794896,2679.659403706212,8.363677006468524e-07,0.0,0.0,0.0,8.363677006468524e-07,0.0,24.40447990786408,3.8970397399683625,8.946319644539955e-05,0.0
1574,4.827586206896552,1.0344827586206897,5.0,0,181218.0481138645,351572.30491760303,271127.65097753744,144058.3935760119,-50261.48860793937,1.2081203207590967e-06,0.0,0.0,0.0,1.2081203207590967e-06,0.0,24.138762327772444,4.200116420600324,-0.0016761883754446958,0.0
1575,5.172413793103448,1.0344827586206897,0.0,0,140969.21099961447,298952.9148622368,172855.5763415487,146758.77817166914,-26034.33065779997,9.397947399974299e-07,0.0,0.0,0.0,9.397947399974299e-07,0.0,23.826096989389672,-0.04988357939967609,-0.0008682282124886087,0.0
1576,5.172413793103448,1.0344827586206897,0.35714285714285715,0,292560.25881579553,397681.3470370928,284802.9499914438,65497.05671992849,5700.368155782771,1.950401725438637e-06,0.0,0.0,0.0,1.950401725438637e-06,0.0,23.826288227399033,0.2541825971112195,0.00019031267758378353,0.0
1577,5.172413793103448,1.0344827586206897,0.7142857142857143,0,251008.6679027688,260409.80695079468,367244.5167065943,80492.40240381152,9966.269396823867,1.6733911193517919e-06,0.0,0.0,0.0,1.6733911193517919e-06,0.0,23.698000920616046,0.5596288663810778,0.00033393622973556023,0.0
1578,5.172413793103448,1.0344827586206897,1.0714285714285714,0,218145.04732780214,365968.6047513389,176138.44241785014,127663.69209372476,51625.59438337816,1.454300315518681e-06,0.0,0.0,0.0,1.454300315518681e-06,0.0,24.08026500350629,0.8685495757482053,0.0017502773583430212,0.0
1579,5.172413793103448,1.0344827586206897,1.4285714285714286,0,195647.13603327432,356740.9417577813,175185.81382069716,149532.69679048227,-9334.631421277414,1.3043142402218288e-06,0.0,0.0,0.0,1.3043142402218288e-06,0.0,23.796201512796525,1.183420253459862,-0.0003286510021040937,0.0
1580,5.172413793103448,1.0344827586206897,1.7857142857142858,0,377801.80329752696,524146.15025324794,397902.2857492088,99387.56667675656,4171.3775808793725,2.51867868865018e-06,0.0,0.0,0.0,2.51867868865018e-06,0.0,24.016282032031,1.5040640584025158,0.0001647589793440764,0.0
1581,5.172413793103448,1.0344827586206897,2.142857142857143,0,250471.23419614852,772475.9230554503,701800.2002496305,494260.42617708526,376033.4445325333,1.6698082279743235e-06,0.0,0.0,0.0,1.6698082279743235e-06,0.0,23.49798403359603,1.8245140383933798,0.02015730867489751,0.0
1582,5.172413793103448,1.0344827586206897,2.5,0,233711.56946413708,784011.4746448814,643278.6049159045,514228.9114587969,580042.6853680605,1.558077129760914e-06,0.0,0.0,0.0,1.558077129760914e-06,0.0,23.47325024574585,2.135307364023375,0.058004268536806056,0.0
1583,5.172413793103448,1.0344827586206897,2.857142857142857,0,543242.3476176657,799703.4180719237,392448.4651863983,182893.41446010335,273347.9547441406,3.6216156507844376e-06,0.0,0.0,0.0,3.6216156507844376e-06,0.0,24.19587822180831,2.4316568955362365,0.014652843196645114,0.0
1584,5.172413793103448,1.0344827586206897,3.2142857142857144,0,294935.2031394382,534501.6946168338,367143.68232797156,193956.48625237055,58736.19821366873,1.9662346875962545e-06,0.0,0.0,0.0,1.9662346875962545e-06,0.0,24.10277524724945,2.71834977268823,0.002319932895212842,0.0
1585,5.172413793103448,1.0344827586206897,3.5714285714285716,0,89923.9611035628,396095.31582929805,309704.3974614281,303012.22593170725,-9534.79028690268,5.99493074023752e-07,0.0,0.0,0.0,5.99493074023752e-07,0.0,23.698296888058604,3.0048488248884335,-0.00033569813752904663,0.0
1586,5.172413793103448,1.0344827586206897,3.928571428571429,0,168233.75959828714,330650.2188730581,201138.6701523982,140504.3853790138,22710.27919849837,1.1215583973219142e-06,0.0,0.0,0.0,1.1215583973219142e-06,0.0,24.606455166388706,3.2971210043196346,0.0007699531202991482,0.0
1587,5.172413793103448,1.0344827586206897,4.285714285714286,0,185986.32656358278,365975.2975998868,259254.10322126208,151218.12773502004,53276.63293902456,1.2399088437572186e-06,0.0,0.0,0.0,1.2399088437572186e-06,0.0,23.51220497970744,3.5953431520953636,0.001785121114860993,0.0
1588,5.172413793103448,1.0344827586206897,4.642857142857143,0,254979.48905708743,372708.00329994666,293504.26502774423,87525.97266337994,-22823.92965901148,1.6998632603805829e-06,0.0,0.0,0.0,1.6998632603805829e-06,0.0,24.14614590503913,3.8970397399683625,-0.0007620004616691173,0.0
1589,5.172413793103448,1.0344827586206897,5.0,0,136226.84445648454,248446.1614247757,235289.26651942363,106118.21954243934,13238.650740445035,9.081789630432303e-07,0.0,0.0,0.0,9.081789630432303e-07,0.0,24.161068149899297,4.200116420600324,0.0004415005025179666,0.0
1590,5.517241379310345,1.0344827586206897,0.0,0,142131.0182527841,350870.83670566225,207580.3535500332,209928.37709318896,-45729.06438754722,9.475401216852273e-07,0.0,0.0,0.0,9.475401216852273e-07,0.0,23.884139890359748,-0.04988415553420404,-0.0015250349376691734,0.0
1591,5.517241379310345,1.0344827586206897,0.35714285714285715,0,120103.43669271682,228049.08634950052,258885.69030025802,126370.57625046995,-32068.375798455396,8.006895779514454e-07,0.0,0.0,0.0,8.006895779514454e-07,0.0,24.495225018212953,0.2541795726009765,-0.00107063584266497,0.0
1592,5.517241379310345,1.0344827586206897,0.7142857142857143,0,201497.0421262958,335208.8150540438,158604.36033050524,115722.71705835304,16877.76640070607,1.3433136141753053e-06,0.0,0.0,0.0,1.3433136141753053e-06,0.0,24.680500264046657,0.5596165637838144,0.0005655172917566788,0.0
1593,5.517241379310345,1.0344827586206897,1.0714285714285714,0,208621.8256956055,347322.1786310275,157309.0422309808,124080.1935091158,-1977.4747194543322,1.3908121713040369e-06,0.0,0.0,0.0,1.3908121713040369e-06,0.0,23.29620875099593,0.8685108009857277,-6.704289353946909e-05,0.0
1594,5.517241379310345,1.0344827586206897,1.4285714285714286,0,99832.96137560734,221837.65005049857,232233.6027231995,326461.7964983631,-35317.62861535601,6.655530758373822e-07,0.0,0.0,0.0,6.655530758373822e-07,0.0,22.738788486486715,1.1833255617243443,-0.0012434528491311939,0.0
1595,5.517241379310345,1.0344827586206897,1.7857142857142858,0,278037.75162985723,523990.2255738474,309489.9246053682,209865.21679428458,54638.454596124415,1.8535850108657149e-06,0.0,0.0,0.0,1.8535850108657149e-06,0.0,23.63647985527996,1.5038848800256797,0.002158082273218087,0.0
1596,5.517241379310345,1.0344827586206897,2.142857142857143,0,444388.6428266593,690754.8122106143,411062.10080639966,178335.97193156026,354448.6944075739,2.9625909521777287e-06,0.0,0.0,0.0,2.9625909521777287e-06,0.0,23.39433918619075,1.824251332563262,0.01900025608485403,0.0
1597,5.517241379310345,1.0344827586206897,2.5,0,639972.2872077904,760694.5870318001,956056.139750785,241172.0531414276,387686.4367589357,4.266481914718602e-06,0.0,0.0,0.0,4.266481914718602e-06,0.0,23.671992274129025,2.1350089189491617,0.03876864367589357,0.0
1598,5.517241379310345,1.0344827586206897,2.857142857142857,0,500550.8975089593,968085.1917623327,864604.0480811441,423881.4835614119,420576.3101571016,3.337005983393062e-06,0.0,0.0,0.0,3.337005983393062e-06,0.0,24.805038718225543,2.4313941897061193,0.022545033236937694,0.0
1599,5.517241379310345,1.0344827586206897,3.2142857142857144,0,343692.75657662074,447170.415835812,323705.9734248488,58800.61332905281,83665.6825059987,2.2912850438441383e-06,0.0,0.0,0.0,2.2912850438441383e-06,0.0,25.24830511585965,2.718170594311394,0.003304585161266541,0.0
1600,5.517241379310345,1.0344827586206897,3.5714285714285716,0,110133.41188711357,301197.4536108203,257967.05699695213,176007.55752323926,25808.177799318924,7.342227459140905e-07,0.0,0.0,0.0,7.342227459140905e-07,0.0,23.430658486723473,3.004754133152916,0.0009086468563604057,0.0
1601,5.517241379310345,1.0344827586206897,3.928571428571429,0,203538.56903961464,313698.10807358735,204704.46968731628,78873.14581846035,156.48037889774182,1.3569237935974309e-06,0.0,0.0,0.0,1.3569237935974309e-06,0.0,24.021610951989366,3.297082229557157,5.305199242371083e-06,0.0
1602,5.517241379310345,1.0344827586206897,4.285714285714286,0,305441.88777614717,341071.7527246895,276398.38814045384,8472.245988265287,52408.258045607276,2.036279251840981e-06,0.0,0.0,0.0,2.036279251840981e-06,0.0,24.015068979432442,3.5953308494981,0.0017560247874029776,0.0
1603,5.517241379310345,1.0344827586206897,4.642857142857143,0,227970.17641738695,290519.2290691629,287367.52960792,60989.54315969135,28772.485079679078,1.519801176115913e-06,0.0,0.0,0.0,1.519801176115913e-06,0.0,24.09182898379487,3.89703671545812,0.0009605991273911426,0.0
1604,5.517241379310345,1.0344827586206897,5.0,0,257041.01412493913,368663.05391431105,102995.62511854923,121218.27591363578,-10987.961922624798,1.7136067608329275e-06,0.0,0.0,0.0,1.7136067608329275e-06,0.0,23.238445804744327,4.200115844465796,-0.00036644147546444387,0.0
1605,5.862068965517242,1.0344827586206897,0.0,0,109050.19979311115,315338.8808039354,226685.28527059613,193569.51674342595,21590.622467826775,7.270013319540743e-07,0.0,0.0,0.0,7.270013319540743e-07,0.0,24.458428594272743,-0.049885295093204184,0.00072003339736877,0.0
1606,5.862068965517242,1.0344827586206897,0.35714285714285715,0,38721.030179626585,160911.18074108282,125064.98804733859,166131.2481838435,-20903.460961423945,2.5814020119751056e-07,0.0,0.0,0.0,2.5814020119751056e-07,0.0,24.29623992088392,0.25417359030395875,-0.0006978836309547796,0.0
1607,5.862068965517242,1.0344827586206897,0.7142857142857143,0,184830.83205144855,255743.92077929585,300807.7844861577,97612.15230062405,-8012.030876247967,1.232205547009657e-06,0.0,0.0,0.0,1.232205547009657e-06,0.0,23.60998267481505,0.5595922299958596,-0.00026845625748304533,0.0
1608,5.862068965517242,1.0344827586206897,1.0714285714285714,0,76097.11959607623,261574.20459952066,232228.61094612224,175173.4584736344,43408.77405933319,5.073141306405082e-07,0.0,0.0,0.0,5.073141306405082e-07,0.0,24.47011693881194,0.868434106867573,0.0014717001382155734,0.0
1609,5.862068965517242,1.0344827586206897,1.4285714285714286,0,235471.5928717484,375290.51670544577,183328.2281137267,112546.87402181735,17577.80978511009,1.5698106191449895e-06,0.0,0.0,0.0,1.5698106191449895e-06,0.0,23.138527055024877,1.1831382672397874,0.0006188744407736901,0.0
1610,5.862068965517242,1.0344827586206897,1.7857142857142858,0,236278.14256584374,233036.59277996313,319719.1032201655,52342.209223098005,84126.634606292,1.5751876171056248e-06,0.0,0.0,0.0,1.5751876171056248e-06,0.0,23.017571882796627,1.5035304761112318,0.003322791616112286,0.0
1611,5.862068965517242,1.0344827586206897,2.142857142857143,0,732554.5895036196,1097355.4448757807,466767.61922725284,293793.7036922106,359139.2533436485,4.883697263357464e-06,0.0,0.0,0.0,4.883697263357464e-06,0.0,24.00136390911575,1.8237317164344309,0.0192516939441907,0.0
1612,5.862068965517242,1.0344827586206897,2.5,0,765929.9759221633,946018.2174835089,688449.1423596278,84504.29149020668,540329.60451103,5.106199839481089e-06,0.0,0.0,0.0,5.106199839481089e-06,0.0,24.08929904446246,2.1344186127726217,0.05403296045110299,0.0
1613,5.862068965517242,1.0344827586206897,2.857142857142857,0,308198.2175078076,748462.1445444428,660231.3043243777,405770.72003932175,215170.34078104398,2.054654783385384e-06,0.0,0.0,0.0,2.054654783385384e-06,0.0,23.79649987727922,2.430874573577288,0.011534226648904218,0.0
1614,5.862068965517242,1.0344827586206897,3.2142857142857144,0,355574.692878277,606492.8524932312,230741.70394935197,275293.6305163586,133171.30290226568,2.3704979525218466e-06,0.0,0.0,0.0,2.3704979525218466e-06,0.0,24.43682108806912,2.717816190396946,0.005259933323866763,0.0
1615,5.862068965517242,1.0344827586206897,3.5714285714285716,0,376862.0954705396,502979.0421565791,365660.14764127345,76712.71589732361,21980.587331994786,2.512413969803597e-06,0.0,0.0,0.0,2.512413969803597e-06,0.0,23.55913545339609,3.004566838668359,0.0007738861587004215,0.0
1616,5.862068965517242,1.0344827586206897,3.928571428571429,0,200838.74935412785,346007.49192343943,300916.92517064186,126456.28519811234,17481.060419267546,1.3389249956941858e-06,0.0,0.0,0.0,1.3389249956941858e-06,0.0,24.494806112839512,3.2970055354390024,0.000592665413679412,0.0
1617,5.862068965517242,1.0344827586206897,4.285714285714286,0,205569.17032970197,340311.27224782796,150148.77110221592,122196.07855940913,1602.2267064094235,1.3704611355313465e-06,0.0,0.0,0.0,1.3704611355313465e-06,0.0,24.29139820715028,3.5953065157101456,5.368523809826962e-05,0.0
1618,5.862068965517242,1.0344827586206897,4.642857142857143,0,114191.79582319026,292575.20083838527,203737.35258941533,163772.369645106,31670.33566381039,7.612786388212684e-07,0.0,0.0,0.0,7.612786388212684e-07,0.0,24.83350830459381,3.897030733161102,0.0010573468617184932,0.0
1619,5.862068965517242,1.0344827586206897,5.0,0,244619.51495228746,276997.3915965419,297085.11387683277,43041.10999967003,54588.93849378328,1.6307967663485831e-06,0.0,0.0,0.0,1.6307967663485831e-06,0.0,23.020362369988188,4.200114704906796,0.0018205060507637124,0.0
1620,6.206896551724139,1.0344827586206897,0.0,0,111474.83036608508,247573.87127734686,258995.13659070787,142249.35711497368,-10269.776705618544,7.431655357739005e-07,0.0,0.0,0.0,7.431655357739005e-07,0.0,23.57251241067957,-0.049886974009061495,-0.0003424904595772631,0.0
1621,6.206896551724139,1.0344827586206897,0.35714285714285715,0,170273.86711435544,228449.034702209,173134.257523464,37395.206765687566,29156.667660608702,1.135159114095703e-06,0.0,0.0,0.0,1.135159114095703e-06,0.0,23.367317792813274,0.25416477656695613,0.000973425459596299,0.0
1622,6.206896551724139,1.0344827586206897,0.7142857142857143,0,84364.19887914138,236815.8953193783,236890.23556226908,152488.89112692708,947.4951769500924,5.624279925276092e-07,0.0,0.0,0.0,5.624279925276092e-07,0.0,24.213630566424772,0.5595563789495683,3.174738254458335e-05,0.0
1623,6.206896551724139,1.0344827586206897,1.0714285714285714,0,180000.6355149295,206445.61967090835,367540.4018676079,173253.91394003696,-56334.25217045707,1.2000042367661968e-06,0.0,0.0,0.0,1.2000042367661968e-06,0.0,24.61640430778166,0.8683211131821946,-0.001909916336089363,0.0
1624,6.206896551724139,1.0344827586206897,1.4285714285714286,0,206994.98957508142,323708.32034714875,237000.3688206239,87460.01064495638,-42019.02972978993,1.3799665971672094e-06,0.0,0.0,0.0,1.3799665971672094e-06,0.0,23.648605252395267,1.182862325686897,-0.0014793938405173119,0.0
1625,6.206896551724139,1.0344827586206897,1.7857142857142858,0,38465.357305268764,312205.77876929793,270019.31375428947,303146.26305150974,69575.75746226324,2.5643571536845844e-07,0.0,0.0,0.0,2.5643571536845844e-07,0.0,24.139055859960852,1.5030083317099465,0.0027480683693363777,0.0
1626,6.206896551724139,1.0344827586206897,2.142857142857143,0,588232.6648500648,724249.4673162655,512385.0690466698,59431.97086545737,333595.7713556874,3.921551099000432e-06,0.0,0.0,0.0,3.921551099000432e-06,0.0,24.565901917161685,1.822966164358321,0.017882433154892824,0.0
1627,6.206896551724139,1.0344827586206897,2.5,0,269119.46296128444,814860.826551496,615052.7555686219,508843.14177368296,523610.48733844626,1.7941297530752296e-06,0.0,0.0,0.0,1.7941297530752296e-06,0.0,24.01194498221176,2.1335489128269955,0.052361048733844624,0.0
1628,6.206896551724139,1.0344827586206897,2.857142857142857,0,276391.04450405814,718113.0982996795,415143.9676934085,479741.88898951333,316765.43742158706,1.8426069633603876e-06,0.0,0.0,0.0,1.8426069633603876e-06,0.0,24.20429090975826,2.430109021501178,0.01698024149842193,0.0
1629,6.206896551724139,1.0344827586206897,3.2142857142857144,0,180892.95687165222,421682.1187538045,371183.9318013254,220906.07098947337,171529.8815617882,1.2059530458110148e-06,0.0,0.0,0.0,1.2059530458110148e-06,0.0,22.866671599308,2.717294045995661,0.006775001223258429,0.0
1630,6.206896551724139,1.0344827586206897,3.5714285714285716,0,398633.99615164864,530966.4193217102,147623.90011732603,118624.70946538943,21499.46024007046,2.6575599743443244e-06,0.0,0.0,0.0,2.6575599743443244e-06,0.0,24.64595483055586,3.0042908971154687,0.0007569467752621069,0.0
1631,6.206896551724139,1.0344827586206897,3.928571428571429,0,215729.8854536053,359785.7797962194,160343.08556159248,130811.41621449022,-7311.9252158795725,1.4381992363573687e-06,0.0,0.0,0.0,1.4381992363573687e-06,0.0,23.718383562095937,3.296892541753624,-0.0002478983013001774,0.0
1632,6.206896551724139,1.0344827586206897,4.285714285714286,0,145322.58267205587,206203.32427109158,233810.1891508394,76664.33872832498,-3473.0439366804394,9.688172178137058e-07,0.0,0.0,0.0,9.688172178137058e-07,0.0,25.20737755487583,3.5952706646638544,-0.00011637004296618958,0.0
1633,6.206896551724139,1.0344827586206897,4.642857142857143,0,176617.70767983337,286410.09555685986,95515.99578246154,253119.27359229626,44744.23654890105,1.1774513845322226e-06,0.0,0.0,0.0,1.1774513845322226e-06,0.0,23.451817590683593,3.897021919424099,0.0014938325440305212,0.0
1634,6.206896551724139,1.0344827586206897,5.0,0,163297.66681845396,240339.02719506284,240950.4771813596,77347.94393698884,-34726.329447650074,1.0886511121230264e-06,0.0,0.0,0.0,1.0886511121230264e-06,0.0,24.11925659620108,4.200113025990938,-0.0011581007915634892,0.0
1635,6.551724137931035,1.0344827586206897,0.0,0,118779.17857567249,211386.97478360002,78922.63392383546,175950.77914836543,32829.90785784028,7.918611905044832e-07,0.0,0.0,0.0,7.918611905044832e-07,0.0,24.19611513331823,-0.04988915924157275,0.0010948563491121883,0.0
1636,6.551724137931035,1.0344827586206897,0.35714285714285715,0,116239.49027931166,194156.39269952048,93826.88574611772,66776.9280191921,428.87774503499077,7.749299351954111e-07,0.0,0.0,0.0,7.749299351954111e-07,0.0,22.537309077592933,0.25415330483979365,1.4318526414983136e-05,0.0
1637,6.551724137931035,1.0344827586206897,0.7142857142857143,0,116804.80754995978,289094.9613745677,159710.14665824288,191417.0972604369,-22124.030292960695,7.786987169997319e-07,0.0,0.0,0.0,7.786987169997319e-07,0.0,24.68151134034468,0.5595097161751492,-0.0007413019825594008,0.0
1638,6.551724137931035,1.0344827586206897,1.0714285714285714,0,25346.526695946843,236785.2024925058,207629.60636521198,219991.59162202192,-39579.345276910986,1.6897684463964562e-07,0.0,0.0,0.0,1.6897684463964562e-07,0.0,24.16909539751679,0.8681740435873838,-0.0013418699140154103,0.0
1639,6.551724137931035,1.0344827586206897,1.4285714285714286,0,201918.68232647158,380251.78383113764,307451.1698494686,152028.10176474683,51174.076460728094,1.3461245488431438e-06,0.0,0.0,0.0,1.3461245488431438e-06,0.0,23.055057646530503,1.182503167453947,0.0018017220768067838,0.0
1640,6.551724137931035,1.0344827586206897,1.7857142857142858,0,297815.9320354595,547073.2012523228,324716.51525335375,208711.1054934995,8945.026710476937,1.9854395469030635e-06,0.0,0.0,0.0,1.9854395469030635e-06,0.0,23.991888579987172,1.5023287223559145,0.00035330617822254155,0.0
1641,6.551724137931035,1.0344827586206897,2.142857142857143,0,627298.3816135558,861947.8507415291,439965.2954170683,141102.37644425576,259235.0513223413,4.181989210757039e-06,0.0,0.0,0.0,4.181989210757039e-06,0.0,23.99372874920469,1.8219697420072585,0.013896319662080589,0.0
1642,6.551724137931035,1.0344827586206897,2.5,0,507546.5730235382,659947.6248953079,649122.7130709627,147075.1806580121,381498.17228630726,3.3836438201569216e-06,0.0,0.0,0.0,3.3836438201569216e-06,0.0,23.7493049467253,2.1324169343612813,0.03814981722863073,0.0
1643,6.551724137931035,1.0344827586206897,2.857142857142857,0,409137.74971839355,740436.6194673155,355534.75841117767,310748.2208586922,387940.57270303706,2.7275849981226236e-06,0.0,0.0,0.0,2.7275849981226236e-06,0.0,23.523193190562463,2.4291125991501157,0.020795591416643496,0.0
1644,6.551724137931035,1.0344827586206897,3.2142857142857144,0,190720.68521728294,514093.5470987988,332181.98970978963,315641.16968610755,52552.52258601663,1.2714712347818862e-06,0.0,0.0,0.0,1.2714712347818862e-06,0.0,23.79194389669169,2.716614436641629,0.0020756931769775958,0.0
1645,6.551724137931035,1.0344827586206897,3.5714285714285716,0,175203.30466831278,288371.64744589134,146584.310717195,92504.13652144946,-38888.992061696066,1.1680220311220852e-06,0.0,0.0,0.0,1.1680220311220852e-06,0.0,24.261355402635964,3.003931738882519,-0.001369192379975677,0.0
1646,6.551724137931035,1.0344827586206897,3.928571428571429,0,34856.44765105569,231829.12313405497,196429.52312560024,230716.1607513227,-11580.044333354675,2.3237631767370462e-07,0.0,0.0,0.0,2.3237631767370462e-07,0.0,24.24586366688106,3.296745472158813,-0.0003926015699647781,0.0
1647,6.551724137931035,1.0344827586206897,4.285714285714286,0,242889.06564141437,351749.4294414542,179355.38890816254,73966.08581216943,37074.06759888893,1.6192604376094293e-06,0.0,0.0,0.0,1.6192604376094293e-06,0.0,23.8444029894367,3.5952240018894353,0.0012422275439272937,0.0
1648,6.551724137931035,1.0344827586206897,4.642857142857143,0,148234.08118435155,277314.6799083117,143006.5362561638,118267.54666787181,-25910.050657328044,9.88227207895677e-07,0.0,0.0,0.0,9.88227207895677e-07,0.0,23.959219898220667,3.8970104476969367,-0.0008650337981986791,0.0
1649,6.551724137931035,1.0344827586206897,5.0,0,157002.7178985525,298924.62993712234,194389.13855445766,118383.34173381641,-9584.929485636825,1.0466847859903501e-06,0.0,0.0,0.0,1.0466847859903501e-06,0.0,23.786110051703883,4.200110840758428,-0.00031965124448669283,0.0
1650,6.8965517241379315,1.0344827586206897,0.0,0,107765.60095290217,217584.57851711215,190535.77482987032,98871.31598445754,30913.20455803335,7.184373396860144e-07,0.0,0.0,0.0,7.184373396860144e-07,0.0,23.257596028769534,-0.049891811683883444,0.0010309355246540491,0.0
1651,6.8965517241379315,1.0344827586206897,0.35714285714285715,0,226154.48717256184,196937.10013805988,243543.93946479418,-2282.971013056219,8914.982795307324,1.5076965811504123e-06,0.0,0.0,0.0,1.5076965811504123e-06,0.0,23.720175551153424,0.25413938042015144,0.0002976359070189422,0.0
1652,6.8965517241379315,1.0344827586206897,0.7142857142857143,0,147784.60444211614,231523.71206791146,98992.39692968004,72161.99018396651,-31858.46894159783,9.852306962807741e-07,0.0,0.0,0.0,9.852306962807741e-07,0.0,23.38626344638821,0.5594530767481931,-0.001067470342201973,0.0
1653,6.8965517241379315,1.0344827586206897,1.0714285714285714,0,124933.56937728361,262509.9433741044,184336.57707842838,118422.82994690949,6184.8723957350285,8.32890462515224e-07,0.0,0.0,0.0,8.32890462515224e-07,0.0,23.260521262938607,0.8679955300361334,0.000209687505738068,0.0
1654,6.8965517241379315,1.0344827586206897,1.4285714285714286,0,110661.92696885286,246240.9601090032,171410.90668490605,119124.15298614117,-846.1957496410209,7.377461797923524e-07,0.0,0.0,0.0,7.377461797923524e-07,0.0,22.553502803126822,1.1820672200257434,-2.9792615106562912e-05,0.0
1655,6.8965517241379315,1.0344827586206897,1.7857142857142858,0,189390.8403095472,447232.0414324177,391630.6268870878,236264.0542799249,49551.67932982444,1.262605602063648e-06,0.0,0.0,0.0,1.262605602063648e-06,0.0,23.563340443274626,1.5015038103174514,0.0019571673752549067,0.0
1656,6.8965517241379315,1.0344827586206897,2.142857142857143,0,174070.84757406096,439716.96357743006,564855.8741182687,366066.56061623566,313251.05297586985,1.1604723171604064e-06,0.0,0.0,0.0,1.1604723171604064e-06,0.0,24.165229295377486,1.8207602813253114,0.016791852584870245,0.0
1657,6.8965517241379315,1.0344827586206897,2.5,0,341660.8592558721,606194.5285296853,626181.5794232179,274965.9399584775,469539.74644965684,2.277739061705814e-06,0.0,0.0,0.0,2.277739061705814e-06,0.0,24.38878690369612,2.1310429352276485,0.04695397464496569,0.0
1658,6.8965517241379315,1.0344827586206897,2.857142857142857,0,537940.6416776654,753012.1641214223,371289.1063539811,137773.72216974926,244246.6388531334,3.5862709445177696e-06,0.0,0.0,0.0,3.5862709445177696e-06,0.0,24.005052642947145,2.4279031384681686,0.013092864381489534,0.0
1659,6.8965517241379315,1.0344827586206897,3.2142857142857144,0,160448.68348483063,502227.80215091794,393038.4699958923,318010.4245616103,40843.708931434725,1.0696578898988709e-06,0.0,0.0,0.0,1.0696578898988709e-06,0.0,23.138942262462745,2.715789524603166,0.001613224328340734,0.0
1660,6.8965517241379315,1.0344827586206897,3.5714285714285716,0,218649.58209070592,288305.92450727057,123244.30030018743,40325.316667892264,37617.15944334745,1.4576638806047062e-06,0.0,0.0,0.0,1.4576638806047062e-06,0.0,23.714075975934144,3.003495791454315,0.0013244140651537141,0.0
1661,6.8965517241379315,1.0344827586206897,3.928571428571429,0,130164.26512522806,214393.16058996812,95006.25906658414,75624.98741918367,-19218.245949909477,8.677617675015205e-07,0.0,0.0,0.0,8.677617675015205e-07,0.0,23.21872455979392,3.2965669586075625,-0.0006515617138158159,0.0
1662,6.8965517241379315,1.0344827586206897,4.285714285714286,0,128944.90918330142,207592.78858938234,116224.52652854635,60096.72250085512,-56639.65227530105,8.596327278886762e-07,0.0,0.0,0.0,8.596327278886762e-07,0.0,24.75560837776726,3.595167362462479,-0.001897804602831111,0.0
1663,6.8965517241379315,1.0344827586206897,4.642857142857143,0,85592.50092487774,241006.00182495735,180570.9560438064,143062.7072839397,-5867.763061399876,5.706166728325182e-07,0.0,0.0,0.0,5.706166728325182e-07,0.0,23.6120072784773,3.8969965232772945,-0.00019590132937455569,0.0
1664,6.8965517241379315,1.0344827586206897,5.0,0,106175.01331014674,293964.2225214422,217440.8603412996,172749.1525199173,9849.916051040349,7.078334220676449e-07,0.0,0.0,0.0,7.078334220676449e-07,0.0,23.563229399180052,4.200108188316117,0.0003284883763122759,0.0
1665,7.241379310344828,1.0344827586206897,0.0,0,253775.95973589103,307966.92780814244,27219.632527397436,94874.95452503933,-10814.80895224709,1.6918397315726068e-06,0.0,0.0,0.0,1.6918397315726068e-06,0.0,24.1599588184839,-0.04989488906761649,-0.0003606669350725982,0.0
1666,7.241379310344828,1.0344827586206897,0.35714285714285715,0,127247.85368424836,233997.35761375478,250586.66184057627,115857.78767395578,-13648.320113111628,8.483190245616558e-07,0.0,0.0,0.0,8.483190245616558e-07,0.0,23.68372480445345,0.2541232252026275,-0.00045566326143547145,0.0
1667,7.241379310344828,1.0344827586206897,0.7142857142857143,0,68974.84169806771,200500.15569973498,189272.61852158845,126600.33001290198,-9489.610860069639,4.5983227798711807e-07,0.0,0.0,0.0,4.5983227798711807e-07,0.0,24.243827714258817,0.5593873632544591,-0.0003179650023587744,0.0
1668,7.241379310344828,1.0344827586206897,1.0714285714285714,0,155518.07128470464,282896.2244324114,103765.40102320789,204284.42284822304,-487.26002238778875,1.036787141898031e-06,0.0,0.0,0.0,1.036787141898031e-06,0.0,23.15117827034594,0.8677884172568919,-1.6519716528157756e-05,0.0
1669,7.241379310344828,1.0344827586206897,1.4285714285714286,0,230662.1690901215,260644.54548647726,224727.65359959946,14130.813217717201,-36589.569845631304,1.5377477939341432e-06,0.0,0.0,0.0,1.5377477939341432e-06,0.0,23.761987194951256,1.1815614305054185,-0.0012882349879304446,0.0
1670,7.241379310344828,1.0344827586206897,1.7857142857142858,0,160512.76989743102,400660.5097881298,410563.877342798,245328.72035798224,76647.86014604439,1.0700851326495402e-06,0.0,0.0,0.0,1.0700851326495402e-06,0.0,23.97585035321764,1.5005467410993498,0.0030273987338033247,0.0
1671,7.241379310344828,1.0344827586206897,2.142857142857143,0,454172.48246088886,837797.2635255922,542980.3245743944,314776.1302522045,73462.97296940105,3.0278165497392593e-06,0.0,0.0,0.0,3.0278165497392593e-06,0.0,22.417999332615988,1.8193570558476566,0.003937989675787345,0.0
1672,7.241379310344828,1.0344827586206897,2.5,0,582615.2797285893,908133.1415676264,716747.5434108846,253898.28607195927,491694.9533752441,3.884101864857262e-06,0.0,0.0,0.0,3.884101864857262e-06,0.0,23.39035443749212,2.1294488109875074,0.04916949533752442,0.0
1673,7.241379310344828,1.0344827586206897,2.857142857142857,0,388446.1327358156,683185.4771798565,282620.5068949162,308114.04366570147,270527.8401499125,2.5896408849054374e-06,0.0,0.0,0.0,2.5896408849054374e-06,0.0,23.42950217946373,2.4264999129905136,0.014501670684729033,0.0
1674,7.241379310344828,1.0344827586206897,3.2142857142857144,0,77577.9489275414,333284.032584575,275882.62703383877,245025.39884779628,69301.23195165864,5.171863261836093e-07,0.0,0.0,0.0,5.171863261836093e-07,0.0,23.768768670826923,2.7148324553850642,0.002737225298419361,0.0
1675,7.241379310344828,1.0344827586206897,3.5714285714285716,0,164268.29361937605,325232.4825240363,160719.63211519422,161209.84286407134,-56252.22924821378,1.0951219574625071e-06,0.0,0.0,0.0,1.0951219574625071e-06,0.0,23.590816666292717,3.00299000193399,-0.0019805122107847224,0.0
1676,7.241379310344828,1.0344827586206897,3.928571428571429,0,88744.18819433893,325579.68221814994,280196.95384849573,223321.76153772676,8034.930829341126,5.916279212955928e-07,0.0,0.0,0.0,5.916279212955928e-07,0.0,23.898649089284135,3.296359845828321,0.00027241056833189804,0.0
1677,7.241379310344828,1.0344827586206897,4.285714285714286,0,119532.45349274836,241046.23536689676,215765.30882803453,110895.50232074127,-14135.357755689167,7.968830232849891e-07,0.0,0.0,0.0,7.968830232849891e-07,0.0,23.63811686478768,3.595101648968745,-0.0004736283845992019,0.0
1678,7.241379310344828,1.0344827586206897,4.642857142857143,0,224576.59727198322,329999.8640313341,329786.59675848717,105316.70907074086,41624.43220220942,1.4971773151465547e-06,0.0,0.0,0.0,1.4971773151465547e-06,0.0,24.333796277194942,3.8969803680597708,0.0013896746541310612,0.0
1679,7.241379310344828,1.0344827586206897,5.0,0,208185.66860227074,326902.3477083014,157529.9042129316,94479.86044100778,9395.531486143638,1.3879044573484715e-06,0.0,0.0,0.0,1.3879044573484715e-06,0.0,24.820181268010188,4.200105110932384,0.0003133349428037217,0.0
1680,7.586206896551724,1.0344827586206897,0.0,0,211177.6900982366,351437.7616676252,146367.55516968606,134641.22747891856,-31029.672333611834,1.4078512673215774e-06,0.0,0.0,0.0,1.4078512673215774e-06,0.0,22.897057171051497,-0.04989834847740244,-0.0010348196501932143,0.0
1681,7.586206896551724,1.0344827586206897,0.35714285714285715,0,153166.2431010689,279847.9302094149,177088.58842772566,103807.57472578774,-44586.496608894886,1.0211082873404593e-06,0.0,0.0,0.0,1.0211082873404593e-06,0.0,23.664417886227934,0.2541050644783095,-0.0014885662332372396,0.0
1682,7.586206896551724,1.0344827586206897,0.7142857142857143,0,173448.1918342551,295672.0019306736,258151.51743183524,106534.42790615626,-16262.447114792589,1.156321278895034e-06,0.0,0.0,0.0,1.156321278895034e-06,0.0,24.199977151863706,0.5593134920953795,-0.0005449000081734145,0.0
1683,7.586206896551724,1.0344827586206897,1.0714285714285714,0,215794.19147858935,349694.5579709868,170855.7671759238,110009.90292865969,22297.429513122926,1.4386279431905957e-06,0.0,0.0,0.0,1.4386279431905957e-06,0.0,23.31007938141712,0.8675555935217135,0.000755956158804709,0.0
1684,7.586206896551724,1.0344827586206897,1.4285714285714286,0,196549.66627193562,345129.0658217259,229632.51359196214,118185.10084661518,40489.875911074596,1.3103311084795707e-06,0.0,0.0,0.0,1.3103311084795707e-06,0.0,23.806198124691825,1.1809928523338182,0.0014255558353287448,0.0
1685,7.586206896551724,1.0344827586206897,1.7857142857142858,0,251297.62841399637,408296.37385748024,326426.35937525245,126273.2632329583,56032.03446831336,1.6753175227599759e-06,0.0,0.0,0.0,1.6753175227599759e-06,0.0,23.481099408104654,1.4994708614216261,0.0022131251919959875,0.0
1686,7.586206896551724,1.0344827586206897,2.142857142857143,0,248539.6310528718,612016.1347736039,475941.89048285305,325153.0584216412,258957.353038671,1.656930873685812e-06,0.0,0.0,0.0,1.656930873685812e-06,0.0,23.17403238917573,1.8177796341250487,0.013881433619086751,0.0
1687,7.586206896551724,1.0344827586206897,2.5,0,492953.80311953585,828820.2807972768,450534.5326000726,271331.9553311097,430184.1731617824,3.2863586874635724e-06,0.0,0.0,0.0,3.2863586874635724e-06,0.0,23.172099146341772,2.1276567923526004,0.04301841731617824,0.0
1688,7.586206896551724,1.0344827586206897,2.857142857142857,0,130437.35152379879,498793.2829381369,452169.942299572,351450.9682066032,252140.84391796752,8.695823434919919e-07,0.0,0.0,0.0,8.695823434919919e-07,0.0,22.44974540854881,2.424922491267906,0.013516033997247033,0.0
1689,7.586206896551724,1.0344827586206897,3.2142857142857144,0,216340.38006215575,440785.2778148016,301305.3139293943,191567.8187298891,102968.42099910184,1.4422692004143717e-06,0.0,0.0,0.0,1.4422692004143717e-06,0.0,23.772949270080396,2.713756575707341,0.004066995044094469,0.0
1690,7.586206896551724,1.0344827586206897,3.5714285714285716,0,247052.49961044328,386257.2885237433,221269.28222448597,102221.33962381867,-6998.466537155689,1.6470166640696218e-06,0.0,0.0,0.0,1.6470166640696218e-06,0.0,23.810595458503517,3.00242142376239,-0.0002463999848334054,0.0
1691,7.586206896551724,1.0344827586206897,3.928571428571429,0,77257.64011932231,153129.80410726802,242255.7340019393,194350.70051635875,18133.26357899701,5.150509341288154e-07,0.0,0.0,0.0,5.150509341288154e-07,0.0,23.223501854957817,3.2961270220931427,0.0006147772447808047,0.0
1692,7.586206896551724,1.0344827586206897,4.285714285714286,0,219566.876806548,345789.86196454044,278380.41540278104,100421.28188174992,-13977.651869852238,1.46377917871032e-06,0.0,0.0,0.0,1.46377917871032e-06,0.0,23.564242730872927,3.5950277778096655,-0.0004683441897990619,0.0
1693,7.586206896551724,1.0344827586206897,4.642857142857143,0,183637.52916141655,322951.0339504018,140290.2391412948,138352.11213225478,26724.796788813575,1.2242501944094437e-06,0.0,0.0,0.0,1.2242501944094437e-06,0.0,22.987767644277678,3.8969622073354526,0.0008922349391770461,0.0
1694,7.586206896551724,1.0344827586206897,5.0,0,148322.48957933273,239446.8987652135,163912.75449768774,68561.43683371936,15260.59886997119,9.888165971955515e-07,0.0,0.0,0.0,9.888165971955515e-07,0.0,23.979891156229453,4.200101651522598,0.0005089311744763878,0.0
1695,7.931034482758621,1.0344827586206897,0.0,0,263020.3293064552,302271.1147450806,145862.28186061556,-1392.613714344433,26503.96140205422,1.7534688620430347e-06,0.0,0.0,0.0,1.7534688620430347e-06,0.0,23.390802997912868,-0.04990214827301091,0.0008838900962901576,0.0
1696,7.931034482758621,1.0344827586206897,0.35714285714285715,0,170554.9327230134,272866.63511893176,201090.80217501224,78154.42129276822,51324.46940349275,1.1370328848200892e-06,0.0,0.0,0.0,1.1370328848200892e-06,0.0,23.981128470105638,0.25408511684423896,0.0017135204132099403,0.0
1697,7.931034482758621,1.0344827586206897,0.7142857142857143,0,301743.51347593823,340862.135047661,162041.10559979393,-7520.245899627975,-70630.42354262124,2.0116234231729217e-06,0.0,0.0,0.0,2.0116234231729217e-06,0.0,23.439507842609647,0.5592323524434646,-0.0023665883795962093,0.0
1698,7.931034482758621,1.0344827586206897,1.0714285714285714,0,206120.81276581564,337235.69787549175,210807.25237198675,99385.63807728456,21425.141780114947,1.3741387517721044e-06,0.0,0.0,0.0,1.3741387517721044e-06,0.0,23.111453230924486,0.8672998612837834,0.0007263827371854552,0.0
1699,7.931034482758621,1.0344827586206897,1.4285714285714286,0,70443.23409681923,235818.03859391416,301566.554496076,227218.22364979162,19482.450082204596,4.6962156064546154e-07,0.0,0.0,0.0,4.6962156064546154e-07,0.0,23.34207833821687,1.180368329373777,0.000685932465245993,0.0
1700,7.931034482758621,1.0344827586206897,1.7857142857142858,0,427333.6843934715,524289.9094781327,91412.67752793753,102724.37093641596,70418.05838858643,2.84889122928981e-06,0.0,0.0,0.0,2.84889122928981e-06,0.0,24.368823475295365,1.4982891214348637,0.0027813371488296795,0.0
1701,7.931034482758621,1.0344827586206897,2.142857142857143,0,632924.6792595877,666552.6430429072,554969.7342290704,-14743.080303347864,278904.42024270963,4.219497861730584e-06,0.0,0.0,0.0,4.219497861730584e-06,0.0,24.66754416852385,1.8160470032703258,0.014950698059888225,0.0
1702,7.931034482758621,1.0344827586206897,2.5,0,303633.0292012636,831466.9109937841,497262.8646302523,572583.8550894718,491558.4130042577,2.024220194675091e-06,0.0,0.0,0.0,2.024220194675091e-06,0.0,22.870729356397042,2.125688449496293,0.04915584130042577,0.0
1703,7.931034482758621,1.0344827586206897,2.857142857142857,0,362234.30450451176,593904.3159587159,550610.1424139526,211968.59175424106,285562.17953135073,2.4148953633634116e-06,0.0,0.0,0.0,2.4148953633634116e-06,0.0,24.081836886120506,2.4231898604131827,0.01530758788183249,0.0
1704,7.931034482758621,1.0344827586206897,3.2142857142857144,0,420989.7114503413,633222.4820136555,244306.54975433266,186196.43521427055,91929.96738510829,2.8065980763356086e-06,0.0,0.0,0.0,2.8065980763356086e-06,0.0,23.079578593143868,2.7125748357205786,0.003631003740090982,0.0
1705,7.931034482758621,1.0344827586206897,3.5714285714285716,0,185397.1581353283,395662.08717711497,307634.66996964114,182649.89748703237,31180.85729157167,1.235981054235522e-06,0.0,0.0,0.0,1.235981054235522e-06,0.0,23.25850536259834,3.001796900802349,0.0010978066013384612,0.0
1706,7.931034482758621,1.0344827586206897,3.928571428571429,0,102501.80948971494,240143.29529771605,248770.61573013818,142227.8111602593,-522.8068816300706,6.833453965980996e-07,0.0,0.0,0.0,6.833453965980996e-07,0.0,23.747672236543842,3.2958712898552127,-1.7724871909613355e-05,0.0
1707,7.931034482758621,1.0344827586206897,4.285714285714286,0,63994.22960574301,200544.8452439169,222592.18994996956,150489.08270767855,-5124.8911128308555,4.2662819737162006e-07,0.0,0.0,0.0,4.2662819737162006e-07,0.0,23.8925864231403,3.5949466381577504,-0.00017171789642465558,0.0
1708,7.931034482758621,1.0344827586206897,4.642857142857143,0,86064.85103706083,251660.76463243354,234148.20416451708,158186.4741915267,549.6124727164259,5.737656735804055e-07,0.0,0.0,0.0,5.737656735804055e-07,0.0,23.288550891587676,3.8969422597013823,1.8349379979957425e-05,0.0
1709,7.931034482758621,1.0344827586206897,5.0,0,244692.2945259753,296333.6383680102,150191.35357240133,13843.911679255061,-11256.691885391472,1.631281963506502e-06,0.0,0.0,0.0,1.631281963506502e-06,0.0,23.962460949608978,4.200097851726989,-0.0003754034471886962,0.0
1710,8.275862068965518,1.0344827586206897,0.0,0,231325.93550583432,300711.36849920574,165291.57600185226,33607.89590557822,51079.74910858201,1.5421729033722287e-06,0.0,0.0,0.0,1.5421729033722287e-06,0.0,24.122512137048282,-0.049906249384656744,0.0017034768377893247,0.0
1711,8.275862068965518,1.0344827586206897,0.35714285714285715,0,155451.08385659612,358909.63229998696,244076.10648685062,182014.89868675132,-36468.83301968762,1.0363405590439741e-06,0.0,0.0,0.0,1.0363405590439741e-06,0.0,23.899373636631534,0.25406358740349455,-0.00121754965129609,0.0
1712,8.275862068965518,1.0344827586206897,0.7142857142857143,0,232260.6157131701,333383.6354530052,157324.18325879623,70147.47231300222,21590.47403129872,1.5484041047544672e-06,0.0,0.0,0.0,1.5484041047544672e-06,0.0,23.056757709163982,0.5591447785827378,0.0007234243034322459,0.0
1713,8.275862068965518,1.0344827586206897,1.0714285714285714,0,250599.1249833524,354128.49005169823,293386.38415340136,78741.68481159616,22253.255553979474,1.6706608332223494e-06,0.0,0.0,0.0,1.6706608332223494e-06,0.0,23.322256968383023,0.8670238500012687,0.0007544585163767499,0.0
1714,8.275862068965518,1.0344827586206897,1.4285714285714286,0,274198.1683784289,367226.7533341729,218977.66138376365,50818.71515614698,-13949.472164219591,1.8279877891895261e-06,0.0,0.0,0.0,1.8279877891895261e-06,0.0,23.9869628098435,1.179694283017494,-0.0004911289796771166,0.0
1715,8.275862068965518,1.0344827586206897,1.7857142857142858,0,220916.4185642495,356569.62160123006,395201.3367098827,157517.08187225534,66629.91047534246,1.4727761237616633e-06,0.0,0.0,0.0,1.4727761237616633e-06,0.0,24.329770035955423,1.497013671878776,0.0026317147826714726,0.0
1716,8.275862068965518,1.0344827586206897,2.142857142857143,0,529245.0260019931,702932.0024238178,819243.2765007502,241516.6017881264,368311.62029495125,3.5283001733466205e-06,0.0,0.0,0.0,3.5283001733466205e-06,0.0,22.923336717447118,1.8141769783246733,0.019743379549833268,0.0
1717,8.275862068965518,1.0344827586206897,2.5,0,756713.4890703752,1043274.4538155539,480962.4823165087,182921.4035252106,468259.2524235765,5.044756593802502e-06,0.0,0.0,0.0,5.044756593802502e-06,0.0,23.714925610591067,2.1235640210683577,0.046825925242357645,0.0
1718,8.275862068965518,1.0344827586206897,2.857142857142857,0,515119.23317674134,724026.7746209748,522156.4175267534,138546.3519700934,371894.4894279599,3.4341282211782755e-06,0.0,0.0,0.0,3.4341282211782755e-06,0.0,23.93542892496466,2.4213198354675303,0.019935439591581942,0.0
1719,8.275862068965518,1.0344827586206897,3.2142857142857144,0,279653.5657941561,543449.7909853964,449741.82198471046,228976.24578234385,107226.73753334681,1.864357105294374e-06,0.0,0.0,0.0,1.864357105294374e-06,0.0,22.874762296571355,2.7112993861644905,0.0042351878946103655,0.0
1720,8.275862068965518,1.0344827586206897,3.5714285714285716,0,232999.6710809212,322719.6400967237,306865.4995815393,82197.79045831422,-20135.639613816387,1.5533311405394745e-06,0.0,0.0,0.0,1.5533311405394745e-06,0.0,24.087189991856302,3.0011228544460655,-0.0007089297732745452,0.0
1721,8.275862068965518,1.0344827586206897,3.928571428571429,0,135523.93905949066,235520.64298639953,188181.25219824686,82676.74498957646,-32676.252618032056,9.03492927063271e-07,0.0,0.0,0.0,9.03492927063271e-07,0.0,24.63991198966574,3.295595278572698,-0.0011078323803522655,0.0
1722,8.275862068965518,1.0344827586206897,4.285714285714286,0,255126.39253903143,280797.89751720545,171776.69121475157,-10725.909068446814,4766.814065471955,1.7008426169268763e-06,0.0,0.0,0.0,1.7008426169268763e-06,0.0,23.91913294989627,3.5948590642970237,0.00015971993666771982,0.0
1723,8.275862068965518,1.0344827586206897,4.642857142857143,0,103476.9009193468,304722.1799118999,187507.448519255,226039.97717302857,-35594.52159083296,6.898460061289786e-07,0.0,0.0,0.0,6.898460061289786e-07,0.0,23.8747988051215,3.896920730260638,-0.0011883598613526745,0.0
1724,8.275862068965518,1.0344827586206897,5.0,0,102295.92885234805,249300.1477371089,283934.85376489133,168817.7823795167,-83343.75308436558,6.819728590156537e-07,0.0,0.0,0.0,6.819728590156537e-07,0.0,23.221069994888495,4.200093750615343,-0.0027794606557649676,0.0
1725,8.620689655172415,1.0344827586206897,0.0,0,173296.50098162887,292386.9721683847,197668.01189729013,92374.56485373678,-15017.748085514062,1.1553100065441925e-06,0.0,0.0,0.0,1.1553100065441925e-06,0.0,23.220598982819546,-0.04991061605601807,-0.000500832256733423,0.0
1726,8.620689655172415,1.0344827586206897,0.35714285714285715,0,168822.31296158588,249246.66099129338,219634.35923388688,67577.37145647207,66730.76454134224,1.1254820864105724e-06,0.0,0.0,0.0,1.1254820864105724e-06,0.0,23.146889177193255,0.25404066386460006,0.002227875486286363,0.0
1727,8.620689655172415,1.0344827586206897,0.7142857142857143,0,227447.1976495906,376814.85398188164,189244.34678047072,123827.82168569164,-13763.344876826011,1.5163146509972707e-06,0.0,0.0,0.0,1.5163146509972707e-06,0.0,23.03303184645376,0.559051534042559,-0.00046116348191252313,0.0
1728,8.620689655172415,1.0344827586206897,1.0714285714285714,0,159221.2302113486,298528.7710009655,266808.0841993929,125834.9213853315,12241.50541761833,1.0614748680756572e-06,0.0,0.0,0.0,1.0614748680756572e-06,0.0,23.358905241322322,0.866729966131029,0.00041502727514144245,0.0
1729,8.620689655172415,1.0344827586206897,1.4285714285714286,0,365805.2966156671,475737.1433595909,269507.96860312525,53380.233220846596,30437.482690099998,2.438701977437781e-06,0.0,0.0,0.0,2.438701977437781e-06,0.0,23.639309787646205,1.1789765900663196,0.0010716340834653385,0.0
1730,8.620689655172415,1.0344827586206897,1.7857142857142858,0,649573.3578705343,689510.8743606831,263666.1080272526,-58142.958690009684,53449.51991610697,4.330489052470229e-06,0.0,0.0,0.0,4.330489052470229e-06,0.0,23.060648704037607,1.495655633002889,0.0021111223275914063,0.0
1731,8.620689655172415,1.0344827586206897,2.142857142857143,0,478301.8701080126,769687.2126175414,396062.59752393357,230630.4385479301,268977.37197984225,3.1886791340534173e-06,0.0,0.0,0.0,3.1886791340534173e-06,0.0,23.320480820132627,1.8121858634562307,0.014418557690528312,0.0
1732,8.620689655172415,1.0344827586206897,2.5,0,581801.6556209169,734885.4891908919,276422.09977036866,80387.22289990482,644267.7176473931,3.878677704139446e-06,0.0,0.0,0.0,3.878677704139446e-06,0.0,23.658386624416995,2.121302029302078,0.06442677176473931,0.0
1733,8.620689655172415,1.0344827586206897,2.857142857142857,0,102557.46912805724,455980.50392097444,417578.16219683766,339763.9755811882,298201.93238365673,6.83716460853715e-07,0.0,0.0,0.0,6.83716460853715e-07,0.0,22.44526906713031,2.4193287205990877,0.01598514303955279,0.0
1734,8.620689655172415,1.0344827586206897,3.2142857142857144,0,195962.57705737898,372593.46787115274,453490.0708831186,230030.4682976327,50798.14097823507,1.3064171803825266e-06,0.0,0.0,0.0,1.3064171803825266e-06,0.0,23.983022642018405,2.7099413472886034,0.002006399492223895,0.0
1735,8.620689655172415,1.0344827586206897,3.5714285714285716,0,247877.99652610498,267343.3775212087,355637.5323001336,75701.12555986666,34031.737815740016,1.6525199768406998e-06,0.0,0.0,0.0,1.6525199768406998e-06,0.0,23.619642009727446,3.000405161494891,0.0011981795779309051,0.0
1736,8.620689655172415,1.0344827586206897,3.928571428571429,0,270452.15588638396,404662.3728644483,265539.86738918966,92968.79065322735,-32455.412056947913,1.803014372575893e-06,0.0,0.0,0.0,1.803014372575893e-06,0.0,23.631208353115394,3.295301394702458,-0.0011003451593626357,0.0
1737,8.620689655172415,1.0344827586206897,4.285714285714286,0,75933.94238838731,315025.5825354697,249678.78573535624,231723.0352425426,-38886.0786075131,5.062262825892487e-07,0.0,0.0,0.0,5.062262825892487e-07,0.0,24.100768403254488,3.594765819756845,-0.0013029419497261297,0.0
1738,8.620689655172415,1.0344827586206897,4.642857142857143,0,145635.42050657226,330828.41302747285,207072.8990290769,170344.8485300816,-49870.493891110884,9.709028033771484e-07,0.0,0.0,0.0,9.709028033771484e-07,0.0,23.996397923012616,3.8968978067217432,-0.001664977939225705,0.0
1739,8.620689655172415,1.0344827586206897,5.0,0,145170.05973803598,170584.26280794604,262353.8133872524,94986.08277382124,17429.615772798534,9.678003982535733e-07,0.0,0.0,0.0,9.678003982535733e-07,0.0,23.83570199204526,4.200089383943982,0.0005812664956011177,0.0
1740,8.965517241379311,1.0344827586206897,0.0,0,33135.57205754877,252981.9048207893,251933.5663991863,285580.8676402827,-5444.938540589236,2.209038137169918e-07,0.0,0.0,0.0,2.209038137169918e-07,0.0,23.53750914246591,-0.04991521615824417,-0.00018158520448805038,0.0
1741,8.965517241379311,1.0344827586206897,0.35714285714285715,0,320725.4674914628,391795.4537428774,353020.3548711154,53445.21953300723,27497.82276801082,2.138169783276419e-06,0.0,0.0,0.0,2.138169783276419e-06,0.0,23.397538842188034,0.25401651489308985,0.0009180432097873595,0.0
1742,8.965517241379311,1.0344827586206897,0.7142857142857143,0,237283.61510232257,352967.3234671513,227102.1283602922,79269.50465660502,1704.1723337537603,1.5818907673488172e-06,0.0,0.0,0.0,1.5818907673488172e-06,0.0,23.11671018094146,0.5589533048923997,5.7101093829025144e-05,0.0
1743,8.965517241379311,1.0344827586206897,1.0714285714285714,0,203493.6504697206,333796.53260450193,333123.3646925901,129967.13325887534,-46929.80759339286,1.356624336464804e-06,0.0,0.0,0.0,1.356624336464804e-06,0.0,22.93151121888558,0.8664203719953956,-0.0015910747497089644,0.0
1744,8.965517241379311,1.0344827586206897,1.4285714285714286,0,369067.6922043116,444824.0730163201,349643.5507656896,37488.815307189376,-9189.029298802676,2.4604512813620775e-06,0.0,0.0,0.0,2.4604512813620775e-06,0.0,23.610288598426056,1.178220531121377,-0.0003235246847059873,0.0
1745,8.965517241379311,1.0344827586206897,1.7857142857142858,0,303564.32967181475,759832.6251841467,484979.8147856959,434009.69212107453,111651.79460093004,2.0237621978120983e-06,0.0,0.0,0.0,2.0237621978120983e-06,0.0,23.61841461570536,1.4942249969098156,0.0044099665790757045,0.0
1746,8.965517241379311,1.0344827586206897,2.142857142857143,0,509626.5950677821,810752.407813201,252526.20110658344,370372.7765942601,297689.0918959021,3.397510633785214e-06,0.0,0.0,0.0,3.397510633785214e-06,0.0,23.496670197739917,1.8100883087788011,0.015957652176271986,0.0
1747,8.965517241379311,1.0344827586206897,2.5,0,715095.8940173711,1011918.4219876218,884129.3269738043,241543.44443529026,694339.6438038911,4.767305960115808e-06,0.0,0.0,0.0,4.767305960115808e-06,0.0,22.758832243195208,2.1189191173541704,0.06943396438038912,0.0
1748,8.965517241379311,1.0344827586206897,2.857142857142857,0,410362.070444497,880926.5247794386,572144.8674879663,415268.2147776458,281453.58040385274,2.7357471362966464e-06,0.0,0.0,0.0,2.7357471362966464e-06,0.0,22.10796271440915,2.417231165921658,0.015087346033564587,0.0
1749,8.965517241379311,1.0344827586206897,3.2142857142857144,0,555971.5720168715,846434.1792671406,349935.97187999164,245734.31810960194,101493.01427291587,3.7064771467791436e-06,0.0,0.0,0.0,3.7064771467791436e-06,0.0,23.46810136057043,2.7085107111955304,0.004008720169281401,0.0
1750,8.965517241379311,1.0344827586206897,3.5714285714285716,0,86405.7553026022,231862.12253368867,161235.26576897543,135517.2278649509,-66221.5161817575,5.760383686840147e-07,0.0,0.0,0.0,5.760383686840147e-07,0.0,22.528086821017066,2.9996491025499488,-0.0023315079805270723,0.0
1751,8.965517241379311,1.0344827586206897,3.928571428571429,0,291932.06099530763,390917.0375623853,240361.0630894457,54441.80273351519,-7567.567162373051,1.9462137399687178e-06,0.0,0.0,0.0,1.9462137399687178e-06,0.0,23.608727829801172,3.294991800566825,-0.0002565654036577308,0.0
1752,8.965517241379311,1.0344827586206897,4.285714285714286,0,255633.82485222496,326156.3929551293,235914.79850458872,37640.86821538277,-12916.504996562639,1.704225499014833e-06,0.0,0.0,0.0,1.704225499014833e-06,0.0,24.428828422977986,3.5946675906066856,-0.00043278872045012624,0.0
1753,8.965517241379311,1.0344827586206897,4.642857142857143,0,195275.85762120923,370478.3928815596,146214.06395046358,278638.9277562336,-46515.3037358135,1.3018390508080616e-06,0.0,0.0,0.0,1.3018390508080616e-06,0.0,23.624854747172943,3.896873657750233,-0.001552961451025793,0.0
1754,8.965517241379311,1.0344827586206897,5.0,0,215208.9772576063,288952.25219994044,134855.05397414422,43068.09991033533,36992.81016063041,1.4347265150507088e-06,0.0,0.0,0.0,1.4347265150507088e-06,0.0,23.245712898272878,4.200084783841756,0.0012336864681816535,0.0
1755,9.310344827586208,1.0344827586206897,0.0,0,82905.29569811956,361144.0877152152,290796.58378341177,269741.25454824534,-23344.21200159003,5.527019713207971e-07,0.0,0.0,0.0,5.527019713207971e-07,0.0,22.80365513159301,-0.049920021203600784,-0.0007785144824540842,0.0
1756,9.310344827586208,1.0344827586206897,0.35714285714285715,0,295901.8787263046,416690.74786979664,318949.06786734157,84283.58774982323,-27113.850487354754,1.9726791915086977e-06,0.0,0.0,0.0,1.9726791915086977e-06,0.0,23.04296684091696,0.25399129003987614,-0.0009052238986740101,0.0
1757,9.310344827586208,1.0344827586206897,0.7142857142857143,0,361175.3457514278,593788.0054460982,270093.67468811903,204203.89630298974,47626.491357495426,2.407835638342852e-06,0.0,0.0,0.0,2.407835638342852e-06,0.0,23.317591303227246,0.5588506994504645,0.001595803838548028,0.0
1758,9.310344827586208,1.0344827586206897,1.0714285714285714,0,221696.80048873654,437955.73609188094,350696.8011254475,185906.30783634412,6328.702330223419,1.4779786699249103e-06,0.0,0.0,0.0,1.4779786699249103e-06,0.0,23.877235349154347,0.8660969848638191,0.00021456381332917332,0.0
1759,9.310344827586208,1.0344827586206897,1.4285714285714286,0,112810.55841047206,363828.6577508262,299130.6819858051,233567.2036660282,39673.9585855939,7.52070389403147e-07,0.0,0.0,0.0,7.52070389403147e-07,0.0,23.41563625888477,1.1774307883408572,0.0013968292542189543,0.0
1760,9.310344827586208,1.0344827586206897,1.7857142857142858,0,202185.16780833236,574439.9294844944,432520.6006306825,342940.48757254827,-40754.63205291331,1.3479011187222157e-06,0.0,0.0,0.0,1.3479011187222157e-06,0.0,23.20438808932097,1.4927306233115494,-0.0016097060144734843,0.0
1761,9.310344827586208,1.0344827586206897,2.142857142857143,0,670069.9559794428,845573.72635459,480380.94668673346,72240.99840936805,276465.52235148486,4.467133039862952e-06,0.0,0.0,0.0,4.467133039862952e-06,0.0,23.691513715933773,1.8078973041298565,0.01481996070571195,0.0
1762,9.310344827586208,1.0344827586206897,2.5,0,363406.97858252947,701202.418396215,424473.0189924456,289652.32063706795,859598.23373251,2.4227131905501965e-06,0.0,0.0,0.0,2.4227131905501965e-06,0.0,24.097740524462054,2.1164300422363347,0.085959823373251,0.0
1763,9.310344827586208,1.0344827586206897,2.857142857142857,0,822085.7715352913,868509.4997598795,995859.68940928,117530.39637654774,430139.73033166316,5.480571810235276e-06,0.0,0.0,0.0,5.480571810235276e-06,0.0,23.521220714954353,2.4150401612727133,0.023057681287926953,0.0
1764,9.310344827586208,1.0344827586206897,3.2142857142857144,0,394294.5790982497,719622.5951184146,581351.2654473028,274815.53843953117,-1253.1775087489805,2.628630527321665e-06,0.0,0.0,0.0,2.628630527321665e-06,0.0,23.464800857786862,2.707016337597264,-4.94973766519855e-05,0.0
1765,9.310344827586208,1.0344827586206897,3.5714285714285716,0,231538.83669629088,326484.23505063605,184676.40614963067,59294.46363265076,15367.024972046805,1.5435922446419391e-06,0.0,0.0,0.0,1.5435922446419391e-06,0.0,22.54394469486377,2.998859359769429,0.0005410377687660951,0.0
1766,9.310344827586208,1.0344827586206897,3.928571428571429,0,396528.8333197546,456086.6332949865,275662.4555275666,1429.1401164239319,-37296.93802197202,2.6435255554650306e-06,0.0,0.0,0.0,2.6435255554650306e-06,0.0,22.69776184251663,3.2946684134352484,-0.0012644888051187011,0.0
1767,9.310344827586208,1.0344827586206897,4.285714285714286,0,236699.05412022045,401653.0177949862,248844.33199804227,128999.9261612288,51012.870812179106,1.577993694134803e-06,0.0,0.0,0.0,1.577993694134803e-06,0.0,22.638482547333698,3.5945649851647503,0.0017092700456637431,0.0
1768,9.310344827586208,1.0344827586206897,4.642857142857143,0,295928.98373271734,311220.0537108462,235361.73249815402,-15253.903660530666,-82797.61314263116,1.972859891551449e-06,0.0,0.0,0.0,1.972859891551449e-06,0.0,23.29248481800868,3.8968484328970194,-0.002764283818885484,0.0
1769,9.310344827586208,1.0344827586206897,5.0,0,167731.59577058762,354392.1337156829,225465.97558943063,164759.47954402148,10040.528194284425,1.1182106384705842e-06,0.0,0.0,0.0,1.1182106384705842e-06,0.0,22.97596706911864,4.200079978796399,0.0003348451689098165,0.0
1770,9.655172413793103,1.0344827586206897,0.0,0,409312.04812769743,532089.4371625908,312985.9949381651,59864.84148357732,10494.564323173923,2.7287469875179828e-06,0.0,0.0,0.0,2.7287469875179828e-06,0.0,23.004770119942815,-0.049925006169381975,0.00034998698230123823,0.0
1771,9.655172413793103,1.0344827586206897,0.35714285714285715,0,327147.9391413263,462445.4849333185,348287.10596952285,93514.29133939685,-44870.115481664,2.180986260942175e-06,0.0,0.0,0.0,2.180986260942175e-06,0.0,22.834291423144357,0.2539651206656509,-0.0014980351421945018,0.0
1772,9.655172413793103,1.0344827586206897,0.7142857142857143,0,390970.8889057599,405278.58329166187,315756.41381256736,-22689.458392272365,-11045.198378522204,2.606472592705066e-06,0.0,0.0,0.0,2.606472592705066e-06,0.0,22.883175283376858,0.5587442520438219,-0.0003700875178409762,0.0
1773,9.655172413793103,1.0344827586206897,1.0714285714285714,0,105815.25431162509,396995.70279077743,281719.9636912217,304279.40644728113,15920.13597491811,7.054350287441672e-07,0.0,0.0,0.0,7.054350287441672e-07,0.0,22.339932975595026,0.8657614888038767,0.0005397449437911542,0.0
1774,9.655172413793103,1.0344827586206897,1.4285714285714286,0,384372.50821713445,491798.01493433956,323832.1568972476,52030.280206599855,-80039.62092039901,2.5624833881142295e-06,0.0,0.0,0.0,2.5624833881142295e-06,0.0,23.38172932461931,1.1766114743813294,-0.00281801181389561,0.0
1775,9.655172413793103,1.0344827586206897,1.7857142857142858,0,392291.9544505266,622842.3777149286,615706.4170542704,227031.123285857,-15694.41016500615,2.615279696336844e-06,0.0,0.0,0.0,2.615279696336844e-06,0.0,23.626544676265873,1.491180294293025,-0.0006198899404471069,0.0
1776,9.655172413793103,1.0344827586206897,2.142857142857143,0,689041.4309883822,595276.6585642587,814902.2904324143,42819.4917961137,371784.7557632021,4.593609539922548e-06,0.0,0.0,0.0,4.593609539922548e-06,0.0,23.316059842776262,1.8056242593631924,0.019929557308011926,0.0
1777,9.655172413793103,1.0344827586206897,2.5,0,1238124.4284569328,1703633.4368997992,864299.8382335083,281673.5502143429,597168.6270641831,8.254162856379552e-06,0.0,0.0,0.0,8.254162856379552e-06,0.0,23.468377570534532,2.113847766031144,0.059716862706418315,0.0
1778,9.655172413793103,1.0344827586206897,2.857142857142857,0,322243.79439636215,1059958.2472736386,712234.4351808839,771391.6076513234,340119.2933958505,2.1482919626424145e-06,0.0,0.0,0.0,2.1482919626424145e-06,0.0,23.5232119862685,2.4127671165060494,0.018232127176323644,0.0
1779,9.655172413793103,1.0344827586206897,3.2142857142857144,0,372639.487653628,749112.6907571768,533616.5904098384,318825.8664646806,71696.01900716293,2.4842632510241865e-06,0.0,0.0,0.0,2.4842632510241865e-06,0.0,23.508001047618038,2.7054660085787394,0.002831813396322528,0.0
1780,9.655172413793103,1.0344827586206897,3.5714285714285716,0,307633.05226072663,478766.65792126476,293692.12327529106,123648.62718931606,-38011.9197533231,2.050887015071511e-06,0.0,0.0,0.0,2.050887015071511e-06,0.0,23.72339738322681,2.998040045809901,-0.001338312671923414,0.0
1781,9.655172413793103,1.0344827586206897,3.928571428571429,0,194058.2705605762,355528.70917783317,360251.62837765913,163875.00726031285,-840.6054295466549,1.2937218037371747e-06,0.0,0.0,0.0,1.2937218037371747e-06,0.0,23.900231395554624,3.2943329173753058,-2.8499287382721745e-05,0.0
1782,9.655172413793103,1.0344827586206897,4.285714285714286,0,243209.42105472548,389524.05227409,196145.94589171547,116470.31024539754,12061.690653951742,1.6213961403648366e-06,0.0,0.0,0.0,1.6213961403648366e-06,0.0,24.098779474441024,3.5944585377581078,0.0004041467615255225,0.0
1783,9.655172413793103,1.0344827586206897,4.642857142857143,0,110017.74119873093,274279.4844336089,249109.8074937545,153857.87625812876,31410.279336456115,7.334516079915396e-07,0.0,0.0,0.0,7.334516079915396e-07,0.0,22.351466758343907,3.896822263522794,0.001048664612672668,0.0
1784,9.655172413793103,1.0344827586206897,5.0,0,324784.6796631729,586825.1006564611,331520.0731659397,221265.89228606393,-50231.848445320094,2.165231197754486e-06,0.0,0.0,0.0,2.165231197754486e-06,0.0,23.552667092568505,4.2000749938306186,-0.001675199895051362,0.0
1785,10.0,1.0344827586206897,0.0,0,165850.2983888164,337728.9926452255,212308.23271356145,149684.87336997068,-28180.969358418297,1.1056686559254425e-06,0.0,0.0,0.0,1.1056686559254425e-06,0.0,22.57163907609375,-0.04993014921654327,-0.000939817234937255,0.0
1786,10.0,1.0344827586206897,0.35714285714285715,0,171473.93655844557,355965.8950984845,172867.29096343342,199151.849166475,26398.63318569188,1.1431595770563037e-06,0.0,0.0,0.0,1.1431595770563037e-06,0.0,23.884486644030254,0.2539381214179671,0.0008813456304615215,0.0
1787,10.0,1.0344827586206897,0.7142857142857143,0,181676.10364850372,410352.86301781156,320658.3862560287,201272.91697573478,-66683.87596934389,1.2111740243233582e-06,0.0,0.0,0.0,1.2111740243233582e-06,0.0,23.2191730761371,0.5586344290166255,-0.002234352819366194,0.0
1788,10.0,1.0344827586206897,1.0714285714285714,0,421937.14323468896,583017.0143411751,167220.5660434658,155196.21738928094,5219.972641491525,2.81291428823126e-06,0.0,0.0,0.0,2.81291428823126e-06,0.0,23.32904489939859,0.8654153536177088,0.00017697423215555784,0.0
1789,10.0,1.0344827586206897,1.4285714285714286,0,364266.841044289,540303.0222666994,237174.38587175254,136201.37250735483,8285.691083993588,2.4284456069619266e-06,0.0,0.0,0.0,2.4284456069619266e-06,0.0,23.254223235584945,1.1757661786423577,0.00029172021421996325,0.0
1790,10.0,1.0344827586206897,1.7857142857142858,0,396837.1754909519,580941.3695470364,656992.7826309539,227633.61115455968,-118343.39866117189,2.6455811699396796e-06,0.0,0.0,0.0,2.6455811699396796e-06,0.0,23.30553693820881,1.4895808018174934,-0.00467426819976661,0.0
1791,10.0,1.0344827586206897,2.142857142857143,0,754138.3646218487,1430243.6029944858,753550.501100779,617250.3335488931,374722.8129778128,5.027589097478991e-06,0.0,0.0,0.0,5.027589097478991e-06,0.0,24.028761044025234,1.8032791326466158,0.020087052145347582,0.0
1792,10.0,1.0344827586206897,2.5,0,701659.605187421,1542039.6839151443,1287630.4268436981,748664.5449325586,820768.3485447924,4.677730701249473e-06,0.0,0.0,0.0,4.677730701249473e-06,0.0,23.82963865478886,2.1111836016437184,0.08207683485447924,0.0
1793,10.0,1.0344827586206897,2.857142857142857,0,948943.3443158051,1266530.640213184,524863.609419652,197169.4000289949,407023.26908432064,6.326288962105368e-06,0.0,0.0,0.0,6.326288962105368e-06,0.0,24.016786922911063,2.410421989789473,0.0218185211770138,0.0
1794,10.0,1.0344827586206897,3.2142857142857144,0,533871.2251787537,882206.7689186886,525713.4344446285,268411.1814321211,44689.976130603194,3.5591415011916916e-06,0.0,0.0,0.0,3.5591415011916916e-06,0.0,23.12194007000971,2.703866516103208,0.0017651422609019972,0.0
1795,10.0,1.0344827586206897,3.5714285714285716,0,575410.107916217,796727.2734391137,420172.2082845002,134370.10148467025,15185.610276851578,3.836067386108113e-06,0.0,0.0,0.0,3.836067386108113e-06,0.0,22.16165775526026,2.9971947500709293,0.000534650572670016,0.0
1796,10.0,1.0344827586206897,3.928571428571429,0,430053.8507235747,666186.7249635129,215984.9037792036,259605.63728878228,46141.25118042716,2.867025671490498e-06,0.0,0.0,0.0,2.867025671490498e-06,0.0,23.602405295477435,3.293986782189138,0.0015643400950889987,0.0
1797,10.0,1.0344827586206897,4.285714285714286,0,260976.3429645022,388173.09740765963,407834.90890872537,137583.74383972495,24196.38517384601,1.7398422864300146e-06,0.0,0.0,0.0,1.7398422864300146e-06,0.0,22.675254206530575,3.5943487147309114,0.0008107396375175811,0.0
1798,10.0,1.0344827586206897,4.642857142857143,0,226376.2262869023,594218.0231224204,359791.5241463653,376858.0899086148,-33903.12716228276,1.509174841912682e-06,0.0,0.0,0.0,1.509174841912682e-06,0.0,23.057203532552087,3.8967952642751102,-0.0011318909116724448,0.0
1799,10.0,1.0344827586206897,5.0,0,299647.4751501543,482819.7485174291,169579.2331105141,198924.6150742168,-65428.86082786096,1.9976498343343623e-06,0.0,0.0,0.0,1.9976498343343623e-06,0.0,23.211898545946223,4.200069850783457,-0.002182010500996693,0.0
1800,0.0,1.3793103448275863,0.0,0,196463.46739009453,493217.3704087425,310532.1209240982,285395.2679268259,23295.664206521193,1.309756449267297e-06,0.0,0.0,0.0,1.309756449267297e-06,0.0,23.23721889856242,-0.0499261269373935,0.0007768954446579175,0.0
1801,0.0,1.3793103448275863,0.35714285714285715,0,238537.46563815852,296731.0407077453,348602.9018113857,88397.67102517899,-52826.45180096696,1.5902497709210568e-06,0.0,0.0,0.0,1.5902497709210568e-06,0.0,23.562827206772052,0.25395923701492984,-0.0017636656466291272,0.0
1802,0.0,1.3793103448275863,0.7142857142857143,0,224378.2395018506,434640.0633893568,261879.7051766726,181044.48925427155,-23753.88011194564,1.4958549300123374e-06,0.0,0.0,0.0,1.4958549300123374e-06,0.0,22.78397605626005,0.5587203195127853,-0.0007959127784265554,0.0
1803,0.0,1.3793103448275863,1.0714285714285714,0,179779.22618195906,388226.0958202898,187302.6316622052,242566.00835501507,9612.706277379762,1.1985281745463938e-06,0.0,0.0,0.0,1.1985281745463938e-06,0.0,23.56367439091275,0.8656860593488953,0.0003259023426395014,0.0
1804,0.0,1.3793103448275863,1.4285714285714286,0,455479.8807805979,627961.3402025917,407121.15657760296,104159.90898510118,68539.87346015502,3.0365325385373193e-06,0.0,0.0,0.0,3.0365325385373193e-06,0.0,23.16000901042827,1.1764272683270574,0.0024131320327680553,0.0
1805,0.0,1.3793103448275863,1.7857142857142858,0,599382.5559279379,937053.4188812247,881513.5513799377,311833.9553047036,180522.8303355871,3.9958837061862525e-06,0.0,0.0,0.0,3.9958837061862525e-06,0.0,24.560946067161613,1.4908317343936055,0.007130200203100556,0.0
1806,0.0,1.3793103448275863,2.142857142857143,0,37874.17479328526,669007.1659994602,711885.2261233738,697899.8586698167,438185.14976479823,2.524944986219017e-07,0.0,0.0,0.0,2.524944986219017e-07,0.0,22.46953022388018,1.8051132115496138,0.023488956764325945,0.0
1807,0.0,1.3793103448275863,2.5,0,901918.3162170578,1339420.5104383412,1363980.145516481,450032.8352887625,707722.168477025,6.012788774780385e-06,0.0,0.0,0.0,6.012788774780385e-06,0.0,23.33309573981884,2.113267193827696,0.0707722168477025,0.0
1808,0.0,1.3793103448275863,2.857142857142857,0,1005673.3384016155,1399948.7636594612,628347.2541572294,262581.5138646544,293964.8462111633,6.704488922677437e-06,0.0,0.0,0.0,6.704488922677437e-06,0.0,23.58150967206742,2.412256068692471,0.015758013630977803,0.0
1809,0.0,1.3793103448275863,3.2142857142857144,0,163111.41790607764,742921.9451525729,573483.5405434472,586975.6066289624,232446.45701879065,1.0874094527071841e-06,0.0,0.0,0.0,1.0874094527071841e-06,0.0,23.073216440973052,2.70511744867932,0.009181053565160387,0.0
1810,0.0,1.3793103448275863,3.5714285714285716,0,469652.7959904962,617294.8144291316,460247.7597411889,89242.73877919075,-8845.35601563935,3.131018639936641e-06,0.0,0.0,0.0,3.131018639936641e-06,0.0,22.996647295961715,2.997855839755629,-0.00031142473519426097,0.0
1811,0.0,1.3793103448275863,3.928571428571429,0,257714.82186397215,496148.6869267597,323732.4626569463,199889.59618240938,31720.531335501953,1.718098812426481e-06,0.0,0.0,0.0,1.718098812426481e-06,0.0,23.950564195134415,3.2942574879203246,0.0010754302871332174,0.0
1812,0.0,1.3793103448275863,4.285714285714286,0,315810.9424135962,480721.52951299015,288187.07104701333,116248.38484267668,8860.877089564738,2.105406282757308e-06,0.0,0.0,0.0,2.105406282757308e-06,0.0,23.71350639252462,3.5944346052270713,0.0002968982444306032,0.0
1813,0.0,1.3793103448275863,4.642857142857143,0,308764.49635698897,424202.6950574148,379119.07346300595,95374.88309702605,-22229.777324136303,2.05842997571326e-06,0.0,0.0,0.0,2.05842997571326e-06,0.0,22.898367274237515,3.896816379872073,-0.0007421640723951994,0.0
1814,0.0,1.3793103448275863,5.0,0,207382.09136393474,339337.2527647191,483563.0080905719,245900.95210291081,-24124.806846571166,1.382547275759565e-06,0.0,0.0,0.0,1.382547275759565e-06,0.0,22.56103274441815,4.200073873062607,-0.0008045468193650676,0.0
1815,0.3448275862068966,1.3793103448275863,0.0,0,181195.6721235014,343451.32624558354,336554.5355244451,158905.72686297804,-61240.14509710101,1.2079711474900094e-06,0.0,0.0,0.0,1.2079711474900094e-06,0.0,23.609229113168954,-0.049920802329415565,-0.0020423195206775565,0.0
1816,0.3448275862068966,1.3793103448275863,0.35714285714285715,0,270648.0953512887,505682.1183223956,264290.0411313354,213091.37265500956,49707.13105396754,1.8043206356752579e-06,0.0,0.0,0.0,1.8043206356752579e-06,0.0,23.481134895493064,0.2539871893951252,0.0016595239022047991,0.0
1817,0.3448275862068966,1.3793103448275863,0.7142857142857143,0,414170.6289777866,445996.920946521,294127.4810696836,-22670.615078708943,-5348.587737141166,2.761137526518577e-06,0.0,0.0,0.0,2.761137526518577e-06,0.0,23.609949329933997,0.55883401953311,-0.00017921321933360315,0.0
1818,0.3448275862068966,1.3793103448275863,1.0714285714285714,0,284147.83812115947,445031.101716458,551057.0550302876,229140.9976419523,65726.46616551599,1.8943189208077298e-06,0.0,0.0,0.0,1.8943189208077298e-06,0.0,23.263614508723382,0.8660444138644016,0.002228343265534207,0.0
1819,0.3448275862068966,1.3793103448275863,1.4285714285714286,0,312900.64013927506,486814.0841194881,386687.3818734853,136105.1056832438,-17184.234461117205,2.086004267595167e-06,0.0,0.0,0.0,2.086004267595167e-06,0.0,23.763337667005754,1.1773024048549334,-0.0006050175546475956,0.0
1820,0.3448275862068966,1.3793103448275863,1.7857142857142858,0,608346.8733630416,715441.5967353121,442781.8786577994,18461.73374221084,57553.580645690534,4.055645822420277e-06,0.0,0.0,0.0,4.055645822420277e-06,0.0,24.138871825108016,1.4924876924528565,0.002273222459708851,0.0
1821,0.3448275862068966,1.3793103448275863,2.142857142857143,0,725419.8778718151,1365274.4910743348,531697.6352738544,877098.2608763772,297843.49554028927,4.836132519145434e-06,0.0,0.0,0.0,4.836132519145434e-06,0.0,24.108648607968295,1.8075411263699004,0.015965928998362397,0.0
1822,0.3448275862068966,1.3793103448275863,2.5,0,704425.2883837781,1239229.4332161674,444737.6614554836,690979.8872212569,725054.8209745714,4.6961685892251874e-06,0.0,0.0,0.0,4.6961685892251874e-06,0.0,22.938697004753063,2.1160254090465966,0.07250548209745714,0.0
1823,0.3448275862068966,1.3793103448275863,2.857142857142857,0,348647.19234916056,826116.07068166,872321.811938166,502875.70571961714,285780.6116405813,2.3243146156610704e-06,0.0,0.0,0.0,2.3243146156610704e-06,0.0,24.602691393884275,2.414683983512757,0.015319296955890366,0.0
1824,0.3448275862068966,1.3793103448275863,3.2142857142857144,0,333270.3602339717,875274.2681520828,633125.2958595982,495178.4712537107,110941.99217208725,2.221802401559811e-06,0.0,0.0,0.0,2.221802401559811e-06,0.0,23.686715135134406,2.706773406738571,0.004381931158775193,0.0
1825,0.3448275862068966,1.3793103448275863,3.5714285714285716,0,238880.28198721822,510113.08659753966,330134.5511508283,239100.10715073172,12420.53735496726,1.5925352132481215e-06,0.0,0.0,0.0,1.5925352132481215e-06,0.0,22.64911094028834,2.998730976283505,0.00043729868531035244,0.0
1826,0.3448275862068966,1.3793103448275863,3.928571428571429,0,305504.4116482193,460584.85753169935,319027.1440378903,109977.47141488208,67800.01520668523,2.036696077654795e-06,0.0,0.0,0.0,2.036696077654795e-06,0.0,23.58575658412645,3.2946158424358307,0.002298643394404799,0.0
1827,0.3448275862068966,1.3793103448275863,4.285714285714286,0,404400.52121735405,587107.0999200032,206987.85645681055,162160.69243281102,-64757.22094202412,2.6960034747823605e-06,0.0,0.0,0.0,2.6960034747823605e-06,0.0,23.48658403023711,3.594548305247396,-0.0021697970773721775,0.0
1828,0.3448275862068966,1.3793103448275863,4.642857142857143,0,283805.03915182763,441033.1082275636,321771.5068663898,117058.20778580036,53851.20910391882,1.8920335943455176e-06,0.0,0.0,0.0,1.8920335943455176e-06,0.0,23.318271139490914,3.8968443322522686,0.0017978782274429578,0.0
1829,0.3448275862068966,1.3793103448275863,5.0,0,295230.71001576027,468374.69835766836,352574.5720007321,132798.70862416353,-43322.21855817249,1.968204733438402e-06,0.0,0.0,0.0,1.968204733438402e-06,0.0,23.27961979466551,4.2000791976705845,-0.0014447681745385602,0.0
1830,0.6896551724137931,1.3793103448275863,0.0,0,241345.89757888106,335050.08101055527,259970.83549787354,65088.05733706832,15091.928743473234,1.6089726505258737e-06,0.0,0.0,0.0,1.6089726505258737e-06,0.0,23.742745638975013,-0.04991562469392928,0.0005033061340497897,0.0
1831,0.6896551724137931,1.3793103448275863,0.35714285714285715,0,348293.65939128166,419244.9904628101,455213.55861643737,90331.35043095527,-50228.621553427656,2.321957729275211e-06,0.0,0.0,0.0,2.321957729275211e-06,0.0,23.749439344251428,0.25401437021974665,-0.0016769344010663645,0.0
1832,0.6896551724137931,1.3793103448275863,0.7142857142857143,0,249683.36023767668,493537.7745783514,234286.92671079814,254671.65864043424,8926.365778970045,1.6645557349178445e-06,0.0,0.0,0.0,1.6645557349178445e-06,0.0,23.107774558283722,0.558944581148625,0.000299092550560568,0.0
1833,0.6896551724137931,1.3793103448275863,1.0714285714285714,0,119209.35789887985,312235.6530166374,342950.4964689224,211389.28907105816,-113495.11912408746,7.947290526591991e-07,0.0,0.0,0.0,7.947290526591991e-07,0.0,23.137924921888196,0.8663928768993978,-0.003847857630657959,0.0
1834,0.6896551724137931,1.3793103448275863,1.4285714285714286,0,353906.9899902243,547847.6681749718,458043.9152962953,157689.91265372725,-28698.430231107755,2.359379933268162e-06,0.0,0.0,0.0,2.359379933268162e-06,0.0,23.123080721336954,1.1781533854268094,-0.0010104060276840878,0.0
1835,0.6896551724137931,1.3793103448275863,1.7857142857142858,0,542690.6958195185,769684.6235684118,516470.40726473223,146665.27561445124,87478.91206086446,3.6179379721301235e-06,0.0,0.0,0.0,3.6179379721301235e-06,0.0,23.327925683430337,1.4940979419297968,0.0034551981895246794,0.0
1836,0.6896551724137931,1.3793103448275863,2.142857142857143,0,667327.0325497432,1127059.9565189108,740343.6533601182,356498.85620740376,617830.7073927933,4.448846883664954e-06,0.0,0.0,0.0,4.448846883664954e-06,0.0,23.86327473542048,1.8099020246713888,0.03311887402257209,0.0
1837,0.6896551724137931,1.3793103448275863,2.5,0,1335353.0881858636,1588088.1977071231,544816.407445168,83164.01887688682,479016.2018019869,8.90235392123909e-06,0.0,0.0,0.0,8.90235392123909e-06,0.0,24.026058387172956,2.11870749062995,0.047901620180198695,0.0
1838,0.6896551724137931,1.3793103448275863,2.857142857142857,0,670221.2394000586,1192598.5362993744,1085935.9128374825,475442.0794359767,421347.0838979977,4.468141596000391e-06,0.0,0.0,0.0,4.468141596000391e-06,0.0,23.322376919202863,2.417044881814246,0.022586350636864882,0.0
1839,0.6896551724137931,1.3793103448275863,3.2142857142857144,0,506532.49487891013,977509.6175327686,502496.95802343014,444457.35505756264,40335.97717353894,3.376883299192734e-06,0.0,0.0,0.0,3.376883299192734e-06,0.0,23.9837207300265,2.7083836562155112,0.0015931701940434862,0.0
1840,0.6896551724137931,1.3793103448275863,3.5714285714285716,0,36460.12327971265,422028.074733264,425288.8124948403,460009.0458306526,-94296.27260363052,2.430674885314177e-07,0.0,0.0,0.0,2.430674885314177e-07,0.0,23.65983820375676,2.9995819568553808,-0.0033199558811956836,0.0
1841,0.6896551724137931,1.3793103448275863,3.928571428571429,0,348894.9679000688,465542.1625399936,378233.22639753256,81284.46359999437,-50689.15694542777,2.3259664526671254e-06,0.0,0.0,0.0,2.3259664526671254e-06,0.0,23.510248344513325,3.294964305470827,-0.0017185290508469815,0.0
1842,0.6896551724137931,1.3793103448275863,4.285714285714286,0,193287.01657554397,447341.96836751123,252658.27452810213,255482.58185087776,-20718.50455565875,1.2885801105036264e-06,0.0,0.0,0.0,1.2885801105036264e-06,0.0,24.382226777915704,3.5946588668629107,-0.0006942075335913162,0.0
1843,0.6896551724137931,1.3793103448275863,4.642857142857143,0,209315.79607948702,344734.6048251501,289633.65085256496,113380.26099165397,20481.86270680838,1.3954386405299133e-06,0.0,0.0,0.0,1.3954386405299133e-06,0.0,23.617753464088153,3.89687151307689,0.000683808137844893,0.0
1844,0.6896551724137931,1.3793103448275863,5.0,0,405716.2454156101,522276.1487315928,423910.30369896576,76421.07923190149,3853.6725017020267,2.7047749694374007e-06,0.0,0.0,0.0,2.7047749694374007e-06,0.0,23.39023421880691,4.200084375306071,0.00012851750373950264,0.0
1845,1.0344827586206897,1.3793103448275863,0.0,0,508164.06988904154,636677.0172639473,207118.51840459797,75718.12665144473,-57042.02265983124,3.3877604659269438e-06,0.0,0.0,0.0,3.3877604659269438e-06,0.0,23.883622740116554,-0.04991061605601807,-0.0019023148327357512,0.0
1846,1.0344827586206897,1.3793103448275863,0.35714285714285715,0,279390.9720718001,433218.73699234525,489288.0859753756,186114.38053098065,-79724.94429481545,1.8626064804786672e-06,0.0,0.0,0.0,1.8626064804786672e-06,0.0,22.855080751959566,0.25404066386460006,-0.0026616995962922703,0.0
1847,1.0344827586206897,1.3793103448275863,0.7142857142857143,0,338244.00154758507,480131.43052603095,240293.93342456841,93252.97374013887,18219.12721170502,2.2549600103172337e-06,0.0,0.0,0.0,2.2549600103172337e-06,0.0,23.365567779978942,0.559051534042559,0.0006104617894523534,0.0
1848,1.0344827586206897,1.3793103448275863,1.0714285714285714,0,298871.00469151,456874.72523668216,208509.38578679864,125183.33023670361,-8485.03142225797,1.9924733646100665e-06,0.0,0.0,0.0,1.9924733646100665e-06,0.0,23.61085974414433,0.866729966131029,-0.00028767045804684857,0.0
1849,1.0344827586206897,1.3793103448275863,1.4285714285714286,0,257475.49436970742,447596.89859795384,379293.6818314224,162856.71678119453,90697.17062855008,1.7165032957980494e-06,0.0,0.0,0.0,1.7165032957980494e-06,0.0,23.84439741432803,1.1789765900663196,0.003193239740257454,0.0
1850,1.0344827586206897,1.3793103448275863,1.7857142857142858,0,578049.3495526392,475560.1675395141,853871.7725527684,188479.3716494506,52414.70718456953,3.853662330350928e-06,0.0,0.0,0.0,3.853662330350928e-06,0.0,23.609977760896548,1.495655633002889,0.002070249813378866,0.0
1851,1.0344827586206897,1.3793103448275863,2.142857142857143,0,648629.855039359,951694.2114415001,352164.59004364215,263157.1490986484,544617.9632128202,4.324199033595726e-06,0.0,0.0,0.0,4.324199033595726e-06,0.0,22.84965526496851,1.8121858634562307,0.029194297884918608,0.0
1852,1.0344827586206897,1.3793103448275863,2.5,0,1021836.3221982389,940850.1754156388,875904.7938341056,-111909.75062902668,823213.296690462,6.81224214798826e-06,0.0,0.0,0.0,6.81224214798826e-06,0.0,23.056439404459187,2.121302029302078,0.0823213296690462,0.0
1853,1.0344827586206897,1.3793103448275863,2.857142857142857,0,891027.9159441332,1485775.1717300678,881227.0114730976,462514.3452329828,508978.5391925535,5.940186106294222e-06,0.0,0.0,0.0,5.940186106294222e-06,0.0,23.288147775531232,2.4193287205990877,0.027283843159634405,0.0
1854,1.0344827586206897,1.3793103448275863,3.2142857142857144,0,365050.91122546396,730696.4731693629,528573.9085901194,309288.4733181689,111123.67295029719,2.433672741503093e-06,0.0,0.0,0.0,2.433672741503093e-06,0.0,23.629173041126155,2.7099413472886034,0.004389107095022612,0.0
1855,1.0344827586206897,1.3793103448275863,3.5714285714285716,0,327618.182811495,485989.32061444886,405358.7826394576,125583.89094077446,30284.0942634137,2.1841212187433e-06,0.0,0.0,0.0,2.1841212187433e-06,0.0,22.864658700490427,3.000405161494891,0.001066233628121519,0.0
1856,1.0344827586206897,1.3793103448275863,3.928571428571429,0,299939.94517611724,529176.0760383572,249976.54689341423,212094.7971997971,-102680.67476742402,1.999599634507448e-06,0.0,0.0,0.0,1.999599634507448e-06,0.0,24.22240253962076,3.295301394702458,-0.0034812124166587804,0.0
1857,1.0344827586206897,1.3793103448275863,4.285714285714286,0,73871.23022573574,338249.2384794299,252953.56306673455,296268.0880931511,-10325.314656620209,4.924748681715715e-07,0.0,0.0,0.0,4.924748681715715e-07,0.0,23.679044682430362,3.594765819756845,-0.0003459666310408897,0.0
1858,1.0344827586206897,1.3793103448275863,4.642857142857143,0,167489.4855383136,368026.50020942587,291384.2821069535,175928.91191269923,-28847.246669759268,1.116596570255424e-06,0.0,0.0,0.0,1.116596570255424e-06,0.0,23.670187262886735,3.8968978067217432,-0.0009630951202813822,0.0
1859,1.0344827586206897,1.3793103448275863,5.0,0,205887.1156363647,440528.19845016237,206015.43847287443,289473.46878378984,55224.039635284265,1.372580770909098e-06,0.0,0.0,0.0,1.372580770909098e-06,0.0,23.445479073512956,4.200089383943982,0.0018416862660756688,0.0
1860,1.3793103448275863,1.3793103448275863,0.0,0,196809.05593264254,519277.8777191401,297617.62556613906,365044.3651538064,-43138.779245487305,1.3120603728842837e-06,0.0,0.0,0.0,1.3120603728842837e-06,0.0,22.815359102446912,-0.04990580210851661,-0.001438650591234951,0.0
1861,1.3793103448275863,1.3793103448275863,0.35714285714285715,0,179387.70906010657,473972.19286511187,268035.7387988532,390306.3705214311,-12073.074519790587,1.1959180604007105e-06,0.0,0.0,0.0,1.1959180604007105e-06,0.0,23.587160975553825,0.2540659354510453,-0.0004030720605648996,0.0
1862,1.3793103448275863,1.3793103448275863,0.7142857142857143,0,332061.5001105156,453588.6163395739,261865.06641968666,70157.02349146368,34613.60487320458,2.213743334070104e-06,0.0,0.0,0.0,2.213743334070104e-06,0.0,23.920607196931268,0.5591543295781226,0.0011597856980063157,0.0
1863,1.3793103448275863,1.3793103448275863,1.0714285714285714,0,337654.1723903191,452158.1187906357,340179.7836158031,72740.47461033192,13684.38494180068,2.2510278159354606e-06,0.0,0.0,0.0,2.2510278159354606e-06,0.0,23.47459223834471,0.8670539523909953,0.0004639456341871299,0.0
1864,1.3793103448275863,1.3793103448275863,1.4285714285714286,0,391578.2118625776,558786.3793591086,173768.81799447152,160961.73449159213,15159.38398949103,2.610521412417184e-06,0.0,0.0,0.0,2.610521412417184e-06,0.0,24.090538985477465,1.1797677959765502,0.0005337272051332039,0.0
1865,1.3793103448275863,1.3793103448275863,1.7857142857142858,0,398769.1933066278,771016.7783374273,484831.7365110429,315529.5377080695,160273.38149472757,2.658461288710852e-06,0.0,0.0,0.0,2.658461288710852e-06,0.0,23.52953229621871,1.497152775176526,0.0063303976298228854,0.0
1866,1.3793103448275863,1.3793103448275863,2.142857142857143,0,453685.92045074614,871859.0549138966,1277550.9158198119,787665.7895916738,442700.72818039043,3.024572803004974e-06,0.0,0.0,0.0,3.024572803004974e-06,0.0,23.91344270861184,1.8143809273053078,0.023731014776165692,0.0
1867,1.3793103448275863,1.3793103448275863,2.5,0,654331.8315572003,1303896.9229993147,623744.4982956883,678873.9521708806,675073.3397691286,4.3622122103813355e-06,0.0,0.0,0.0,4.3622122103813355e-06,0.0,23.51480090683897,2.1237957158451124,0.06750733397691286,0.0
1868,1.3793103448275863,1.3793103448275863,2.857142857142857,0,798533.7310135181,862258.4858500813,1050945.2902927662,174966.36755161284,271805.1933693845,5.323558206756787e-06,0.0,0.0,0.0,5.323558206756787e-06,0.0,23.76457299176115,2.4215237844481647,0.014570143325942581,0.0
1869,1.3793103448275863,1.3793103448275863,3.2142857142857144,0,476391.96179863135,753145.1952187851,526890.1175126411,205787.5547772941,114138.6162416561,3.1759464119908755e-06,0.0,0.0,0.0,3.1759464119908755e-06,0.0,24.013697117581113,2.7114384894622403,0.004508189812861799,0.0
1870,1.3793103448275863,1.3793103448275863,3.5714285714285716,0,232232.87625676818,467637.4220285939,299769.81749213237,202602.93139920858,-33339.69385928793,1.5482191750451213e-06,0.0,0.0,0.0,1.5482191750451213e-06,0.0,23.044161867087915,3.001196367405122,-0.0011738142945551062,0.0
1871,1.3793103448275863,1.3793103448275863,3.928571428571429,0,566350.0485433531,671310.2746216159,194051.14626628184,45485.44861060901,-10450.22415043129,3.775666990289021e-06,0.0,0.0,0.0,3.775666990289021e-06,0.0,23.912762464565034,3.2956253809624245,-0.0003542969517073181,0.0
1872,1.3793103448275863,1.3793103448275863,4.285714285714286,0,220925.801922064,428679.1275842534,314560.98121208075,174032.10826697818,46604.760927176365,1.4728386794804268e-06,0.0,0.0,0.0,1.4728386794804268e-06,0.0,24.120993996775745,3.5948686152924085,0.0015615690818781376,0.0
1873,1.3793103448275863,1.3793103448275863,4.642857142857143,0,315066.06013630814,309776.08565455675,426736.98495996924,69916.57272251701,-9531.346800928723,2.100440400908721e-06,0.0,0.0,0.0,2.100440400908721e-06,0.0,24.693767594766687,3.8969230783081885,-0.00031821385585845303,0.0
1874,1.3793103448275863,1.3793103448275863,5.0,0,339682.1842534334,419109.20407764474,267942.5661942916,30084.547733790358,-19131.6723543702,2.2645478950228897e-06,0.0,0.0,0.0,2.2645478950228897e-06,0.0,23.638884485512044,4.200094197891484,-0.0006380289898167966,0.0
1875,1.7241379310344829,1.3793103448275863,0.0,0,329794.7851025278,470320.15144484263,291345.9361170251,89730.35920611495,-11913.38259644757,2.198631900683519e-06,0.0,0.0,0.0,2.198631900683519e-06,0.0,22.555342462705102,-0.04990121268581896,-0.00039730366078405855,0.0
1876,1.7241379310344829,1.3793103448275863,0.35714285714285715,0,314619.81927875825,568768.7604497793,384417.52290621126,205490.58434015923,-10765.540212151178,2.0974654618583885e-06,0.0,0.0,0.0,2.0974654618583885e-06,0.0,22.719262107199178,0.2540900283586648,-0.0003594186774290969,0.0
1877,1.7241379310344829,1.3793103448275863,0.7142857142857143,0,153124.199970566,377109.70858855895,328401.3225094269,205556.1933331602,-42368.65957221003,1.0208279998037733e-06,0.0,0.0,0.0,1.0208279998037733e-06,0.0,23.170837172609207,0.5592523306809578,-0.0014196315464844057,0.0
1878,1.7241379310344829,1.3793103448275863,1.0714285714285714,0,124467.64319065295,301050.27586896863,169811.17117711986,184692.00801706043,74160.62653717001,8.297842879376863e-07,0.0,0.0,0.0,8.297842879376863e-07,0.0,24.260361238635273,0.8673628277775193,0.002514289027737246,0.0
1879,1.7241379310344829,1.3793103448275863,1.4285714285714286,0,263685.8546505692,595461.605612957,368413.13513886475,306247.3763969351,-21682.65461426205,1.7579056976704615e-06,0.0,0.0,0.0,1.7579056976704615e-06,0.0,24.722261615182013,1.1805220996663677,-0.0007633966297813397,0.0
1880,1.7241379310344829,1.3793103448275863,1.7857142857142858,0,274362.6971694499,530753.6417458155,735000.5473163547,423145.621519189,134745.3422614931,1.8290846477963326e-06,0.0,0.0,0.0,1.8290846477963326e-06,0.0,23.4253933119329,1.4985800899262678,0.005322103940945988,0.0
1881,1.7241379310344829,1.3793103448275863,2.142857142857143,0,444277.44353507255,991556.2871836562,752395.8573600391,478931.33761814877,299079.44602088816,2.9618496235671503e-06,0.0,0.0,0.0,2.9618496235671503e-06,0.0,23.659980657658537,1.8164736123312073,0.016032182241808045,0.0
1882,1.7241379310344829,1.3793103448275863,2.5,0,899148.7625847749,1212325.6325143287,193903.04052389335,528242.7683602353,807751.0376566931,5.9943250838984995e-06,0.0,0.0,0.0,5.9943250838984995e-06,0.0,22.34746816890574,2.1261730956603233,0.0807751037656693,0.0
1883,1.7241379310344829,1.3793103448275863,2.857142857142857,0,532707.1596652338,1071188.0925924983,844766.7249445824,462672.51159616595,428113.78053681384,3.551381064434892e-06,0.0,0.0,0.0,3.551381064434892e-06,0.0,23.96850837334279,2.423616469474064,0.022949080055859973,0.0
1884,1.7241379310344829,1.3793103448275863,3.2142857142857144,0,492090.09758604364,834266.3630598075,484142.57655008323,271631.68343790463,79068.91898620936,3.2806006505736243e-06,0.0,0.0,0.0,3.2806006505736243e-06,0.0,23.714766678056698,2.7128658042119826,0.003123024501479201,0.0
1885,1.7241379310344829,1.3793103448275863,3.5714285714285716,0,400219.8430847216,441860.4227059435,171048.3070367763,-17847.225170766418,15387.872376605483,2.6681322872314774e-06,0.0,0.0,0.0,2.6681322872314774e-06,0.0,23.527278809754563,3.001950671094939,0.0005417717581535992,0.0
1886,1.7241379310344829,1.3793103448275863,3.928571428571429,0,221984.32791499957,416332.1509105995,160391.6179740775,276201.51684917446,18602.990779636377,1.4798955194333304e-06,0.0,0.0,0.0,1.4798955194333304e-06,0.0,23.175244693537774,3.2959342563489487,0.0006307025410160696,0.0
1887,1.7241379310344829,1.3793103448275863,4.285714285714286,0,203018.64913742972,426288.8023869125,382629.6650068515,204992.49037858218,-9694.308920035168,1.353457660916198e-06,0.0,0.0,0.0,1.353457660916198e-06,0.0,23.485561614408432,3.5949666163952436,-0.0003248237471565878,0.0
1888,1.7241379310344829,1.3793103448275863,4.642857142857143,0,322699.7723117245,438898.6530251101,235883.16895182416,66792.17120960956,-7543.868606172248,2.1513318154114966e-06,0.0,0.0,0.0,2.1513318154114966e-06,0.0,22.993881379287938,3.896947171215808,-0.0002518598438812128,0.0
1889,1.7241379310344829,1.3793103448275863,5.0,0,188273.38554495995,434400.25541792647,220914.55747412774,292093.93804588396,24602.497278893265,1.2551559036330664e-06,0.0,0.0,0.0,1.2551559036330664e-06,0.0,23.24085409973805,4.2000987873141815,0.0008204774885890782,0.0
1890,2.0689655172413794,1.3793103448275863,0.0,0,293179.58690989827,457067.40005228436,291288.6301581454,118556.57670470006,-48008.60469564351,1.9545305793993216e-06,0.0,0.0,0.0,1.9545305793993216e-06,0.0,23.033726498846818,-0.049896882170131655,-0.0016010561433997383,0.0
1891,2.0689655172413794,1.3793103448275863,0.35714285714285715,0,300125.84546053055,491455.9278427732,240167.1645628966,159133.07320588522,-54508.099793147405,2.00083896973687e-06,0.0,0.0,0.0,2.00083896973687e-06,0.0,23.16530496029029,0.25411276209257255,-0.0018198092014661228,0.0
1892,2.0689655172413794,1.3793103448275863,0.7142857142857143,0,180533.91137739795,454958.23256675573,303723.8807087921,255088.80808347848,7554.42521671562,1.203559409182653e-06,0.0,0.0,0.0,1.203559409182653e-06,0.0,23.100935861240913,0.5593448031641346,0.0002531234280595717,0.0
1893,2.0689655172413794,1.3793103448275863,1.0714285714285714,0,247873.1916671074,474022.3891267996,286597.6012530998,192973.18403124405,-87065.7055355862,1.6524879444473826e-06,0.0,0.0,0.0,1.6524879444473826e-06,0.0,23.97177647979496,0.8676542783138678,-0.002951813628632269,0.0
1894,2.0689655172413794,1.3793103448275863,1.4285714285714286,0,108982.63412434916,345227.9458555446,232322.30776960336,336904.6625155765,-78642.95896556345,7.265508941623277e-07,0.0,0.0,0.0,7.265508941623277e-07,0.0,23.113064282561048,1.1812338501798707,-0.0027688385439139916,0.0
1895,2.0689655172413794,1.3793103448275863,1.7857142857142858,0,429517.3910166097,730739.4909465688,432462.83718653914,238441.62747751398,206812.65283262584,2.8634492734440645e-06,0.0,0.0,0.0,2.8634492734440645e-06,0.0,23.666561389755593,1.4999268843537292,0.008168582425223905,0.0
1896,2.0689655172413794,1.3793103448275863,2.142857142857143,0,359461.77504156687,1174690.4316656482,845242.8544694469,791309.4041622262,570355.5352871069,2.3964118336104457e-06,0.0,0.0,0.0,2.3964118336104457e-06,0.0,23.151470305831353,1.8184482409349,0.030573962891813848,0.0
1897,2.0689655172413794,1.3793103448275863,2.5,0,984633.5485220485,1445082.758573214,893422.4524907231,308290.11802461476,655734.4779926012,6.5642236568136565e-06,0.0,0.0,0.0,6.5642236568136565e-06,0.0,23.17581349886579,2.1284163583237716,0.06557344779926012,0.0
1898,2.0689655172413794,1.3793103448275863,2.857142857142857,0,202336.25100199805,923468.8125076041,732759.1805729865,711228.0021480434,511378.1251156133,1.3489083400133203e-06,0.0,0.0,0.0,1.3489083400133203e-06,0.0,23.160861096181637,2.425591098077757,0.027412473192006088,0.0
1899,2.0689655172413794,1.3793103448275863,3.2142857142857144,0,758345.2006816793,628112.5563924504,786758.861018628,-38359.81013208425,151000.65260719933,5.055634671211195e-06,0.0,0.0,0.0,5.055634671211195e-06,0.0,24.20045940288372,2.7142125986394436,0.005964148035385208,0.0
1900,2.0689655172413794,1.3793103448275863,3.5714285714285716,0,346746.5343171925,447057.89961738733,427375.00573906716,90889.15541822925,30140.781907032924,2.3116435621146166e-06,0.0,0.0,0.0,2.3116435621146166e-06,0.0,23.625115440973506,3.0026624216084423,0.0010611879281455048,0.0
1901,2.0689655172413794,1.3793103448275863,3.928571428571429,0,246690.39325289693,481221.78201995144,378311.5893187834,199737.8411695411,-3151.5363116093645,1.6446026216859796e-06,0.0,0.0,0.0,1.6446026216859796e-06,0.0,23.34753695010774,3.296225706885297,-0.00010684744100460659,0.0
1902,2.0689655172413794,1.3793103448275863,4.285714285714286,0,326537.1765162362,509058.05982629117,281280.92653440527,134948.98897440857,26431.542386020552,2.1769145101082413e-06,0.0,0.0,0.0,2.1769145101082413e-06,0.0,23.22379913232743,3.59505908887842,0.0008856322520537366,0.0
1903,2.0689655172413794,1.3793103448275863,4.642857142857143,0,198096.5521020961,386223.98003950756,312857.223956515,161910.0253823315,33554.71620190091,1.3206436806806407e-06,0.0,0.0,0.0,1.3206436806806407e-06,0.0,23.058425460428822,3.896969904949716,0.0011202588519602064,0.0
1904,2.0689655172413794,1.3793103448275863,5.0,0,291654.1491622969,496750.20335787395,258037.64874596472,171665.02694784227,26994.745812781264,1.9443609944153127e-06,0.0,0.0,0.0,1.9443609944153127e-06,0.0,23.376146948179244,4.200103117829869,0.0009002574412871818,0.0
1905,2.413793103448276,1.3793103448275863,0.0,0,327414.63405277417,423635.6250853024,353689.78433561494,66900.32792709924,-64053.46221302175,2.1827642270184946e-06,0.0,0.0,0.0,2.1827642270184946e-06,0.0,23.0104374576576,-0.04989284972978898,-0.002136141840245725,0.0
1906,2.413793103448276,1.3793103448275863,0.35714285714285715,0,288978.95225942624,403228.897373844,280325.0245485016,73113.95014212685,84068.92956742462,1.926526348396175e-06,0.0,0.0,0.0,1.926526348396175e-06,0.0,23.516144395841494,0.2541339310323407,0.0028067280306006944,0.0
1907,2.413793103448276,1.3793103448275863,0.7142857142857143,0,184524.97458029725,397290.0356498257,308829.03526806086,185189.1842874145,99702.46633978223,1.2301664972019816e-06,0.0,0.0,0.0,1.2301664972019816e-06,0.0,23.38428016247137,0.5594309106392427,0.003340694936006242,0.0
1908,2.413793103448276,1.3793103448275863,1.0714285714285714,0,326827.4953576773,491196.95079228503,312894.15545484296,113996.43126600089,-81321.18433951876,2.178849969051182e-06,0.0,0.0,0.0,2.178849969051182e-06,0.0,23.35331285158125,0.867925667909364,-0.0027570554761288347,0.0
1909,2.413793103448276,1.3793103448275863,1.4285714285714286,0,190521.25473883533,529000.5036549184,345857.5832979013,331871.70574194606,31620.696015614,1.2701416982589022e-06,0.0,0.0,0.0,1.2701416982589022e-06,0.0,24.366773080962908,1.181896609927627,0.0011132923158671784,0.0
1910,2.413793103448276,1.3793103448275863,1.7857142857142858,0,725800.127298466,1035287.5637257732,916098.9505776308,257270.41462904366,220486.92131320253,4.838667515323107e-06,0.0,0.0,0.0,4.838667515323107e-06,0.0,23.63038144833364,1.5011809770703337,0.008708681822714013,0.0
1911,2.413793103448276,1.3793103448275863,2.142857142857143,0,289938.222358404,874428.364804664,597329.4739471467,573163.4428578385,503212.7100065056,1.9329214823893602e-06,0.0,0.0,0.0,1.9329214823893602e-06,0.0,23.66608763544085,1.8202869531387795,0.02697476533594672,0.0
1912,2.413793103448276,1.3793103448275863,2.5,0,720194.9323360256,1368784.767986849,700574.807546138,605958.0515104923,841265.3111739068,4.8012995489068374e-06,0.0,0.0,0.0,4.8012995489068374e-06,0.0,24.40285469804927,2.1305052141359866,0.08412653111739067,0.0
1913,2.413793103448276,1.3793103448275863,2.857142857142857,0,620519.322132908,942527.7682313835,884193.7772631402,294901.325197488,245929.64503210422,4.136795480886054e-06,0.0,0.0,0.0,4.136795480886054e-06,0.0,23.087229165005322,2.4274298102816365,0.013183082088304012,0.0
1914,2.413793103448276,1.3793103448275863,3.2142857142857144,0,520168.07904346264,587765.0383749669,413332.54073893634,2799.0449240607154,131225.55305304326,3.4677871936230843e-06,0.0,0.0,0.0,3.4677871936230843e-06,0.0,23.52781569160244,2.715466691356048,0.005183081072302138,0.0
1915,2.413793103448276,1.3793103448275863,3.5714285714285716,0,178050.93178581994,495580.74036407005,318716.1486064652,316366.72029691277,18122.957984708708,1.1870062119054662e-06,0.0,0.0,0.0,1.1870062119054662e-06,0.0,23.001452794197924,3.0033251813561983,0.0006380678608464893,0.0
1916,2.413793103448276,1.3793103448275863,3.928571428571429,0,309969.8745166108,439119.9809637069,206303.76842256755,87278.696293527,33603.1850331826,2.066465830110739e-06,0.0,0.0,0.0,2.066465830110739e-06,0.0,23.815940850435094,3.296497096480793,0.001139258436329542,0.0
1917,2.413793103448276,1.3793103448275863,4.285714285714286,0,458652.57472390856,656935.4496052518,331161.7102320816,132433.05570546744,-42950.71996475768,3.0576838314927236e-06,0.0,0.0,0.0,3.0576838314927236e-06,0.0,24.089110727255264,3.5951451963535286,-0.001439134436204375,0.0
1918,2.413793103448276,1.3793103448275863,4.642857142857143,0,219622.19393852603,398278.38218236156,331158.09493750206,152928.1104838168,-44306.89632509952,1.4641479595901735e-06,0.0,0.0,0.0,1.4641479595901735e-06,0.0,22.57782330344769,3.8969910738894837,-0.0014792314890228154,0.0
1919,2.413793103448276,1.3793103448275863,5.0,0,139418.17238255066,319976.69825314794,263336.27782773646,161152.37365696736,-5893.742019464712,9.294544825503377e-07,0.0,0.0,0.0,9.294544825503377e-07,0.0,24.225004208388278,4.200107150270211,-0.0001965525123610484,0.0
1920,2.7586206896551726,1.3793103448275863,0.0,0,162296.2024626221,427084.3979907759,341376.59574042086,239902.0976891059,-15355.9976799118,1.0819746830841474e-06,0.0,0.0,0.0,1.0819746830841474e-06,0.0,23.938860221181113,-0.04988915924157275,-0.0005121126635385413,0.0
1921,2.7586206896551726,1.3793103448275863,0.35714285714285715,0,92815.11362986581,236984.7094485916,133009.02164699754,162492.69753909035,-6376.976459623853,6.187674241991054e-07,0.0,0.0,0.0,6.187674241991054e-07,0.0,23.806318330394028,0.25415330483979365,-0.00021290194453293484,0.0
1922,2.7586206896551726,1.3793103448275863,0.7142857142857143,0,219078.1545970348,398872.106219297,226996.4255344104,152188.19092174803,-19479.86178828588,1.4605210306468986e-06,0.0,0.0,0.0,1.4605210306468986e-06,0.0,23.171887559256728,0.5595097161751492,-0.0006527047727029206,0.0
1923,2.7586206896551726,1.3793103448275863,1.0714285714285714,0,155855.4614200548,419982.46527640196,278816.44770277856,252729.70182836865,-8147.081671510121,1.0390364094670321e-06,0.0,0.0,0.0,1.0390364094670321e-06,0.0,24.183517346356705,0.8681740435873838,-0.00027621285055473853,0.0
1924,2.7586206896551726,1.3793103448275863,1.4285714285714286,0,324867.615775021,563819.9624266656,226489.06022903524,253045.87472807782,-26290.616124441574,2.165784105166807e-06,0.0,0.0,0.0,2.165784105166807e-06,0.0,24.643726464986802,1.182503167453947,-0.0009256324053177616,0.0
1925,2.7586206896551726,1.3793103448275863,1.7857142857142858,0,625214.6970088829,832614.7297020302,244097.67810811292,176238.57475218005,70045.76018095217,4.168097980059219e-06,0.0,0.0,0.0,4.168097980059219e-06,0.0,23.603270915300566,1.5023287223559145,0.002766632300967761,0.0
1926,2.7586206896551726,1.3793103448275863,2.142857142857143,0,660326.7941081083,928548.2809855995,659194.6195485671,176119.13030386347,242445.08878959902,4.4021786273873884e-06,0.0,0.0,0.0,4.4021786273873884e-06,0.0,23.65302406803849,1.8219697420072585,0.012996292118431688,0.0
1927,2.7586206896551726,1.3793103448275863,2.5,0,824486.0689894683,1178310.7044952598,1019068.9663311446,285819.10179219174,763460.4222555807,5.496573793263122e-06,0.0,0.0,0.0,5.496573793263122e-06,0.0,23.82785830769569,2.1324169343612813,0.07634604222555806,0.0
1928,2.7586206896551726,1.3793103448275863,2.857142857142857,0,537109.3754438782,874329.3883007223,987543.0397005773,402851.48306985776,416335.74950587767,3.580729169625855e-06,0.0,0.0,0.0,3.580729169625855e-06,0.0,23.621491371694724,2.4291125991501157,0.02231771757859883,0.0
1929,2.7586206896551726,1.3793103448275863,3.2142857142857144,0,386786.8142311591,539677.9399066853,411554.58084888756,105086.44604309727,-14527.863920527772,2.5785787615410606e-06,0.0,0.0,0.0,2.5785787615410606e-06,0.0,23.736872627199826,2.716614436641629,-0.0005738142820174029,0.0
1930,2.7586206896551726,1.3793103448275863,3.5714285714285716,0,276172.3283000745,516657.6600884202,411895.8058844865,203432.2000813157,70643.31851990357,1.84114885533383e-06,0.0,0.0,0.0,1.84114885533383e-06,0.0,24.34493763403283,3.003931738882519,0.0024871895177997097,0.0
1931,2.7586206896551726,1.3793103448275863,3.928571428571429,0,175080.75220569503,312005.749545566,346344.9693928922,156638.74515760038,-34346.98722937974,1.1672050147046336e-06,0.0,0.0,0.0,1.1672050147046336e-06,0.0,23.80226836489003,3.296745472158813,-0.0011644757758805773,0.0
1932,2.7586206896551726,1.3793103448275863,4.285714285714286,0,422257.1029762721,372649.00591903995,383476.89650521625,-44090.01703872341,48318.15137668549,2.8150473531751472e-06,0.0,0.0,0.0,2.8150473531751472e-06,0.0,23.985183956157872,3.5952240018894353,0.0016189790438199988,0.0
1933,2.7586206896551726,1.3793103448275863,4.642857142857143,0,249026.6751908898,324432.73569294164,255167.42317893676,48106.01182487461,13343.46084703374,1.660177834605932e-06,0.0,0.0,0.0,1.660177834605932e-06,0.0,24.8614872007683,3.8970104476969367,0.00044548522001289204,0.0
1934,2.7586206896551726,1.3793103448275863,5.0,0,454281.11910745903,449493.32167914946,137811.9504450695,-71740.81940303445,40520.00077776037,3.028540794049727e-06,0.0,0.0,0.0,3.028540794049727e-06,0.0,24.58178255755232,4.200110840758428,0.0013513160106834435,0.0
1935,3.1034482758620694,1.3793103448275863,0.0,0,355866.1013939951,537341.6399703452,282059.7275779775,130838.63718959506,6959.849533113784,2.372440675959967e-06,0.0,0.0,0.0,2.372440675959967e-06,0.0,23.30884960729451,-0.04988585870123936,0.00023210651346300832,0.0
1936,3.1034482758620694,1.3793103448275863,0.35714285714285715,0,82967.71589262392,292247.9740959323,196459.65322624237,242908.1065112298,22395.77231264845,5.531181059508261e-07,0.0,0.0,0.0,5.531181059508261e-07,0.0,24.70908267920234,0.25417063155354075,0.0007477059865077447,0.0
1937,3.1034482758620694,1.3793103448275863,0.7142857142857143,0,227541.50192732966,249467.90827815613,220098.64659930993,8667.776088926044,39229.538905348825,1.5169433461821978e-06,0.0,0.0,0.0,1.5169433461821978e-06,0.0,24.530109051982166,0.5595801948854213,0.0013144501512764176,0.0
1938,3.1034482758620694,1.3793103448275863,1.0714285714285714,0,298875.06083624373,398154.2388830306,261246.89357993865,55349.35684575336,78142.54235782285,1.9925004055749584e-06,0.0,0.0,0.0,1.9925004055749584e-06,0.0,24.59358828779074,0.8683961751578172,0.002649289063803862,0.0
1939,3.1034482758620694,1.3793103448275863,1.4285714285714286,0,262538.8173985586,476040.08530015807,300017.50927363883,174279.7149782839,56961.455754345414,1.7502587826570574e-06,0.0,0.0,0.0,1.7502587826570574e-06,0.0,23.538381423019082,1.183045634320888,0.0020054824523978673,0.0
1940,3.1034482758620694,1.3793103448275863,1.7857142857142858,0,510020.08581000916,709513.2077979795,495095.43447225733,127289.31948656146,102076.22397879974,3.400133905400061e-06,0.0,0.0,0.0,3.400133905400061e-06,0.0,23.961641739550693,1.5033551934853588,0.00403175549370886,0.0
1941,3.1034482758620694,1.3793103448275863,2.142857142857143,0,697046.9612937126,917263.8564435043,846656.7278026908,187600.55734030996,244046.56478802723,4.646979741958084e-06,0.0,0.0,0.0,4.646979741958084e-06,0.0,23.66478844850345,1.8234747224346624,0.013082139392138654,0.0
1942,3.1034482758620694,1.3793103448275863,2.5,0,480659.32534053276,1137500.6834644496,742380.7329053194,602385.4452434974,397486.87453232805,3.2043955022702185e-06,0.0,0.0,0.0,3.2043955022702185e-06,0.0,23.925849766613037,2.1341266565823114,0.0397486874532328,0.0
1943,3.1034482758620694,1.3793103448275863,2.857142857142857,0,680108.2250638792,1081196.714688518,784724.2060850707,303178.5643852308,366729.89303259715,4.534054833759194e-06,0.0,0.0,0.0,4.534054833759194e-06,0.0,24.74595781187368,2.4306175795775196,0.01965859090900796,0.0
1944,3.1034482758620694,1.3793103448275863,3.2142857142857144,0,651583.2104537737,821238.7985498683,477863.80283465126,69783.33901842959,23036.933552484545,4.343888069691825e-06,0.0,0.0,0.0,4.343888069691825e-06,0.0,23.94483309098654,2.7176409077710733,0.0009099012462267967,0.0
1945,3.1034482758620694,1.3793103448275863,3.5714285714285716,0,380863.9849764678,288996.44717046124,420972.95659719006,-8325.118753887768,-26196.312492892583,2.539093233176452e-06,0.0,0.0,0.0,2.539093233176452e-06,0.0,23.01957686386158,3.0044742057494593,-0.0009223121903449469,0.0
1946,3.1034482758620694,1.3793103448275863,3.928571428571429,0,95326.37585337133,378222.2790549655,270445.2512479813,343703.9004415954,-3104.4234187867623,6.355091723558088e-07,0.0,0.0,0.0,6.355091723558088e-07,0.0,23.697718933575906,3.2969676037292466,-0.0001052501590637716,0.0
1947,3.1034482758620694,1.3793103448275863,4.285714285714286,0,155026.36728054567,413309.69594773045,271195.7479326184,247987.70251689543,26276.07454440342,1.0335091152036378e-06,0.0,0.0,0.0,1.0335091152036378e-06,0.0,23.56174287301361,3.595294480599707,0.0008804230466020663,0.0
1948,3.1034482758620694,1.3793103448275863,4.642857142857143,0,175112.61349221875,322560.92833673616,246984.41727426907,122351.70545278121,-24531.495958236075,1.1674174232814583e-06,0.0,0.0,0.0,1.1674174232814583e-06,0.0,24.78865223820677,3.897027774410684,-0.0008190093259523119,0.0
1949,3.1034482758620694,1.3793103448275863,5.0,0,328784.0998571363,531790.7669509829,263696.4310705098,164949.5814319575,35361.977051505644,2.1918939990475754e-06,0.0,0.0,0.0,2.1918939990475754e-06,0.0,23.491921185311284,4.20011414129876,0.0011792992310441233,0.0
1950,3.4482758620689657,1.3793103448275863,0.0,0,190357.94201234548,334907.82591460866,208445.93880320358,115979.45329104333,1285.0232086947333,1.2690529467489699e-06,0.0,0.0,0.0,1.2690529467489699e-06,0.0,23.67092390092512,-0.04988299890030544,4.2854698980215166e-05,0.0
1951,3.4482758620689657,1.3793103448275863,0.35714285714285715,0,183932.1013424736,380571.50340780907,200880.75842388513,192672.85443005196,1443.3887718597907,1.226214008949824e-06,0.0,0.0,0.0,1.226214008949824e-06,0.0,23.692958479833127,0.2541856445354015,4.818902471910337e-05,0.0
1952,3.4482758620689657,1.3793103448275863,0.7142857142857143,0,302564.5316458798,427775.62159327563,329204.62942648516,88217.64070029414,72186.31266974451,2.0170968776391987e-06,0.0,0.0,0.0,2.0170968776391987e-06,0.0,24.68378928093273,0.5596412621838326,0.0024187210009724365,0.0
1953,3.4482758620689657,1.3793103448275863,1.0714285714285714,0,206870.8748121931,349711.78338480956,191707.29089240343,115559.62863162429,7318.270855256025,1.3791391654146207e-06,0.0,0.0,0.0,1.3791391654146207e-06,0.0,24.36891037826059,0.8685886442714812,0.00024811343933505087,0.0
1954,3.4482758620689657,1.3793103448275863,1.4285714285714286,0,65647.1071122231,290687.6033201744,293218.4423382406,226342.51442847823,3298.1459938098337,4.3764738074815395e-07,0.0,0.0,0.0,4.3764738074815395e-07,0.0,24.17744437719401,1.1835156625877772,0.00011612016983128729,0.0
1955,3.4482758620689657,1.3793103448275863,1.7857142857142858,0,144007.2214745869,603638.812412126,596243.7477515315,456076.5359614226,104137.92440563274,9.600481431639127e-07,0.0,0.0,0.0,9.600481431639127e-07,0.0,24.014638037769014,1.5042445942495117,0.004113187503027625,0.0
1956,3.4482758620689657,1.3793103448275863,2.142857142857143,0,607478.7697624295,1179615.3441050192,615745.7562217317,536337.53915123,544742.8130123871,4.049858465082863e-06,0.0,0.0,0.0,4.049858465082863e-06,0.0,24.01046601515055,1.8247787345045319,0.029200990470337432,0.0
1957,3.4482758620689657,1.3793103448275863,2.5,0,298059.9884745995,1073433.2199079946,996463.5001104334,744437.5970327073,658738.4981500086,1.9870665898306634e-06,0.0,0.0,0.0,1.9870665898306634e-06,0.0,23.9457345127454,2.135608070142083,0.06587384981500086,0.0
1958,3.4482758620689657,1.3793103448275863,2.857142857142857,0,417821.2655437932,812614.3354926808,569115.3385296096,330163.03662875085,411961.48366167815,2.785475103625288e-06,0.0,0.0,0.0,2.785475103625288e-06,0.0,24.940044048160242,2.431921591647389,0.022083234640632488,0.0
1959,3.4482758620689657,1.3793103448275863,3.2142857142857144,0,543870.7281050045,782475.4782479877,323364.9045249858,181829.25952305552,62398.20427246597,3.6258048540333635e-06,0.0,0.0,0.0,3.6258048540333635e-06,0.0,23.283596672809885,2.718530308535226,0.002464572973676337,0.0
1960,3.4482758620689657,1.3793103448275863,3.5714285714285716,0,370270.85934464855,430416.139461368,175621.79639545802,5680.118572946034,1044.381573215449,2.4684723956309905e-06,0.0,0.0,0.0,2.4684723956309905e-06,0.0,22.53914075704514,3.0049442340163486,3.677028423788974e-05,0.0
1961,3.4482758620689657,1.3793103448275863,3.928571428571429,0,205779.10952404008,356146.76697220444,381758.9108340143,164372.64562524497,-19183.570905451543,1.3718607301602671e-06,0.0,0.0,0.0,1.3718607301602671e-06,0.0,24.148110317846914,3.2971600728429107,-0.0006503861158214651,0.0
1962,3.4482758620689657,1.3793103448275863,4.285714285714286,0,213917.9394839702,396472.82556254533,181944.7226021382,183170.31590218784,-21555.935418665926,1.4261195965598012e-06,0.0,0.0,0.0,1.4261195965598012e-06,0.0,24.63269770347675,3.5953555478981185,-0.0007222670304724595,0.0
1963,3.4482758620689657,1.3793103448275863,4.642857142857143,0,273402.6663715821,442894.27555265283,325963.6199180863,130471.4034317135,65084.67862654475,1.8226844424772137e-06,0.0,0.0,0.0,1.8226844424772137e-06,0.0,24.028846169576745,3.897042787392545,0.0021729192081273354,0.0
1964,3.4482758620689657,1.3793103448275863,5.0,0,431982.54128329264,566420.5715991851,191836.411427303,93867.30210112667,-21248.617502636065,2.8798836085552843e-06,0.0,0.0,0.0,2.8798836085552843e-06,0.0,22.950762238766046,4.200117001099695,-0.0007086277513587853,0.0
1965,3.793103448275862,1.3793103448275863,0.0,0,167396.16403869633,432503.77235636185,357551.449590299,240728.9145470512,-57174.020105004434,1.115974426924642e-06,0.0,0.0,0.0,1.115974426924642e-06,0.0,24.282468624352706,-0.04988063117934759,-0.0019067168627853101,0.0
1966,3.793103448275862,1.3793103448275863,0.35714285714285715,0,246814.6327555017,457280.4917390329,423647.436426807,195374.02929365382,4654.883078750149,1.6454308850366779e-06,0.0,0.0,0.0,1.6454308850366779e-06,0.0,23.38185184346694,0.25419807426481716,0.00015540807862693878,0.0
1967,3.793103448275862,1.3793103448275863,0.7142857142857143,0,173289.21747005984,334683.15560857306,135054.13379121321,246715.2951787732,37905.03644620947,1.155261449800399e-06,0.0,0.0,0.0,1.155261449800399e-06,0.0,23.2772157032544,0.5596918217597012,0.0012700705203564035,0.0
1968,3.793103448275862,1.3793103448275863,1.0714285714285714,0,194673.73155427907,304920.02766355785,185312.4542788182,80287.89677933461,47912.63845218853,1.2978248770285272e-06,0.0,0.0,0.0,1.2978248770285272e-06,0.0,23.434877058274505,0.8687479956265896,0.0016243959466806883,0.0
1969,3.793103448275862,1.3793103448275863,1.4285714285714286,0,307121.1520206896,451377.34523506445,381009.21953044034,115178.91863555645,-47647.66125014589,2.0474743468045976e-06,0.0,0.0,0.0,2.0474743468045976e-06,0.0,23.12417136829645,1.1839048140720967,-0.0016775650704410883,0.0
1970,3.793103448275862,1.3793103448275863,1.7857142857142858,0,211388.7600488551,652317.2649325181,512569.0406354386,409128.31432704674,138334.90219603968,1.4092584003257006e-06,0.0,0.0,0.0,1.4092584003257006e-06,0.0,24.034902687182992,1.5049809576810462,0.0054638825787325035,0.0
1971,3.793103448275862,1.3793103448275863,2.142857142857143,0,410364.9073763485,742095.2596304085,809357.0691165981,369516.55845005676,551681.3524943144,2.7357660491756565e-06,0.0,0.0,0.0,2.7357660491756565e-06,0.0,23.614049347049292,1.825858367940024,0.02957293154133457,0.0
1972,3.793103448275862,1.3793103448275863,2.5,0,655967.3316657726,1074276.5824400072,651562.2365302818,318605.55100430583,566211.2252090952,4.373115544438484e-06,0.0,0.0,0.0,4.373115544438484e-06,0.0,23.277456352588665,2.136834579963485,0.05662112252090951,0.0
1973,3.793103448275862,1.3793103448275863,2.857142857142857,0,746295.158235324,1021757.2398460578,1038451.1843020597,283949.1026166738,340396.4560629825,4.97530105490216e-06,0.0,0.0,0.0,4.97530105490216e-06,0.0,25.137377659179133,2.433001225082881,0.018246984507541836,0.0
1974,3.793103448275862,1.3793103448275863,3.2142857142857144,0,373001.52426826087,684660.4315930211,462118.1929839247,254036.2926807276,-11379.623165752259,2.4866768284550723e-06,0.0,0.0,0.0,2.4866768284550723e-06,0.0,23.686481684376865,2.7192666719667606,-0.00044946664782963643,0.0
1975,3.793103448275862,1.3793103448275863,3.5714285714285716,0,261110.38486841132,490783.9228771804,203564.5831864023,267754.9778725143,88245.51098413573,1.740735899122742e-06,0.0,0.0,0.0,1.740735899122742e-06,0.0,23.98276815802151,3.005333385500668,0.0031069224168848,0.0
1976,3.793103448275862,1.3793103448275863,3.928571428571429,0,230637.0271046863,405955.603613398,249118.56867998684,141136.8537791876,-57006.69900031412,1.5375801806979088e-06,0.0,0.0,0.0,1.5375801806979088e-06,0.0,24.738657940940772,3.297319424198019,-0.00193271449415507,0.0
1977,3.793103448275862,1.3793103448275863,4.285714285714286,0,148641.45593797413,334605.5207014291,171021.73945399013,207818.71583228375,-14881.469575713683,9.909430395864942e-07,0.0,0.0,0.0,9.909430395864942e-07,0.0,24.305124266347534,3.595406107473987,-0.0004986280869170547,0.0
1978,3.793103448275862,1.3793103448275863,4.642857142857143,0,176644.931177543,333029.0622207464,377929.975544341,183167.70066409072,29126.030990120704,1.1776328745169533e-06,0.0,0.0,0.0,1.1776328745169533e-06,0.0,24.925340578769266,3.8970552171219603,0.000972402622713929,0.0
1979,3.793103448275862,1.3793103448275863,5.0,0,174497.85423840684,282117.9421779783,210763.28784197918,83250.89072486684,-25384.092137115218,1.1633190282560457e-06,0.0,0.0,0.0,1.1633190282560457e-06,0.0,23.627790880247854,4.200119368820652,-0.0008465431752995994,0.0
1980,4.137931034482759,1.3793103448275863,0.0,0,350868.31642321736,485309.5782649034,285579.17764709325,80174.9874638467,-35375.344655281944,2.3391221094881157e-06,0.0,0.0,0.0,2.3391221094881157e-06,0.0,24.46031350083156,-0.049878804202624645,-0.0011797450320475947,0.0
1981,4.137931034482759,1.3793103448275863,0.35714285714285715,0,215363.8216508255,358679.1155473457,216728.2406403407,110873.1447832737,-1868.696969957522,1.4357588110055032e-06,0.0,0.0,0.0,1.4357588110055032e-06,0.0,24.186603381616116,0.2542076652709869,-6.238837812335707e-05,0.0
1982,4.137931034482759,1.3793103448275863,0.7142857142857143,0,255860.96212758293,342720.7399810645,207033.75358044016,47596.33418140973,85777.87683389414,1.7057397475172196e-06,0.0,0.0,0.0,1.7057397475172196e-06,0.0,24.443587702435153,0.5597308344516012,0.0028741286878880153,0.0
1983,4.137931034482759,1.3793103448275863,1.0714285714285714,0,187446.7876123484,301039.22160651546,117551.31484173953,109869.72201240425,-9227.832726670724,1.2496452507489892e-06,0.0,0.0,0.0,1.2496452507489892e-06,0.0,24.372990543558704,0.8688709540417638,-0.000312853864076163,0.0
1984,4.137931034482759,1.3793103448275863,1.4285714285714286,0,357536.7012892,681911.8746060466,352156.55215788045,301909.68373322237,-3496.1607584725307,2.3835780085946665e-06,0.0,0.0,0.0,2.3835780085946665e-06,0.0,23.56955683328971,1.1842050904628567,-0.0001230918163699458,0.0
1985,4.137931034482759,1.3793103448275863,1.7857142857142858,0,309052.83717266185,483347.3188681577,590747.4345339349,242322.8145575,-3827.7275855011176,2.060352247817746e-06,0.0,0.0,0.0,2.060352247817746e-06,0.0,25.37198713494559,1.5055491491499695,-0.00015118566420002232,0.0
1986,4.137931034482759,1.3793103448275863,2.142857142857143,0,530332.4859948293,833663.2260181172,471262.554208535,224968.02405593306,379039.3104660084,3.5355499066321956e-06,0.0,0.0,0.0,3.5355499066321956e-06,0.0,22.834677403795023,1.8266914328117168,0.020318438405078132,0.0
1987,4.137931034482759,1.3793103448275863,2.5,0,645091.9837057543,1162162.8805592563,419466.50743348163,840264.0665989632,713898.0170579109,4.300613224705028e-06,0.0,0.0,0.0,4.300613224705028e-06,0.0,23.53762534280986,2.13778097733634,0.0713898017057911,0.0
1988,4.137931034482759,1.3793103448275863,2.857142857142857,0,737082.0497767483,1021338.0634530449,784816.6668661954,195028.5181013487,288636.12718579953,4.913880331844989e-06,0.0,0.0,0.0,4.913880331844989e-06,0.0,24.315043530907083,2.4338342899545737,0.015472367139162196,0.0
1989,4.137931034482759,1.3793103448275863,3.2142857142857144,0,562161.4790794433,733381.9856914057,228185.41530612716,127785.33291896936,97803.7653142719,3.747743193862955e-06,0.0,0.0,0.0,3.747743193862955e-06,0.0,24.12453700388938,2.719834863435684,0.0038630040644246836,0.0
1990,4.137931034482759,1.3793103448275863,3.5714285714285716,0,267512.30667647877,584978.4776830297,405549.9356484892,277510.0265660659,-20315.08776163504,1.7834153778431918e-06,0.0,0.0,0.0,1.7834153778431918e-06,0.0,24.050904077857236,3.0056336618914283,-0.0007152477317396104,0.0
1991,4.137931034482759,1.3793103448275863,3.928571428571429,0,212828.433566618,407144.3777388823,191928.0192554213,196787.07969188355,-69777.20984737734,1.4188562237774534e-06,0.0,0.0,0.0,1.4188562237774534e-06,0.0,24.346463401285376,3.2974423826131933,-0.0023656767923535263,0.0
1992,4.137931034482759,1.3793103448275863,4.285714285714286,0,134014.3861155018,283065.6435271116,172015.9178962939,134208.9827331741,16417.94461992907,8.934292407700121e-07,0.0,0.0,0.0,8.934292407700121e-07,0.0,23.572029987575405,3.595445120165887,0.0005501102075500348,0.0
1993,4.137931034482759,1.3793103448275863,4.642857142857143,0,118444.39608315972,339334.11199594726,268177.61982090166,202604.2955819514,74204.21831157427,7.896293072210648e-07,0.0,0.0,0.0,7.896293072210648e-07,0.0,24.418109584790784,3.89706480812813,0.002477384458153141,0.0
1994,4.137931034482759,1.3793103448275863,5.0,0,209575.73194238957,379665.0405250439,176094.94470159078,164560.09372520982,-42770.75885550484,1.3971715462825971e-06,0.0,0.0,0.0,1.3971715462825971e-06,0.0,23.93829123744403,4.200121195797376,-0.0014263773475109722,0.0
1995,4.482758620689656,1.3793103448275863,0.0,0,380575.4163912439,485836.12296399655,191969.85441124107,55937.24921280435,6164.857048592697,2.537169442608293e-06,0.0,0.0,0.0,2.537169442608293e-06,0.0,24.65549424794847,-0.049877559959333934,0.00020559402451715463,0.0
1996,4.482758620689656,1.3793103448275863,0.35714285714285715,0,284031.0841138785,247646.6709527584,264956.76172439446,-27333.484775483816,45022.113945041616,1.8935405607591898e-06,0.0,0.0,0.0,1.8935405607591898e-06,0.0,23.80743881282569,0.25421419712491156,0.0015031097678613846,0.0
1997,4.482758620689656,1.3793103448275863,0.7142857142857143,0,342131.70381198527,427781.24326951406,73857.31645920286,98807.78925700622,-3512.0804994761284,2.280878025413235e-06,0.0,0.0,0.0,2.280878025413235e-06,0.0,24.1983873558015,0.5597574036352913,-0.00011767802713587117,0.0
1998,4.482758620689656,1.3793103448275863,1.0714285714285714,0,147545.79466095543,368059.7632595143,365395.54039061954,219199.8986410932,-50464.28179985489,9.836386310730363e-07,0.0,0.0,0.0,9.836386310730363e-07,0.0,24.28795156294413,0.8689546935777942,-0.0017109050441802996,0.0
1999,4.482758620689656,1.3793103448275863,1.4285714285714286,0,305376.42412274965,482050.7486709554,292611.1624116208,129766.89986112034,7045.924677914985,2.0358428274849976e-06,0.0,0.0,0.0,2.0358428274849976e-06,0.0,24.42654389918647,1.1844095905420704,0.0002480708773212424,0.0
2000,4.482758620689656,1.3793103448275863,1.7857142857142858,0,304441.13153059775,579361.8621912728,261059.6042671273,290993.2536920887,150442.7191840564,2.0296075435373183e-06,0.0,0.0,0.0,2.0296075435373183e-06,0.0,23.997375167262128,1.5059361099766568,0.005942111060894975,0.0
2001,4.482758620689656,1.3793103448275863,2.142857142857143,0,322838.5048715283,728618.5645090891,435105.66495365783,382833.64045292686,286104.17404709844,2.152256699143522e-06,0.0,0.0,0.0,2.152256699143522e-06,0.0,23.84016465125128,1.8272587828848277,0.015336641549565716,0.0
2002,4.482758620689656,1.3793103448275863,2.5,0,1017971.0107499061,1185853.8029840868,926196.0999030751,63201.50961205115,618843.6772230116,6.786473404999374e-06,0.0,0.0,0.0,6.786473404999374e-06,0.0,23.600653881734377,2.1384255113179376,0.06188436772230116,0.0
2003,4.482758620689656,1.3793103448275863,2.857142857142857,0,621963.8723714073,990945.6784606559,718714.3434359482,279281.0263186396,238173.57566602842,4.146425815809382e-06,0.0,0.0,0.0,4.146425815809382e-06,0.0,24.235976157524316,2.4344016400276844,0.012767317249859224,0.0
2004,4.482758620689656,1.3793103448275863,3.2142857142857144,0,379833.51913728006,706406.3520990993,578034.154299749,279020.67117277335,56415.81146573612,2.5322234609152005e-06,0.0,0.0,0.0,2.5322234609152005e-06,0.0,23.04896989837984,2.7202218242623712,0.0022282834233392592,0.0
2005,4.482758620689656,1.3793103448275863,3.5714285714285716,0,270877.0208323061,411769.44404317456,232631.09688869034,100149.7134996073,21155.002770145547,1.8058468055487075e-06,0.0,0.0,0.0,1.8058468055487075e-06,0.0,24.156818526836837,3.005838161970642,0.0007448192163297832,0.0
2006,4.482758620689656,1.3793103448275863,3.928571428571429,0,178762.28737469998,312655.4512016846,269766.9591821813,116350.15084690569,4698.944017298636,1.191748582498e-06,0.0,0.0,0.0,1.191748582498e-06,0.0,24.198745403909854,3.2975261221492236,0.0001593096490187282,0.0
2007,4.482758620689656,1.3793103448275863,4.285714285714286,0,93713.4870426212,237334.65865093216,270808.76820623875,164954.7641664107,-14875.008670111678,6.247565802841413e-07,0.0,0.0,0.0,6.247565802841413e-07,0.0,24.948841225750048,3.595471689349577,-0.0004984116036602307,0.0
2008,4.482758620689656,1.3793103448275863,4.642857142857143,0,223731.7454697131,400075.12316569686,288419.74634376576,142490.89446176108,15227.66054300042,1.4915449697980874e-06,0.0,0.0,0.0,1.4915449697980874e-06,0.0,23.68623944629278,3.897071339982055,0.0005083911726535471,0.0
2009,4.482758620689656,1.3793103448275863,5.0,0,144034.26497240757,372812.27596031927,318057.21940293023,209430.0333435197,23009.033529385637,9.602284331493838e-07,0.0,0.0,0.0,9.602284331493838e-07,0.0,24.11516183975267,4.2001224400406665,0.0007673364956023464,0.0
2010,4.827586206896552,1.3793103448275863,0.0,0,98343.08161830858,265980.44873586216,183468.89314059154,157158.08084281263,24249.431108079716,6.556205441220572e-07,0.0,0.0,0.0,6.556205441220572e-07,0.0,24.043876423565855,-0.049876929541597524,0.0008087029584732518,0.0
2011,4.827586206896552,1.3793103448275863,0.35714285714285715,0,199573.18182295936,294205.03819600405,223275.71784307598,68855.60101347305,-9658.42441530773,1.3304878788197291e-06,0.0,0.0,0.0,1.3304878788197291e-06,0.0,23.41605410565388,0.2542175066035291,-0.0003224564732460501,0.0
2012,4.827586206896552,1.3793103448275863,0.7142857142857143,0,172734.399721252,299895.1772223916,191177.15520635835,100717.42911950784,-20536.71322156989,1.1515626648083466e-06,0.0,0.0,0.0,1.1515626648083466e-06,0.0,23.971061119965636,0.5597708653792806,-0.0006881163162774858,0.0
2013,4.827586206896552,1.3793103448275863,1.0714285714285714,0,99722.98019726301,239707.21152976152,234961.65396968764,137696.17432452564,67117.99581334597,6.648198679817534e-07,0.0,0.0,0.0,6.648198679817534e-07,0.0,23.30777165199966,0.8689971216858228,0.00227552069496917,0.0
2014,4.827586206896552,1.3793103448275863,1.4285714285714286,0,67488.51180263895,331260.2572815176,332536.6592045572,264418.99970984313,10428.281718691636,4.49923412017593e-07,0.0,0.0,0.0,4.49923412017593e-07,0.0,24.464766805315477,1.1845132041022122,0.00036715592532766516,0.0
2015,4.827586206896552,1.3793103448275863,1.7857142857142858,0,249320.8154955114,438654.5188829542,209442.61225931856,173193.3520854397,45150.14904558049,1.662138769970076e-06,0.0,0.0,0.0,1.662138769970076e-06,0.0,24.28338443920968,1.5061321704820738,0.0017833179398769668,0.0
2016,4.827586206896552,1.3793103448275863,2.142857142857143,0,728057.7438780543,771169.8616133227,774842.9804584187,44955.626400451896,192856.98665422492,4.8537182925203625e-06,0.0,0.0,0.0,4.8537182925203625e-06,0.0,24.20853895100164,1.8275462407730971,0.010338117171818392,0.0
2017,4.827586206896552,1.3793103448275863,2.5,0,368267.00038301037,842850.992467356,466950.5834938877,482724.29286214005,478411.00757636165,2.4551133358867357e-06,0.0,0.0,0.0,2.4551133358867357e-06,0.0,23.679008677585184,2.1387520757902956,0.04784110075763616,0.0
2018,4.827586206896552,1.3793103448275863,2.857142857142857,0,343664.7701134255,567006.048612778,536686.3269120218,209185.99154155908,263019.57617428433,2.2910984674228367e-06,0.0,0.0,0.0,2.2910984674228367e-06,0.0,24.7116063109677,2.434689097915954,0.014099189477884529,0.0
2019,4.827586206896552,1.3793103448275863,3.2142857142857144,0,627712.9312144618,796781.109780261,538246.3147648436,81089.51099961386,84685.23498118934,4.1847528747630785e-06,0.0,0.0,0.0,4.1847528747630785e-06,0.0,23.464558062777954,2.7204178847677882,0.0033448549335283757,0.0
2020,4.827586206896552,1.3793103448275863,3.5714285714285716,0,291427.478659117,495232.1769017885,303197.3188803303,159899.19199023856,-9129.456804145568,1.942849857727447e-06,0.0,0.0,0.0,1.942849857727447e-06,0.0,24.03670346259843,3.0059417755307836,-0.00032142727355140516,0.0
2021,4.827586206896552,1.3793103448275863,3.928571428571429,0,75502.95602944335,287686.9507174344,261688.6390417849,202620.03362885414,736.3046290821093,5.03353040196289e-07,0.0,0.0,0.0,5.03353040196289e-07,0.0,23.43183241625785,3.2975685502572523,2.4963147379093533e-05,0.0
2022,4.827586206896552,1.3793103448275863,4.285714285714286,0,230653.39649775063,348795.41668975644,153437.47097000282,94344.49449242032,-47403.484854243296,1.5376893099850042e-06,0.0,0.0,0.0,1.5376893099850042e-06,0.0,23.92955905397422,3.5954851510935666,-0.0015883316392789352,0.0
2023,4.827586206896552,1.3793103448275863,4.642857142857143,0,193970.2727135029,357250.21707443777,161953.20468083335,164634.48279789256,46306.987087607115,1.2931351514233527e-06,0.0,0.0,0.0,1.2931351514233527e-06,0.0,24.66142586306936,3.8970746494606723,0.0015460065845992767,0.0
2024,4.827586206896552,1.3793103448275863,5.0,0,200367.0308090525,408185.19280331297,292816.98575791746,176821.5578510773,-24311.76884403384,1.3357802053936832e-06,0.0,0.0,0.0,1.3357802053936832e-06,0.0,24.266837087762294,4.200123070458402,-0.0008107818819443194,0.0
2025,5.172413793103448,1.3793103448275863,0.0,0,84338.09767658767,264344.28509364487,184021.9049827125,176495.03406174754,7432.124827231024,5.622539845105844e-07,0.0,0.0,0.0,5.622539845105844e-07,0.0,23.503833056275468,-0.049876929541597524,0.00024785659130459456,0.0
2026,5.172413793103448,1.3793103448275863,0.35714285714285715,0,267607.99887272506,385214.1222558625,190016.7587462387,80160.54656062492,-16774.059108181908,1.784053325818167e-06,0.0,0.0,0.0,1.784053325818167e-06,0.0,23.70804343246382,0.2542175066035291,-0.0005600192856996942,0.0
2027,5.172413793103448,1.3793103448275863,0.7142857142857143,0,227036.2471433662,282412.14023010165,283164.24353786866,55752.879052689044,-10085.695215075795,1.5135749809557747e-06,0.0,0.0,0.0,1.5135749809557747e-06,0.0,23.7840759865649,0.5597708653792806,-0.0003379377879808995,0.0
2028,5.172413793103448,1.3793103448275863,1.0714285714285714,0,150093.56862287284,239462.16038754195,160120.35034643515,66349.36829062963,-25737.185328520263,1.0006237908191523e-06,0.0,0.0,0.0,1.0006237908191523e-06,0.0,23.561399761791655,0.8689971216858228,-0.0008725751884513124,0.0
2029,5.172413793103448,1.3793103448275863,1.4285714285714286,0,196452.39047188888,434731.0140984793,286262.1104014144,211966.16065362972,16024.934336281962,1.3096826031459258e-06,0.0,0.0,0.0,1.3096826031459258e-06,0.0,24.11957889078519,1.1845132041022122,0.0005642012512959669,0.0
2030,5.172413793103448,1.3793103448275863,1.7857142857142858,0,356252.5910866036,684389.0026329735,385442.68399802916,290193.0765223818,3972.290258939487,2.3750172739106904e-06,0.0,0.0,0.0,2.3750172739106904e-06,0.0,25.079929967827866,1.5061321704820738,0.00015689552816346042,0.0
2031,5.172413793103448,1.3793103448275863,2.142857142857143,0,923105.2539122134,1223073.0867113492,563721.9660105887,168093.87648505636,329294.3681562533,6.154035026081422e-06,0.0,0.0,0.0,6.154035026081422e-06,0.0,23.713039425488926,1.8275462407730971,0.017651856025951613,0.0
2032,5.172413793103448,1.3793103448275863,2.5,0,194605.07714914702,720745.1773659943,565471.7853922711,783781.031512257,535889.7783647847,1.2973671809943136e-06,0.0,0.0,0.0,1.2973671809943136e-06,0.0,24.96239723968944,2.1387520757902956,0.053588977836478466,0.0
2033,5.172413793103448,1.3793103448275863,2.857142857142857,0,669566.7659606746,918592.3703705911,470689.6918914859,148878.21906203235,354742.9998948909,4.463778439737831e-06,0.0,0.0,0.0,4.463778439737831e-06,0.0,24.000415889562092,2.434689097915954,0.019016032358583988,0.0
2034,5.172413793103448,1.3793103448275863,3.2142857142857144,0,211615.03595405334,499380.4143870778,263456.4583382329,326319.9911619756,96936.99574307077,1.4107669063603557e-06,0.0,0.0,0.0,1.4107669063603557e-06,0.0,24.16804331041461,2.7204178847677882,0.0038287688346693625,0.0
2035,5.172413793103448,1.3793103448275863,3.5714285714285716,0,157314.5832380518,439228.75896980305,302471.4710497452,267308.0402289164,-7286.37376423557,1.0487638882536786e-06,0.0,0.0,0.0,1.0487638882536786e-06,0.0,24.14212556096282,3.0059417755307836,-0.00025653653917845793,0.0
2036,5.172413793103448,1.3793103448275863,3.928571428571429,0,80358.15146348576,230663.880672526,185069.7728344301,137878.85989870664,12170.038056234333,5.357210097565717e-07,0.0,0.0,0.0,5.357210097565717e-07,0.0,23.168252251945805,3.2975685502572523,0.00041260429665596467,0.0
2037,5.172413793103448,1.3793103448275863,4.285714285714286,0,186604.67564566506,237065.75405390892,283468.3039869145,78040.77544368348,-14213.635412110401,1.2440311709711005e-06,0.0,0.0,0.0,1.2440311709711005e-06,0.0,24.248509682564595,3.5954851510935666,-0.0004762512060800434,0.0
2038,5.172413793103448,1.3793103448275863,4.642857142857143,0,166256.22483900574,267098.51451899746,207111.87433031813,79173.77086723695,41608.94224521027,1.1083748322600383e-06,0.0,0.0,0.0,1.1083748322600383e-06,0.0,22.80987913256862,3.8970746494606723,0.0013891575059203488,0.0
2039,5.172413793103448,1.3793103448275863,5.0,0,192863.56067489187,321087.84944466694,154352.7133910548,109869.20070250172,-11347.213302099019,1.2857570711659457e-06,0.0,0.0,0.0,1.2857570711659457e-06,0.0,24.135244235024963,4.200123070458402,-0.0003784222783179837,0.0
2040,5.517241379310345,1.3793103448275863,0.0,0,72711.6754353622,264621.2745179525,198040.82181984375,187033.52867284024,-6124.741935404126,4.847445029024147e-07,0.0,0.0,0.0,4.847445029024147e-07,0.0,24.036408331057217,-0.049877559959333934,-0.0002042562112476187,0.0
2041,5.517241379310345,1.3793103448275863,0.35714285714285715,0,255649.52902439356,343617.92373463145,187572.82945942826,48583.561008853976,-14233.01983003993,1.7043301934959571e-06,0.0,0.0,0.0,1.7043301934959571e-06,0.0,23.19229202290787,0.25421419712491156,-0.00047518406529762573,0.0
2042,5.517241379310345,1.3793103448275863,0.7142857142857143,0,321212.071999645,367121.4993365667,274666.9570366114,9821.38558475658,-22323.005937474543,2.1414138133309667e-06,0.0,0.0,0.0,2.1414138133309667e-06,0.0,23.996869796934963,0.5597574036352913,-0.0007479689884261429,0.0
2043,5.517241379310345,1.3793103448275863,1.0714285714285714,0,183861.51776260702,351412.8491096356,196492.24534394895,148235.55310656285,64015.52413366896,1.2257434517507134e-06,0.0,0.0,0.0,1.2257434517507134e-06,0.0,23.82277811077958,0.8689546935777942,0.0021703367062771684,0.0
2044,5.517241379310345,1.3793103448275863,1.4285714285714286,0,274033.4523893878,482710.0457346469,235111.8843887556,188277.7446676427,22320.729459231086,1.8268896825959189e-06,0.0,0.0,0.0,1.8268896825959189e-06,0.0,23.897110480300764,1.1844095905420704,0.0007858617842960093,0.0
2045,5.517241379310345,1.3793103448275863,1.7857142857142858,0,132989.35297040868,565798.7966539413,513115.98502124177,414539.1815070737,58579.92939202197,8.865956864693912e-07,0.0,0.0,0.0,8.865956864693912e-07,0.0,23.90690326539666,1.5059361099766568,0.002313760667679224,0.0
2046,5.517241379310345,1.3793103448275863,2.142857142857143,0,508281.2881678263,585565.8596900845,620417.7682315949,95607.46629646262,255037.63525331553,3.388541921118842e-06,0.0,0.0,0.0,3.388541921118842e-06,0.0,23.68889476908105,1.8272587828848277,0.013671316773187264,0.0
2047,5.517241379310345,1.3793103448275863,2.5,0,734711.4922617683,1158915.1042720578,940245.7906008399,339693.9950333667,626785.3368724762,4.898076615078456e-06,0.0,0.0,0.0,4.898076615078456e-06,0.0,24.026008458889304,2.1384255113179376,0.06267853368724761,0.0
2048,5.517241379310345,1.3793103448275863,2.857142857142857,0,224411.39011579126,680253.8207547544,736626.5379867697,489403.51673728577,249665.0870540188,1.496075934105275e-06,0.0,0.0,0.0,1.496075934105275e-06,0.0,24.425725091507775,2.4344016400276844,0.013383320814320844,0.0
2049,5.517241379310345,1.3793103448275863,3.2142857142857144,0,372867.78209373006,617469.4840960219,272966.68902146304,221569.36408785562,61332.33314495642,2.4857852139582005e-06,0.0,0.0,0.0,2.4857852139582005e-06,0.0,23.878151762542927,2.7202218242623712,0.002422473730518452,0.0
2050,5.517241379310345,1.3793103448275863,3.5714285714285716,0,302016.29679347435,479424.286905104,327453.3797227014,131607.12792164687,84914.6003161662,2.0134419786231622e-06,0.0,0.0,0.0,2.0134419786231622e-06,0.0,23.97723735172737,3.005838161970642,0.0029896486778861584,0.0
2051,5.517241379310345,1.3793103448275863,3.928571428571429,0,155599.62748954506,342445.5267256987,315373.10350652115,175086.17966286777,-29836.069486324148,1.0373308499303005e-06,0.0,0.0,0.0,1.0373308499303005e-06,0.0,24.331678157771037,3.2975261221492236,-0.0010115408356572051,0.0
2052,5.517241379310345,1.3793103448275863,4.285714285714286,0,192406.01645432395,213432.54054108995,306568.1449650773,85316.64414541304,16438.03758881939,1.2827067763621598e-06,0.0,0.0,0.0,1.2827067763621598e-06,0.0,25.146629459564107,3.595471689349577,0.0005507834554834658,0.0
2053,5.517241379310345,1.3793103448275863,4.642857142857143,0,89627.90078175812,247846.26109443905,272517.3023045905,173137.73886630344,8760.27475801602,5.975193385450541e-07,0.0,0.0,0.0,5.975193385450541e-07,0.0,23.920165171303477,3.897071339982055,0.00029247081942880625,0.0
2054,5.517241379310345,1.3793103448275863,5.0,0,298593.1154378462,383841.2233828812,271214.4229200342,45314.69190132342,16031.748582447111,1.9906207695856414e-06,0.0,0.0,0.0,1.9906207695856414e-06,0.0,23.170165971155704,4.2001224400406665,0.0005346485222824271,0.0
2055,5.862068965517242,1.3793103448275863,0.0,0,222696.34700389393,282648.2376708843,187072.07044065106,28117.41497634414,-8334.666048643336,1.4846423133592928e-06,0.0,0.0,0.0,1.4846423133592928e-06,0.0,23.488255584708618,-0.049878804202624645,-0.0002779557615757274,0.0
2056,5.862068965517242,1.3793103448275863,0.35714285714285715,0,175374.62270385993,297257.9550410285,155817.08803254142,101030.07497110571,-17329.4417062728,1.1691641513590662e-06,0.0,0.0,0.0,1.1691641513590662e-06,0.0,24.242556050338457,0.2542076652709869,-0.0005785613072740186,0.0
2057,5.862068965517242,1.3793103448275863,0.7142857142857143,0,323045.6342562119,338083.78899300063,184797.14241099366,-33069.10086033101,6652.468946873436,2.1536375617080795e-06,0.0,0.0,0.0,2.1536375617080795e-06,0.0,24.70238122139779,0.5597308344516012,0.00022290190141355942,0.0
2058,5.862068965517242,1.3793103448275863,1.0714285714285714,0,226365.9906103557,344533.3444030933,110999.92018198119,126089.85749278658,-13597.295956658287,1.509106604069038e-06,0.0,0.0,0.0,1.509106604069038e-06,0.0,23.477951296580283,0.8688709540417638,-0.0004609930313032999,0.0
2059,5.862068965517242,1.3793103448275863,1.4285714285714286,0,337960.09943990863,371037.1296246958,340391.17546721344,18797.771326866296,-77525.66759133057,2.253067329599391e-06,0.0,0.0,0.0,2.253067329599391e-06,0.0,23.93382890591215,1.1842050904628567,-0.002729501272498336,0.0
2060,5.862068965517242,1.3793103448275863,1.7857142857142858,0,221132.20443991123,482422.7572681187,323879.20521309454,229809.09819791382,11523.634854765034,1.4742146962660748e-06,0.0,0.0,0.0,1.4742146962660748e-06,0.0,23.969916728290052,1.5055491491499695,0.000455154749286604,0.0
2061,5.862068965517242,1.3793103448275863,2.142857142857143,0,381215.7341154723,699242.009582308,714756.2933785904,326020.25943272066,257699.01078741543,2.541438227436482e-06,0.0,0.0,0.0,2.541438227436482e-06,0.0,23.58059800396342,1.8266914328117168,0.013813980062638452,0.0
2062,5.862068965517242,1.3793103448275863,2.5,0,661536.983431809,1028206.0572953501,398177.9039281729,339120.36324201775,411794.2342202468,4.41024655621206e-06,0.0,0.0,0.0,4.41024655621206e-06,0.0,24.737360086169833,2.13778097733634,0.04117942342202468,0.0
2063,5.862068965517242,1.3793103448275863,2.857142857142857,0,412140.0013115422,828464.7830647542,683622.189261627,363456.10996985866,292580.604935065,2.7476000087436147e-06,0.0,0.0,0.0,2.7476000087436147e-06,0.0,24.55651609320911,2.4338342899545737,0.015683811245289652,0.0
2064,5.862068965517242,1.3793103448275863,3.2142857142857144,0,226317.09292901304,477526.2052107786,302575.1651363295,221933.0872413598,14890.080872890816,1.5087806195267537e-06,0.0,0.0,0.0,1.5087806195267537e-06,0.0,24.1512898180948,2.719834863435684,0.0005881209455153345,0.0
2065,5.862068965517242,1.3793103448275863,3.5714285714285716,0,291293.33613763674,427500.48777625617,155732.59912618966,119981.84794297787,2890.9847548868624,1.9419555742509117e-06,0.0,0.0,0.0,1.9419555742509117e-06,0.0,23.773995780423135,3.0056336618914283,0.0001017849547434197,0.0
2066,5.862068965517242,1.3793103448275863,3.928571428571429,0,71909.63024480114,294612.8945673592,310105.8652098512,231712.57658196447,65754.04571577234,4.79397534965341e-07,0.0,0.0,0.0,4.79397534965341e-07,0.0,24.46679646763389,3.2974423826131933,0.0022292783029501154,0.0
2067,5.862068965517242,1.3793103448275863,4.285714285714286,0,118818.9724421534,243536.8173732785,270481.8333878062,140504.2920292238,36020.969974092164,7.921264829476894e-07,0.0,0.0,0.0,7.921264829476894e-07,0.0,24.250385744491407,3.595445120165887,0.0012069417778732294,0.0
2068,5.862068965517242,1.3793103448275863,4.642857142857143,0,75418.41704405229,248186.12992624543,217215.05098238107,162212.77710178905,17307.168580743866,5.027894469603486e-07,0.0,0.0,0.0,5.027894469603486e-07,0.0,23.7796318891662,3.89706480812813,0.0005778176959770411,0.0
2069,5.862068965517242,1.3793103448275863,5.0,0,48050.48814827307,235278.55125962343,206766.0282539553,179801.8283913975,52927.79434066017,3.203365876551538e-07,0.0,0.0,0.0,3.203365876551538e-07,0.0,24.488621605207726,4.200121195797376,0.0017651079597695858,0.0
2070,6.206896551724139,1.3793103448275863,0.0,0,102105.48707267387,268200.23865475017,223491.78565418205,151366.40502641987,-2058.930678878162,6.807032471511592e-07,0.0,0.0,0.0,6.807032471511592e-07,0.0,24.094175851363072,-0.04988063117934759,-6.866401623522312e-05,0.0
2071,6.206896551724139,1.3793103448275863,0.35714285714285715,0,134846.6551912591,353714.5343636985,209640.94155182503,230533.6248363165,-1770.538096700168,8.989777012750607e-07,0.0,0.0,0.0,8.989777012750607e-07,0.0,23.083948273035887,0.25419807426481716,-5.911124277214938e-05,0.0
2072,6.206896551724139,1.3793103448275863,0.7142857142857143,0,103575.19723306969,238787.56306299183,154132.41879211314,123296.1242088858,-30040.004620287313,6.905013148871313e-07,0.0,0.0,0.0,6.905013148871313e-07,0.0,23.422916016397572,0.5596918217597012,-0.0010065397075594263,0.0
2073,6.206896551724139,1.3793103448275863,1.0714285714285714,0,164948.94667012774,304281.4924802993,181094.67738298222,116883.0315863192,37667.04585571496,1.0996596444675183e-06,0.0,0.0,0.0,1.0996596444675183e-06,0.0,23.25906922533418,0.8687479956265896,0.0012770366773375674,0.0
2074,6.206896551724139,1.3793103448275863,1.4285714285714286,0,250873.24510512387,296007.11810481746,372161.11783716327,92034.92596004816,70970.26120100472,1.6724883007008257e-06,0.0,0.0,0.0,1.6724883007008257e-06,0.0,24.44409914653861,1.1839048140720967,0.0024987004211150317,0.0
2075,6.206896551724139,1.3793103448275863,1.7857142857142858,0,382112.50222267106,462722.5483017882,602570.1087551559,170235.01629980828,95712.5295261738,2.547416681484474e-06,0.0,0.0,0.0,2.547416681484474e-06,0.0,23.582159488804255,1.5049809576810462,0.003780405482221485,0.0
2076,6.206896551724139,1.3793103448275863,2.142857142857143,0,477552.47749588283,504802.1770113178,732285.4618523603,183520.9635944675,375712.95034454484,3.1836831833058854e-06,0.0,0.0,0.0,3.1836831833058854e-06,0.0,24.25155458349769,1.825858367940024,0.02014012855336916,0.0
2077,6.206896551724139,1.3793103448275863,2.5,0,312755.61604842194,813422.8463845889,677059.1326209772,455638.19506482396,258066.4353158831,2.085037440322813e-06,0.0,0.0,0.0,2.085037440322813e-06,0.0,25.028639896593766,2.136834579963485,0.025806643531588312,0.0
2078,6.206896551724139,1.3793103448275863,2.857142857142857,0,466853.19447207,695202.4751594252,457401.15270996233,157327.10888707233,441982.41656301904,3.1123546298138e-06,0.0,0.0,0.0,3.1123546298138e-06,0.0,24.344505702496615,2.433001225082881,0.02369250961337593,0.0
2079,6.206896551724139,1.3793103448275863,3.2142857142857144,0,312314.8888736577,540882.5550258175,263770.4270383656,202458.4315431759,46325.25298657856,2.082099259157718e-06,0.0,0.0,0.0,2.082099259157718e-06,0.0,23.742688668130004,2.7192666719667606,0.0018297316059113008,0.0
2080,6.206896551724139,1.3793103448275863,3.5714285714285716,0,174878.3908837972,355979.2179792783,188626.6428103136,174439.30954239145,84565.83491661932,1.1658559392253147e-06,0.0,0.0,0.0,1.1658559392253147e-06,0.0,23.585069945666135,3.005333385500668,0.0029773694466142045,0.0
2081,6.206896551724139,1.3793103448275863,3.928571428571429,0,83883.94966570119,222947.73481171025,172813.01022765448,126107.12503373851,50964.80631846018,5.592263311046746e-07,0.0,0.0,0.0,5.592263311046746e-07,0.0,23.80846922144279,3.297319424198019,0.001727874470734591,0.0
2082,6.206896551724139,1.3793103448275863,4.285714285714286,0,271998.3014756528,346332.2612988845,321682.5525621257,62848.099695745375,21988.451378348396,1.8133220098376853e-06,0.0,0.0,0.0,1.8133220098376853e-06,0.0,23.45249697771514,3.595406107473987,0.0007367591882825675,0.0
2083,6.206896551724139,1.3793103448275863,4.642857142857143,0,145299.30469107107,295643.4759507489,301089.53939301637,153143.77102763052,-9732.232937862036,9.686620312738072e-07,0.0,0.0,0.0,9.686620312738072e-07,0.0,23.398871680168572,3.8970552171219603,-0.0003249206469927165,0.0
2084,6.206896551724139,1.3793103448275863,5.0,0,166008.63580807988,294909.32733694976,240895.01872517003,108620.3221761892,4488.520909042125,1.1067242387205326e-06,0.0,0.0,0.0,1.1067242387205326e-06,0.0,23.57336521338418,4.200119368820652,0.0001496892905294578,0.0
2085,6.551724137931035,1.3793103448275863,0.0,0,282981.6385758822,276889.11093415914,140884.44212700985,-48417.819849045794,-52983.803335819684,1.8865442571725478e-06,0.0,0.0,0.0,1.8865442571725478e-06,0.0,24.14062119012324,-0.04988299890030544,-0.0017669758237984256,0.0
2086,6.551724137931035,1.3793103448275863,0.35714285714285715,0,189882.08385081883,248722.73770846217,243773.7101756808,56414.51747141009,25825.387428773614,1.2658805590054588e-06,0.0,0.0,0.0,1.2658805590054588e-06,0.0,23.61882213827368,0.2541856445354015,0.0008622072288826717,0.0
2087,6.551724137931035,1.3793103448275863,0.7142857142857143,0,105235.76479970165,290463.8128589076,181554.16234827004,189333.70279228632,-71111.92701405234,7.015717653313443e-07,0.0,0.0,0.0,7.015717653313443e-07,0.0,23.771344078419748,0.5596412621838326,-0.0023827219444690927,0.0
2088,6.551724137931035,1.3793103448275863,1.0714285714285714,0,205104.10836911344,314037.3919134387,77252.95788204779,199833.74508510504,-8381.455646419869,1.3673607224607563e-06,0.0,0.0,0.0,1.3673607224607563e-06,0.0,24.12331414433137,0.8685886442714812,-0.0002841588987614293,0.0
2089,6.551724137931035,1.3793103448275863,1.4285714285714286,0,73067.98320368768,216817.36841607696,252407.8898865119,168363.73289217727,55616.811562240655,4.871198880245845e-07,0.0,0.0,0.0,4.871198880245845e-07,0.0,24.25707447201056,1.1835156625877772,0.001958140608755132,0.0
2090,6.551724137931035,1.3793103448275863,1.7857142857142858,0,166466.5049426806,425932.6793890605,253778.3918970996,265806.4084272042,84689.89535881719,1.1097766996178705e-06,0.0,0.0,0.0,1.1097766996178705e-06,0.0,22.933535359599208,1.5042445942495117,0.0033450390067862952,0.0
2091,6.551724137931035,1.3793103448275863,2.142857142857143,0,433584.4468409882,671207.5140337863,380787.0543284388,172815.40471841037,158548.57646557846,2.890562978939921e-06,0.0,0.0,0.0,2.890562978939921e-06,0.0,23.04125912277496,1.8247787345045319,0.008499011569982189,0.0
2092,6.551724137931035,1.3793103448275863,2.5,0,508523.3529095152,874825.9273492392,540855.2259422026,289577.88597680134,368634.49570855196,3.390155686063435e-06,0.0,0.0,0.0,3.390155686063435e-06,0.0,23.714644371952105,2.135608070142083,0.036863449570855196,0.0
2093,6.551724137931035,1.3793103448275863,2.857142857142857,0,435882.84837726963,876069.6367349147,424599.7173681772,457656.0808356573,224500.1040314212,2.905885655848464e-06,0.0,0.0,0.0,2.905885655848464e-06,0.0,23.354987474639437,2.431921591647389,0.012034349498177265,0.0
2094,6.551724137931035,1.3793103448275863,3.2142857142857144,0,149609.98387784555,403689.13172519667,330888.62203819794,231612.01217030257,54026.052747319394,9.973998925189703e-07,0.0,0.0,0.0,9.973998925189703e-07,0.0,24.34439799988555,2.718530308535226,0.0021338939321721845,0.0
2095,6.551724137931035,1.3793103448275863,3.5714285714285716,0,140952.92032605506,300058.0283530702,227785.53220378855,137627.51883434286,33399.68970448207,9.396861355070337e-07,0.0,0.0,0.0,9.396861355070337e-07,0.0,23.689940543967236,3.0049442340163486,0.0011759266109129,0.0
2096,6.551724137931035,1.3793103448275863,3.928571428571429,0,159072.72790340637,257366.3270501248,93151.02521308349,103990.63459433286,17508.129911208263,1.0604848526893757e-06,0.0,0.0,0.0,1.0604848526893757e-06,0.0,24.825405959559852,3.2971600728429107,0.0005935831584417067,0.0
2097,6.551724137931035,1.3793103448275863,4.285714285714286,0,89163.66735062796,233719.91213064792,279468.0578744919,176716.01591118998,-29465.39652026083,5.944244490041864e-07,0.0,0.0,0.0,5.944244490041864e-07,0.0,23.687375994267303,3.5953555478981185,-0.000987286519143758,0.0
2098,6.551724137931035,1.3793103448275863,4.642857142857143,0,105819.45440975644,258187.83775219708,139649.16531818014,173243.72237812195,17166.995263918245,7.054630293983762e-07,0.0,0.0,0.0,7.054630293983762e-07,0.0,24.09038090129006,3.897042787392545,0.0005731378650394864,0.0
2099,6.551724137931035,1.3793103448275863,5.0,0,176059.13708962305,320162.42812500586,141340.19635722568,147003.0177991666,20120.743404996723,1.173727580597487e-06,0.0,0.0,0.0,1.173727580597487e-06,0.0,23.60727431034065,4.200117001099695,0.0006710138743370528,0.0
2100,6.8965517241379315,1.3793103448275863,0.0,0,89761.7542776726,216460.37566812072,173964.50495727503,113342.12664284199,13398.486113402116,5.98411695184484e-07,0.0,0.0,0.0,5.98411695184484e-07,0.0,24.075988689720095,-0.04988585870123936,0.0004468309095861966,0.0
2101,6.8965517241379315,1.3793103448275863,0.35714285714285715,0,179992.50747198224,297792.7845758184,186081.05152833133,90155.26807192467,67981.86527807883,1.199950049813215e-06,0.0,0.0,0.0,1.199950049813215e-06,0.0,24.091725411631142,0.25417063155354075,0.002269644776379292,0.0
2102,6.8965517241379315,1.3793103448275863,0.7142857142857143,0,111848.19571570103,181525.22504599925,272939.1273485419,148221.7798293011,19991.91146668281,7.456546381046736e-07,0.0,0.0,0.0,7.456546381046736e-07,0.0,24.285535034537606,0.5595801948854213,0.0006698618384245906,0.0
2103,6.8965517241379315,1.3793103448275863,1.0714285714285714,0,184739.60637957716,251693.3185696112,213744.29884081276,50925.997814630944,27621.80148398606,1.2315973758638477e-06,0.0,0.0,0.0,1.2315973758638477e-06,0.0,23.77925440119866,0.8683961751578172,0.0009364698714177385,0.0
2104,6.8965517241379315,1.3793103448275863,1.4285714285714286,0,217771.13224330122,307772.2777147485,267967.55745602126,72844.44415869354,65948.26147053139,1.4518075482886748e-06,0.0,0.0,0.0,1.4518075482886748e-06,0.0,24.48630314098909,1.183045634320888,0.002321887307720493,0.0
2105,6.8965517241379315,1.3793103448275863,1.7857142857142858,0,501028.77710407774,630081.3767051102,356301.86611210735,51814.888706261314,89840.83670779504,3.3401918473605184e-06,0.0,0.0,0.0,3.3401918473605184e-06,0.0,24.005680027678455,1.5033551934853588,0.0035484883044976483,0.0
2106,6.8965517241379315,1.3793103448275863,2.142857142857143,0,183787.50553311032,660852.8540962964,521871.71749983926,452470.1335976978,225208.8450123475,1.225250036887402e-06,0.0,0.0,0.0,1.225250036887402e-06,0.0,23.539023458285836,1.8234747224346624,0.012072341626087167,0.0
2107,6.8965517241379315,1.3793103448275863,2.5,0,363030.7248708917,460560.1513326553,626924.7002495426,210525.62722289117,577001.1547987962,2.4202048324726117e-06,0.0,0.0,0.0,2.4202048324726117e-06,0.0,23.547330555399896,2.1341266565823114,0.05770011547987962,0.0
2108,6.8965517241379315,1.3793103448275863,2.857142857142857,0,174473.77581846327,419726.95308719674,219193.39291406868,336217.7647598682,235674.4609841222,1.1631585054564219e-06,0.0,0.0,0.0,1.1631585054564219e-06,0.0,24.234480399120248,2.4306175795775196,0.012633351968872645,0.0
2109,6.8965517241379315,1.3793103448275863,3.2142857142857144,0,259012.6079980698,475193.2546253556,306795.3389021761,176940.24380744246,3339.6794197606287,1.7267507199871322e-06,0.0,0.0,0.0,1.7267507199871322e-06,0.0,24.50693392583205,2.7176409077710733,0.00013190898255251718,0.0
2110,6.8965517241379315,1.3793103448275863,3.5714285714285716,0,56566.17551747345,369930.2183240417,307228.65518075984,322732.74317880656,-25412.415050626878,3.7710783678315634e-07,0.0,0.0,0.0,3.7710783678315634e-07,0.0,23.31850761662683,3.0044742057494593,-0.0008947129560184346,0.0
2111,6.8965517241379315,1.3793103448275863,3.928571428571429,0,246786.13561449957,304814.00082867156,422015.6859211218,138467.6929369421,35093.391848663145,1.6452409040966637e-06,0.0,0.0,0.0,1.6452409040966637e-06,0.0,24.2597642095412,3.2969676037292466,0.001189781346129179,0.0
2112,6.8965517241379315,1.3793103448275863,4.285714285714286,0,240547.61132082794,284419.80554194364,126353.39117286763,7587.6858261842,17072.810760733744,1.6036507421388529e-06,0.0,0.0,0.0,1.6036507421388529e-06,0.0,23.145830585298423,3.595294480599707,0.000572052573478,0.0
2113,6.8965517241379315,1.3793103448275863,4.642857142857143,0,147695.92804536817,338087.54522981064,215236.70863577301,174217.79511159554,29101.005291789057,9.846395203024546e-07,0.0,0.0,0.0,9.846395203024546e-07,0.0,23.585001813116154,3.897027774410684,0.0009715671139313833,0.0
2114,6.8965517241379315,1.3793103448275863,5.0,0,135400.5054884111,244668.4011420269,160662.93164488452,88470.18615259524,17144.16589006625,9.026700365894072e-07,0.0,0.0,0.0,9.026700365894072e-07,0.0,24.143345168923634,4.20011414129876,0.0005717469252807846,0.0
2115,7.241379310344828,1.3793103448275863,0.0,0,216123.8673030626,323874.1876583448,304795.3377255086,98843.40757074779,5187.760243184429,1.4408257820204175e-06,0.0,0.0,0.0,1.4408257820204175e-06,0.0,23.359584633284143,-0.04988915924157275,0.0001730084733870439,0.0
2116,7.241379310344828,1.3793103448275863,0.35714285714285715,0,97736.65565797749,185078.18866949063,117939.35708265833,72948.37045174693,8737.751141744802,6.515777043865166e-07,0.0,0.0,0.0,6.515777043865166e-07,0.0,24.52095284673827,0.25415330483979365,0.0002917188452397187,0.0
2117,7.241379310344828,1.3793103448275863,0.7142857142857143,0,105545.06778068183,225750.53665421452,227398.1540687143,121038.92310680008,16296.227413672865,7.036337852045455e-07,0.0,0.0,0.0,7.036337852045455e-07,0.0,24.097100680334034,0.5595097161751492,0.0005460318725850885,0.0
2118,7.241379310344828,1.3793103448275863,1.0714285714285714,0,60099.195567359595,181346.3397993602,118861.42415853153,123957.37559926622,-16927.41845148469,4.006613037823973e-07,0.0,0.0,0.0,4.006613037823973e-07,0.0,23.206784044707792,0.8681740435873838,-0.0005738951309850823,0.0
2119,7.241379310344828,1.3793103448275863,1.4285714285714286,0,192891.59751289626,311872.47995791276,209982.8611311453,89402.02356257127,-38433.323567740765,1.2859439834193084e-06,0.0,0.0,0.0,1.2859439834193084e-06,0.0,24.130013260535694,1.182503167453947,-0.0013531493354882087,0.0
2120,7.241379310344828,1.3793103448275863,1.7857142857142858,0,284389.80937658565,468363.99337519286,327672.2732847546,141051.31912871142,26863.426915406868,1.8959320625105709e-06,0.0,0.0,0.0,1.8959320625105709e-06,0.0,23.146831104486125,1.5023287223559145,0.0010610381617224829,0.0
2121,7.241379310344828,1.3793103448275863,2.142857142857143,0,389548.2039820122,716390.8395309612,640129.1146167354,294351.2441561904,302277.1417817704,2.5969880265467478e-06,0.0,0.0,0.0,2.5969880265467478e-06,0.0,23.813600004476662,1.8219697420072585,0.016203595028191034,0.0
2122,7.241379310344828,1.3793103448275863,2.5,0,771528.8579522384,834313.4935114232,399338.0069317688,-56489.943349539884,422124.45188567543,5.143525719681589e-06,0.0,0.0,0.0,5.143525719681589e-06,0.0,24.25514489493678,2.1324169343612813,0.042212445188567545,0.0
2123,7.241379310344828,1.3793103448275863,2.857142857142857,0,498729.72782615316,570474.3037891256,583212.8052574522,78235.8536673907,413326.2552432229,3.3248648521743542e-06,0.0,0.0,0.0,3.3248648521743542e-06,0.0,24.17586916202728,2.4291125991501157,0.022156393351486323,0.0
2124,7.241379310344828,1.3793103448275863,3.2142857142857144,0,115575.81285002998,454751.06865453,332691.9037535892,346988.8561292514,70656.83727769862,7.705054190001998e-07,0.0,0.0,0.0,7.705054190001998e-07,0.0,23.782779040845192,2.716614436641629,0.002790768317621343,0.0
2125,7.241379310344828,1.3793103448275863,3.5714285714285716,0,87822.78862829383,231177.61494700168,249014.16030180085,153642.22697428986,8091.4998298102855,5.854852575219589e-07,0.0,0.0,0.0,5.854852575219589e-07,0.0,23.658544736630304,3.003931738882519,0.0002848831847319302,0.0
2126,7.241379310344828,1.3793103448275863,3.928571428571429,0,242372.8195405576,361404.08526242874,253214.15634156973,83778.8362495156,-17036.67572387494,1.6158187969370506e-06,0.0,0.0,0.0,1.6158187969370506e-06,0.0,23.256524426279327,3.296745472158813,-0.0005775993116803955,0.0
2127,7.241379310344828,1.3793103448275863,4.285714285714286,0,210282.6800786377,258899.98249590126,122242.40281498263,16754.234397998844,25245.055857011896,1.4018845338575846e-06,0.0,0.0,0.0,1.4018845338575846e-06,0.0,23.93145600115009,3.5952240018894353,0.0008458770716192754,0.0
2128,7.241379310344828,1.3793103448275863,4.642857142857143,0,135911.8711565992,247895.6282369848,236876.67328791347,106809.70112918585,-33299.40956176901,9.060791410439946e-07,0.0,0.0,0.0,9.060791410439946e-07,0.0,24.24713829431173,3.8970104476969367,-0.0011117351761272462,0.0
2129,7.241379310344828,1.3793103448275863,5.0,0,199497.38208070738,362005.101879348,161038.24657431484,164010.40432093726,8674.450495521534,1.3299825472047159e-06,0.0,0.0,0.0,1.3299825472047159e-06,0.0,24.88199228096325,4.200110840758428,0.0002892873547256402,0.0
2130,7.586206896551724,1.3793103448275863,0.0,0,48042.345726798514,209772.5579246543,256559.70759015667,258978.70629370067,-12156.488543204776,3.202823048453234e-07,0.0,0.0,0.0,3.202823048453234e-07,0.0,23.500654085808517,-0.04989284972978898,-0.0004054110880259078,0.0
2131,7.586206896551724,1.3793103448275863,0.35714285714285715,0,2848.636462179315,216327.75860839573,214102.44151793173,217312.88522347546,3376.0882585185864,1.89909097478621e-08,0.0,0.0,0.0,1.89909097478621e-08,0.0,24.156787451343344,0.2541339310323407,0.00011271419295717673,0.0
2132,7.586206896551724,1.3793103448275863,0.7142857142857143,0,142285.54116834534,218663.3132611137,184309.94732429797,62346.1979512138,13622.776670742674,9.485702744556356e-07,0.0,0.0,0.0,9.485702744556356e-07,0.0,24.120428172658265,0.5594309106392427,0.00045645351322804026,0.0
2133,7.586206896551724,1.3793103448275863,1.0714285714285714,0,172237.17038696862,284623.77386405546,167929.0737574399,86804.551778499,-32872.07205678026,1.1482478025797907e-06,0.0,0.0,0.0,1.1482478025797907e-06,0.0,23.504679343910617,0.867925667909364,-0.0011144713030428054,0.0
2134,7.586206896551724,1.3793103448275863,1.4285714285714286,0,298673.0378660195,364260.93979129713,289932.6767754233,35442.791448516975,-51813.8716096072,1.9911535857734637e-06,0.0,0.0,0.0,1.9911535857734637e-06,0.0,24.108142883765225,1.181896609927627,-0.0018242477992837492,0.0
2135,7.586206896551724,1.3793103448275863,1.7857142857142858,0,401445.44013945846,551390.1563383504,457367.65236266976,111278.0674544652,5846.33077866838,2.676302934263056e-06,0.0,0.0,0.0,2.676302934263056e-06,0.0,23.344217640141007,1.5011809770703337,0.00023091544060084852,0.0
2136,7.586206896551724,1.3793103448275863,2.142857142857143,0,753561.5599369477,1077735.7545025751,422319.59334995016,254369.25687922694,330982.0721036684,5.023743732912984e-06,0.0,0.0,0.0,5.023743732912984e-06,0.0,23.885640094980715,1.8202869531387795,0.017742325557091806,0.0
2137,7.586206896551724,1.3793103448275863,2.5,0,164741.13352145546,460639.01836584695,396401.6566988336,273456.44070757966,514396.91773087333,1.0982742234763698e-06,0.0,0.0,0.0,1.0982742234763698e-06,0.0,23.656217719662465,2.1305052141359866,0.05143969177308733,0.0
2138,7.586206896551724,1.3793103448275863,2.857142857142857,0,211969.74168021747,798301.4553619955,596969.6246995346,577093.8797653002,239737.2040412626,1.4131316112014497e-06,0.0,0.0,0.0,1.4131316112014497e-06,0.0,23.988374218044097,2.4274298102816365,0.012851135698113489,0.0
2139,7.586206896551724,1.3793103448275863,3.2142857142857144,0,316518.67026828084,426810.62401313806,197077.31750315454,65771.21731375485,145133.04838538053,2.1101244684552054e-06,0.0,0.0,0.0,2.1101244684552054e-06,0.0,24.03291835148838,2.715466691356048,0.005732392346997474,0.0
2140,7.586206896551724,1.3793103448275863,3.5714285714285716,0,157468.59075243925,295987.7759275943,147168.68822337157,131101.62501751824,47306.10526129145,1.0497906050162618e-06,0.0,0.0,0.0,1.0497906050162618e-06,0.0,23.511707998536654,3.0033251813561983,0.0016655396660147498,0.0
2141,7.586206896551724,1.3793103448275863,3.928571428571429,0,222663.2772920283,252774.63012927002,140651.93738927823,-3662.1423387799455,30293.03070107428,1.484421848613522e-06,0.0,0.0,0.0,1.484421848613522e-06,0.0,23.775967271313604,3.296497096480793,0.0010270333230052169,0.0
2142,7.586206896551724,1.3793103448275863,4.285714285714286,0,85685.62656356522,229163.03007427423,172775.58505501624,130560.72404856479,-20278.631663687233,5.712375104237682e-07,0.0,0.0,0.0,5.712375104237682e-07,0.0,23.721222370139063,3.5951451963535286,-0.0006794688696781515,0.0
2143,7.586206896551724,1.3793103448275863,4.642857142857143,0,303312.29570778675,373230.2976972531,120808.3615645777,36755.867881610255,28820.589659519832,2.022081971385245e-06,0.0,0.0,0.0,2.022081971385245e-06,0.0,23.24554313603375,3.8969910738894837,0.0009622051484661585,0.0
2144,7.586206896551724,1.3793103448275863,5.0,0,209654.28609023965,326139.9837391735,87152.32102508101,173200.78680108703,9509.833829283185,1.3976952406015976e-06,0.0,0.0,0.0,1.3976952406015976e-06,0.0,23.610118183919795,4.200107150270211,0.00031714685256133157,0.0
2145,7.931034482758621,1.3793103448275863,0.0,0,175016.5814354919,289199.2956426301,136134.0223285069,98390.36942241919,-20791.39439483047,1.166777209569946e-06,0.0,0.0,0.0,1.166777209569946e-06,0.0,23.379514371906783,-0.049896882170131655,-0.0006933796542666635,0.0
2146,7.931034482758621,1.3793103448275863,0.35714285714285715,0,289465.26592053985,365717.9348202092,238540.92930768998,34436.23617339224,-2997.2379760333038,1.9297684394702656e-06,0.0,0.0,0.0,1.9297684394702656e-06,0.0,23.1102207565615,0.25411276209257255,-0.00010006588504218625,0.0
2147,7.931034482758621,1.3793103448275863,0.7142857142857143,0,182261.27612104404,201464.2325257534,128733.44574313342,-5932.875070136969,-29990.115098116195,1.2150751741402936e-06,0.0,0.0,0.0,1.2150751741402936e-06,0.0,23.27659662870525,0.5593448031641346,-0.001004868077155532,0.0
2148,7.931034482758621,1.3793103448275863,1.0714285714285714,0,144831.949102973,218381.63415614344,188054.40715953475,60787.3780348828,-21041.143751850384,9.655463273531534e-07,0.0,0.0,0.0,9.655463273531534e-07,0.0,23.55411497678776,0.8676542783138678,-0.0007133639417110882,0.0
2149,7.931034482758621,1.3793103448275863,1.4285714285714286,0,204678.43040873695,195182.55063531862,376714.5083896398,154884.15178154618,-35220.84576583926,1.3645228693915796e-06,0.0,0.0,0.0,1.3645228693915796e-06,0.0,23.715490328444062,1.1812338501798707,-0.0012400453465695324,0.0
2150,7.931034482758621,1.3793103448275863,1.7857142857142858,0,161473.88225497035,426084.7319770815,341893.9652809824,239913.84497614068,99567.46149513272,1.076492548366469e-06,0.0,0.0,0.0,1.076492548366469e-06,0.0,23.070875405893663,1.4999268843537292,0.003932665651513719,0.0
2151,7.931034482758621,1.3793103448275863,2.142857142857143,0,471298.17420485907,757689.5693748217,564047.98456455,220415.4065853074,271613.10568785854,3.141987828032394e-06,0.0,0.0,0.0,3.141987828032394e-06,0.0,24.297597663504025,1.8184482409349,0.01455984644744557,0.0
2152,7.931034482758621,1.3793103448275863,2.5,0,411899.19185358204,881350.5069589134,441112.3471853777,505334.9349402117,416973.5204916112,2.7459946123572137e-06,0.0,0.0,0.0,2.7459946123572137e-06,0.0,24.00885675576993,2.1284163583237716,0.04169735204916112,0.0
2153,7.931034482758621,1.3793103448275863,2.857142857142857,0,669941.5674643014,755875.7325653963,831345.6899631605,126864.94415037338,314791.61419046414,4.466277116428676e-06,0.0,0.0,0.0,4.466277116428676e-06,0.0,23.664317660240624,2.425591098077757,0.016874434515777366,0.0
2154,7.931034482758621,1.3793103448275863,3.2142857142857144,0,419704.9437344141,355578.0724469137,293136.6569403567,-91849.36521022019,52256.16240938073,2.7980329582294274e-06,0.0,0.0,0.0,2.7980329582294274e-06,0.0,23.102190432983704,2.7142125986394436,0.0020639876913738525,0.0
2155,7.931034482758621,1.3793103448275863,3.5714285714285716,0,217512.8305186821,401368.38877314783,226296.8004958903,157870.14507114582,40675.4300708271,1.450085536791214e-06,0.0,0.0,0.0,1.450085536791214e-06,0.0,23.610113345348978,3.0026624216084423,0.001432088772495202,0.0
2156,7.931034482758621,1.3793103448275863,3.928571428571429,0,105721.31654595735,311841.5010940695,286691.90772942995,195813.23546360148,4158.55111125151,7.04808776973049e-07,0.0,0.0,0.0,7.04808776973049e-07,0.0,23.584493288552572,3.296225706885297,0.0001409885530708624,0.0
2157,7.931034482758621,1.3793103448275863,4.285714285714286,0,140047.54467436156,331187.0892550699,191689.58165536323,190595.91314047898,-41507.69765588216,9.336502978290771e-07,0.0,0.0,0.0,9.336502978290771e-07,0.0,23.185618178412735,3.59505908887842,-0.0013907836030025592,0.0
2158,7.931034482758621,1.3793103448275863,4.642857142857143,0,152882.61003065726,178927.69341061971,204302.21072332657,40319.899758094325,-14302.246934699044,1.0192174002043818e-06,0.0,0.0,0.0,1.0192174002043818e-06,0.0,23.149714215893088,3.896969904949716,-0.00047749528367668493,0.0
2159,7.931034482758621,1.3793103448275863,5.0,0,192502.10881916367,305797.22983807215,185287.11098656632,83786.04119112993,-33311.45608026633,1.2833473921277578e-06,0.0,0.0,0.0,1.2833473921277578e-06,0.0,24.1185558984898,4.200103117829869,-0.0011109156731593302,0.0
2160,8.275862068965518,1.3793103448275863,0.0,0,56852.07562029928,229695.4653081351,194323.38883632925,164116.1012648635,16961.227723935623,3.7901383746866185e-07,0.0,0.0,0.0,3.7901383746866185e-07,0.0,23.442946060752316,-0.04990121268581896,0.0005656460548930163,0.0
2161,8.275862068965518,1.3793103448275863,0.35714285714285715,0,176757.9490994355,277376.2162064349,233252.35759343838,82736.22805216811,32677.072551562407,1.17838632732957e-06,0.0,0.0,0.0,1.17838632732957e-06,0.0,24.05246537177413,0.2540900283586648,0.001090957812361407,0.0
2162,8.275862068965518,1.3793103448275863,0.7142857142857143,0,180082.75090458544,334588.34640108695,245026.77083425855,127284.20549618,-46667.6345110564,1.2005516726972362e-06,0.0,0.0,0.0,1.2005516726972362e-06,0.0,23.607830439749478,0.5592523306809578,-0.0015636757646011186,0.0
2163,8.275862068965518,1.3793103448275863,1.0714285714285714,0,206412.077322234,317102.9308249319,177935.10887092515,79947.59130501338,-3677.573777338332,1.37608051548156e-06,0.0,0.0,0.0,1.37608051548156e-06,0.0,23.99498997760479,0.8673628277775193,-0.0001246818403350673,0.0
2164,8.275862068965518,1.3793103448275863,1.4285714285714286,0,203503.77840539522,300276.67532494053,197888.4374521241,65912.48682407844,46268.847912647296,1.3566918560359682e-06,0.0,0.0,0.0,1.3566918560359682e-06,0.0,23.983048449434545,1.1805220996663675,0.0016290202094141717,0.0
2165,8.275862068965518,1.3793103448275863,1.7857142857142858,0,350852.9753921291,519085.15406154946,299744.83849979256,114431.64112573753,-26219.092038338407,2.3390198359475275e-06,0.0,0.0,0.0,2.3390198359475275e-06,0.0,23.86194948444252,1.4985800899262678,-0.0010355885459437044,0.0
2166,8.275862068965518,1.3793103448275863,2.142857142857143,0,184136.8692373722,532833.6277608495,322414.2492432532,454065.3921448163,256287.69991127495,1.227579128249148e-06,0.0,0.0,0.0,1.227579128249148e-06,0.0,24.224666152418393,1.8164736123312073,0.013738326608457084,0.0
2167,8.275862068965518,1.3793103448275863,2.5,0,757285.3642927201,1111692.8188214474,345164.66228095826,364001.7082183403,521457.9950191851,5.048569095284801e-06,0.0,0.0,0.0,5.048569095284801e-06,0.0,23.688253865537376,2.1261730956603233,0.05214579950191851,0.0
2168,8.275862068965518,1.3793103448275863,2.857142857142857,0,205821.04532549263,736575.4425013534,583329.666051447,502634.0820645285,371693.3577608329,1.3721403021699508e-06,0.0,0.0,0.0,1.3721403021699508e-06,0.0,22.89545680623545,2.423616469474064,0.01992465790937382,0.0
2169,8.275862068965518,1.3793103448275863,3.2142857142857144,0,323331.8620960473,634413.732803129,460224.42532163433,261334.71425228342,82848.78778015023,2.155545747306982e-06,0.0,0.0,0.0,2.155545747306982e-06,0.0,22.979951822166587,2.7128658042119826,0.003272319863135946,0.0
2170,8.275862068965518,1.3793103448275863,3.5714285714285716,0,59397.20425063659,323801.6482315801,316387.9950446177,261045.63720165283,31657.820488774185,3.959813616709106e-07,0.0,0.0,0.0,3.959813616709106e-07,0.0,23.32589464798699,3.001950671094939,0.0011145993835762335,0.0
2171,8.275862068965518,1.3793103448275863,3.928571428571429,0,181161.2732181458,278817.7321955172,69636.08831324156,175525.68315649533,18961.951928881594,1.2077418214543054e-06,0.0,0.0,0.0,1.2077418214543054e-06,0.0,24.02800299904159,3.2959342563489487,0.0006428725039879823,0.0
2172,8.275862068965518,1.3793103448275863,4.285714285714286,0,78682.999411314,256082.45294268825,196781.98133225663,166820.0963360269,-11274.892080565418,5.2455332940876e-07,0.0,0.0,0.0,5.2455332940876e-07,0.0,23.46173628578632,3.5949666163952436,-0.00037778378269197034,0.0
2173,8.275862068965518,1.3793103448275863,4.642857142857143,0,226854.0480194175,354122.39016077097,144507.7933264376,113267.12337111775,49519.27313680194,1.5123603201294501e-06,0.0,0.0,0.0,1.5123603201294501e-06,0.0,23.769152837869143,3.896947171215808,0.0016532520716415696,0.0
2174,8.275862068965518,1.3793103448275863,5.0,0,71282.90347077312,258516.1378499948,219543.13386063016,301815.6298926556,-20211.871945979692,4.752193564718208e-07,0.0,0.0,0.0,4.752193564718208e-07,0.0,23.939072196065165,4.2000987873141815,-0.0006740529526711305,0.0
2175,8.620689655172415,1.3793103448275863,0.0,0,202037.62642802947,360811.53308032156,197017.63123998875,135047.03619299977,-88800.21897707874,1.3469175095201965e-06,0.0,0.0,0.0,1.3469175095201965e-06,0.0,23.619221883355692,-0.04990580210851661,-0.002961430290045388,0.0
2176,8.620689655172415,1.3793103448275863,0.35714285714285715,0,278243.4944435875,295219.4266982369,261613.3045280296,1699.1568698215567,-57558.076304938244,1.8549566296239166e-06,0.0,0.0,0.0,1.8549566296239166e-06,0.0,22.396191398412835,0.2540659354510453,-0.0019216358169870384,0.0
2177,8.620689655172415,1.3793103448275863,0.7142857142857143,0,68046.12041886122,193956.74381501763,223255.79986516907,145467.9436235043,-3744.1180338183135,4.5364080279240814e-07,0.0,0.0,0.0,4.5364080279240814e-07,0.0,22.953033673283613,0.5591543295781226,-0.000125452825938727,0.0
2178,8.620689655172415,1.3793103448275863,1.0714285714285714,0,208802.7957775387,292709.5661328436,105990.71731071323,67249.19113693078,-10742.334749283917,1.3920186385169248e-06,0.0,0.0,0.0,1.3920186385169248e-06,0.0,24.434182644822403,0.8670539523909953,-0.0003642004612631981,0.0
2179,8.620689655172415,1.3793103448275863,1.4285714285714286,0,86529.59243895517,293409.54244941595,194504.63839860345,231679.65853959814,-15767.6463420355,5.768639495930345e-07,0.0,0.0,0.0,5.768639495930345e-07,0.0,23.718989941483258,1.1797677959765502,-0.0005551427300408363,0.0
2180,8.620689655172415,1.3793103448275863,1.7857142857142858,0,223695.08905779873,553737.1885935187,385641.85679715587,299844.1152220131,66197.37519244451,1.4913005937186583e-06,0.0,0.0,0.0,1.4913005937186583e-06,0.0,22.210861350475096,1.497152775176526,0.002614630721025453,0.0
2181,8.620689655172415,1.3793103448275863,2.142857142857143,0,309803.71423330565,620879.9732291832,585109.2485839712,294743.6047500376,405166.5737448111,2.0653580948887044e-06,0.0,0.0,0.0,2.0653580948887044e-06,0.0,23.60029024798587,1.8143809273053078,0.0217189928461754,0.0
2182,8.620689655172415,1.3793103448275863,2.5,0,844843.5908408377,1136384.8395025975,401614.4321053348,213261.3617083391,596770.2472916095,5.6322906056055845e-06,0.0,0.0,0.0,5.6322906056055845e-06,0.0,24.4714823360309,2.1237957158451124,0.05967702472916095,0.0
2183,8.620689655172415,1.3793103448275863,2.857142857142857,0,465845.5150255345,800046.9543550293,320013.9968030286,349820.31022702984,360194.59135241073,3.1056367668368966e-06,0.0,0.0,0.0,3.1056367668368966e-06,0.0,23.71179752896844,2.4215237844481647,0.019308265438849687,0.0
2184,8.620689655172415,1.3793103448275863,3.2142857142857144,0,333912.8262222688,530471.9981102538,391192.56037909223,149466.4105552618,-1453.1461958786385,2.2260855081484587e-06,0.0,0.0,0.0,2.2260855081484587e-06,0.0,23.601832301507336,2.7114384894622403,-5.739563955277807e-05,0.0
2185,8.620689655172415,1.3793103448275863,3.5714285714285716,0,251039.8927245734,434320.7861917438,160979.17739141046,214077.84879857837,-15118.174814416063,1.6735992848304894e-06,0.0,0.0,0.0,1.6735992848304894e-06,0.0,22.67018806882606,3.001196367405122,-0.0005322763244210422,0.0
2186,8.620689655172415,1.3793103448275863,3.928571428571429,0,252559.95312208694,394089.47673580825,121015.28058661718,168899.16400356145,23351.181760194566,1.683733020813913e-06,0.0,0.0,0.0,1.683733020813913e-06,0.0,23.453663083827546,3.2956253809624245,0.0007916818239787724,0.0
2187,8.620689655172415,1.3793103448275863,4.285714285714286,0,122084.45930347149,319402.68138693005,195933.66673136063,316584.7847763962,3468.3355292098136,8.138963953564766e-07,0.0,0.0,0.0,8.138963953564766e-07,0.0,22.772227888905864,3.5948686152924085,0.00011621228003843843,0.0
2188,8.620689655172415,1.3793103448275863,4.642857142857143,0,148248.8060019232,270365.12250758207,192541.4299870086,99410.43038716065,15250.345505336785,9.883253733461546e-07,0.0,0.0,0.0,9.883253733461546e-07,0.0,22.987345522296465,3.8969230783081885,0.0005091485335476397,0.0
2189,8.620689655172415,1.3793103448275863,5.0,0,85284.96352827651,206213.00189024178,167576.81825376075,108447.73683086057,19615.104245408656,5.685664235218434e-07,0.0,0.0,0.0,5.685664235218434e-07,0.0,22.877720427168615,4.200094197891484,0.0006541511330027806,0.0
2190,8.965517241379311,1.3793103448275863,0.0,0,148030.63059429175,296103.0558043489,191931.28926249855,126653.42222777638,5703.518426918681,9.868708706286118e-07,0.0,0.0,0.0,9.868708706286118e-07,0.0,24.33549227768169,-0.04991061605601807,0.00019020867767982453,0.0
2191,8.965517241379311,1.3793103448275863,0.35714285714285715,0,150519.02203955772,300887.5079736963,241232.14120526772,129684.77761322787,54300.62156362966,1.0034601469303849e-06,0.0,0.0,0.0,1.0034601469303849e-06,0.0,23.834525553311813,0.25404066386460006,0.0018128823265133518,0.0
2192,8.965517241379311,1.3793103448275863,0.7142857142857143,0,152479.41558360285,351729.45349132636,191450.86807487055,208478.72386876435,-18298.969516912224,1.016529437224019e-06,0.0,0.0,0.0,1.016529437224019e-06,0.0,24.17573337844015,0.559051534042559,-0.0006131370370613319,0.0
2193,8.965517241379311,1.3793103448275863,1.0714285714285714,0,182141.33715443552,330285.97213219723,253359.4738384447,122302.21656913038,-28832.022302439116,1.2142755810295701e-06,0.0,0.0,0.0,1.2142755810295701e-06,0.0,22.818242560992335,0.866729966131029,-0.0009775003355205546,0.0
2194,8.965517241379311,1.3793103448275863,1.4285714285714286,0,186827.045084405,469012.19255211,257228.46925237527,327552.28788682865,-67584.9328871394,1.2455136338960334e-06,0.0,0.0,0.0,1.2455136338960334e-06,0.0,23.580094378873394,1.1789765900663196,-0.002379510761385441,0.0
2195,8.965517241379311,1.3793103448275863,1.7857142857142858,0,185875.2330314748,518189.16710855736,433218.44815847516,305015.2463725616,106423.2941107233,1.2391682202098321e-06,0.0,0.0,0.0,1.2391682202098321e-06,0.0,22.985399779181915,1.495655633002889,0.0042034538893074335,0.0
2196,8.965517241379311,1.3793103448275863,2.142857142857143,0,557232.9372259624,865040.2504511282,766205.8630661394,265003.0705320632,280143.4144011062,3.7148862481730826e-06,0.0,0.0,0.0,3.7148862481730826e-06,0.0,23.043621669468546,1.8121858634562307,0.015017114459972643,0.0
2197,8.965517241379311,1.3793103448275863,2.5,0,887467.9469307887,1273369.2983661324,893511.675933371,259195.07658361067,724405.8953309583,5.916452979538592e-06,0.0,0.0,0.0,5.916452979538592e-06,0.0,23.733637927022354,2.121302029302078,0.07244058953309583,0.0
2198,8.965517241379311,1.3793103448275863,2.857142857142857,0,364036.0592255549,934843.6790447126,837958.5841030796,532166.4477834959,351720.85932739364,2.4269070615036997e-06,0.0,0.0,0.0,2.4269070615036997e-06,0.0,23.59305282211737,2.4193287205990877,0.0188540302250937,0.0
2199,8.965517241379311,1.3793103448275863,3.2142857142857144,0,314438.53334933263,583502.455109487,512416.7210433305,239606.37329815142,42199.96533488251,2.096256888995551e-06,0.0,0.0,0.0,2.096256888995551e-06,0.0,23.651501081294196,2.7099413472886034,0.0016667930634715919,0.0
2200,8.965517241379311,1.3793103448275863,3.5714285714285716,0,176210.13061048093,362652.2482577745,308271.7524039718,165661.87847348562,-38298.90793405182,1.174734204069873e-06,0.0,0.0,0.0,1.174734204069873e-06,0.0,22.885058390963827,3.000405161494891,-0.001348416868750461,0.0
2201,8.965517241379311,1.3793103448275863,3.928571428571429,0,182670.73535207604,309844.88154267747,217588.93069422708,99445.09720452318,30259.57043881789,1.2178049023471736e-06,0.0,0.0,0.0,1.2178049023471736e-06,0.0,23.58165165654287,3.295301394702458,0.0010258989101208506,0.0
2202,8.965517241379311,1.3793103448275863,4.285714285714286,0,131947.2515436451,285773.4705937653,214343.80948873388,133510.66783350494,-1850.839434366525,8.796483436243007e-07,0.0,0.0,0.0,8.796483436243007e-07,0.0,23.696443739437502,3.594765819756845,-6.201541599459707e-05,0.0
2203,8.965517241379311,1.3793103448275863,4.642857142857143,0,185243.47238399723,306119.1660947491,180021.04961965475,93438.58435043583,9192.635269727149,1.2349564825599815e-06,0.0,0.0,0.0,1.2349564825599815e-06,0.0,23.189725592219986,3.8968978067217432,0.00030690562160588434,0.0
2204,8.965517241379311,1.3793103448275863,5.0,0,159641.91469723635,395060.24572726875,240545.6191638966,230742.8178023896,20743.97230547837,1.064279431314909e-06,0.0,0.0,0.0,1.064279431314909e-06,0.0,23.396092545752463,4.200089383943982,0.0006917981580334075,0.0
2205,9.310344827586208,1.3793103448275863,0.0,0,137063.80293280908,355786.9127110377,312545.12604433764,202317.25378313375,9894.225479843579,9.137586862187272e-07,0.0,0.0,0.0,9.137586862187272e-07,0.0,22.56899553862296,-0.04991562469392928,0.0003299660673146637,0.0
2206,9.310344827586208,1.3793103448275863,0.35714285714285715,0,117741.227757307,271856.3572382478,206622.7425264287,135936.9441672814,-31645.727692663673,7.849415183820467e-07,0.0,0.0,0.0,7.849415183820467e-07,0.0,22.31851952353177,0.25401437021974665,-0.0010565252991893985,0.0
2207,9.310344827586208,1.3793103448275863,0.7142857142857143,0,326672.0484878424,505679.2314693487,258719.4463017137,135272.6784259731,19478.31172235264,2.177813656585616e-06,0.0,0.0,0.0,2.177813656585616e-06,0.0,24.4052722605566,0.558944581148625,0.0006526528351972221,0.0
2208,9.310344827586208,1.3793103448275863,1.0714285714285714,0,225662.06029352473,409504.6599960194,217272.7225251639,161045.24007850367,31814.16954953961,1.5044137352901648e-06,0.0,0.0,0.0,1.5044137352901648e-06,0.0,23.50826530868316,0.8663928768993978,0.0010786049304058682,0.0
2209,9.310344827586208,1.3793103448275863,1.4285714285714286,0,148474.69765185151,321410.1828015713,331813.3795920938,178410.68145323428,21733.930532563707,9.8983131767901e-07,0.0,0.0,0.0,9.8983131767901e-07,0.0,23.23112345681315,1.1781533854268094,0.0007652019374762139,0.0
2210,9.310344827586208,1.3793103448275863,1.7857142857142858,0,390551.5359436623,584081.7877141926,378092.2133672265,133658.26875069123,108003.84845207765,2.603676906291082e-06,0.0,0.0,0.0,2.603676906291082e-06,0.0,23.814434362908028,1.4940979419297968,0.00426588183188282,0.0
2211,9.310344827586208,1.3793103448275863,2.142857142857143,0,824528.7919321869,970312.126694971,524084.5066104411,18838.23260744212,426896.94203988666,5.496858612881246e-06,0.0,0.0,0.0,5.496858612881246e-06,0.0,22.984996606929002,1.8099020246713888,0.022883851312122692,0.0
2212,9.310344827586208,1.3793103448275863,2.5,0,1094148.4502027158,1497697.298599701,629949.7723633042,268574.2009241165,600225.266132117,7.294323001351439e-06,0.0,0.0,0.0,7.294323001351439e-06,0.0,23.47986410601246,2.11870749062995,0.060022526613211696,0.0
2213,9.310344827586208,1.3793103448275863,2.857142857142857,0,394582.3050996717,738882.7288691615,760040.0723953388,355304.7431863091,316868.0492858521,2.630548700664478e-06,0.0,0.0,0.0,2.630548700664478e-06,0.0,23.982646903052014,2.417044881814246,0.016985742017196978,0.0
2214,9.310344827586208,1.3793103448275863,3.2142857142857144,0,523841.3629145655,765770.2632267813,436092.76209679863,161734.1396770381,210159.5832579601,3.4922757527637697e-06,0.0,0.0,0.0,3.4922757527637697e-06,0.0,22.883223620558073,2.7083836562155112,0.008300777804357494,0.0
2215,9.310344827586208,1.3793103448275863,3.5714285714285716,0,309590.96296497155,572454.1335149357,274762.31056060235,252198.62995152443,64918.815491037916,2.0639397530998105e-06,0.0,0.0,0.0,2.0639397530998105e-06,0.0,23.192990392940455,2.9995819568553808,0.002285642871544752,0.0
2216,9.310344827586208,1.3793103448275863,3.928571428571429,0,181316.24671335757,336484.6137536796,289534.35155682423,136311.0503420193,-1608.6582833880257,1.2087749780890505e-06,0.0,0.0,0.0,1.2087749780890505e-06,0.0,22.753344658777785,3.294964305470827,-5.45388039470505e-05,0.0
2217,9.310344827586208,1.3793103448275863,4.285714285714286,0,105945.81487607778,352837.4040950765,230529.85235786354,289411.4528826914,25513.769679070287,7.063054325071853e-07,0.0,0.0,0.0,7.063054325071853e-07,0.0,23.866071456688918,3.5946588668629107,0.0008548807696975761,0.0
2218,9.310344827586208,1.3793103448275863,4.642857142857143,0,217002.52403982333,295202.0654357602,344567.1529966382,107134.96400560373,-34917.72345789244,1.4466834935988222e-06,0.0,0.0,0.0,1.4466834935988222e-06,0.0,23.555883628408463,3.89687151307689,-0.0011657642567630042,0.0
2219,9.310344827586208,1.3793103448275863,5.0,0,185084.26583384429,357159.030430439,188100.53286791005,159401.67665452912,-22296.89526965338,1.233895105558962e-06,0.0,0.0,0.0,1.233895105558962e-06,0.0,24.0437752522192,4.200084375306071,-0.0007435871418578957,0.0
2220,9.655172413793103,1.3793103448275863,0.0,0,229431.5097811234,404296.20368108386,269863.83013519784,139381.33105626106,-50783.71863102147,1.5295433985408227e-06,0.0,0.0,0.0,1.5295433985408227e-06,0.0,23.736423561574252,-0.049920802329415565,-0.0016936044114245804,0.0
2221,9.655172413793103,1.3793103448275863,0.35714285714285715,0,277429.98939477076,461099.9175155707,170701.82498784267,198772.26711174677,11636.67707237354,1.849533262631805e-06,0.0,0.0,0.0,1.849533262631805e-06,0.0,23.189037862717758,0.2539871893951252,0.0003885024811203836,0.0
2222,9.655172413793103,1.3793103448275863,0.7142857142857143,0,243699.40986560527,497760.1469319772,257709.84954001513,250568.5977586405,12157.764068010903,1.6246627324373684e-06,0.0,0.0,0.0,1.6246627324373684e-06,0.0,23.529871478874952,0.55883401953311,0.00040736585910269255,0.0
2223,9.655172413793103,1.3793103448275863,1.0714285714285714,0,180938.97629120032,358029.9377447337,153283.09372324127,219629.2963195429,45901.41496011049,1.2062598419413356e-06,0.0,0.0,0.0,1.2062598419413356e-06,0.0,23.539950979983445,0.8660444138644016,0.0015562088588069812,0.0
2224,9.655172413793103,1.3793103448275863,1.4285714285714286,0,373591.24348034663,296761.30823930935,415521.7664669441,-3013.557802661534,-4224.096363914672,2.4906082898689777e-06,0.0,0.0,0.0,2.4906082898689777e-06,0.0,23.700679418312003,1.1773024048549334,-0.0001487207625381354,0.0
2225,9.655172413793103,1.3793103448275863,1.7857142857142858,0,309866.8228195413,697897.3770212185,598057.4774293669,350418.28399256704,148582.42493900924,2.065778818796942e-06,0.0,0.0,0.0,2.065778818796942e-06,0.0,24.071893951537774,1.4924876924528565,0.005868634091919891,0.0
2226,9.655172413793103,1.3793103448275863,2.142857142857143,0,809753.0306417274,1099378.0729437724,889749.5716404798,205423.85421645964,459449.2903495647,5.398353537611516e-06,0.0,0.0,0.0,5.398353537611516e-06,0.0,22.79818123917051,1.8075411263699004,0.024628823049375144,0.0
2227,9.655172413793103,1.3793103448275863,2.5,0,753353.1785910625,1282769.5960133057,862329.9945049966,413031.8517535115,1005464.6264271936,5.022354523940417e-06,0.0,0.0,0.0,5.022354523940417e-06,0.0,22.409996025449367,2.1160254090465966,0.10054646264271937,0.0
2228,9.655172413793103,1.3793103448275863,2.857142857142857,0,419413.1886619092,970570.8007742267,544156.5321914002,558528.1151211918,564765.6449438888,2.796087924412728e-06,0.0,0.0,0.0,2.796087924412728e-06,0.0,22.827278101484893,2.414683983512757,0.030274316286583957,0.0
2229,9.655172413793103,1.3793103448275863,3.2142857142857144,0,517009.0693632633,718362.5001993008,378424.949254481,123387.57901003641,178409.4952801488,3.446727129088422e-06,0.0,0.0,0.0,3.446727129088422e-06,0.0,23.594016297067945,2.706773406738571,0.0070467287551208525,0.0
2230,9.655172413793103,1.3793103448275863,3.5714285714285716,0,285334.5410817227,637566.4936189901,492225.6659186163,308824.15005598794,47037.865587528744,1.9022302738781514e-06,0.0,0.0,0.0,1.9022302738781514e-06,0.0,23.569239684239584,2.998730976283505,0.0016560955611960807,0.0
2231,9.655172413793103,1.3793103448275863,3.928571428571429,0,297517.8248734881,453166.858601874,415606.7947580059,138652.50787252633,-37379.11818652055,1.983452165823254e-06,0.0,0.0,0.0,1.983452165823254e-06,0.0,23.082688869117607,3.2946158424358307,-0.00126727498284764,0.0
2232,9.655172413793103,1.3793103448275863,4.285714285714286,0,71171.00091822962,378141.77906609373,296077.0551122455,340897.18470171606,11970.960444321594,4.7447333945486413e-07,0.0,0.0,0.0,4.7447333945486413e-07,0.0,23.23594401882726,3.594548305247396,0.000401106696791103,0.0
2233,9.655172413793103,1.3793103448275863,4.642857142857143,0,173262.38831851757,366605.42897112627,243140.63611497023,168538.1914363941,91555.84955708025,1.1550825887901171e-06,0.0,0.0,0.0,1.1550825887901171e-06,0.0,22.9594164592262,3.8968443322522686,0.003056686586109335,0.0
2234,9.655172413793103,1.3793103448275863,5.0,0,93227.90113782736,393441.2722131521,396575.3296171084,301819.9174453756,20647.083195615643,6.21519340918849e-07,0.0,0.0,0.0,6.21519340918849e-07,0.0,23.32775269171539,4.2000791976705845,0.0006885669684256761,0.0
2235,10.0,1.3793103448275863,0.0,0,327459.0646132997,595253.3910128783,251626.78005557464,286801.8654824577,-36852.91847795786,2.183060430755331e-06,0.0,0.0,0.0,2.183060430755331e-06,0.0,22.889341789868965,-0.0499261269373935,-0.001229021170379867,0.0
2236,10.0,1.3793103448275863,0.35714285714285715,0,272162.9291068972,432098.31291859644,334509.0392362017,124595.51960247665,15069.697429156284,1.8144195273793146e-06,0.0,0.0,0.0,1.8144195273793146e-06,0.0,24.05934476676954,0.25395923701492984,0.0005031174109712157,0.0
2237,10.0,1.3793103448275863,0.7142857142857143,0,379709.05689698673,448192.50495760125,436650.8230962974,62844.18830630216,-44523.351357035004,2.531393712646578e-06,0.0,0.0,0.0,2.531393712646578e-06,0.0,23.907094454211077,0.5587203195127853,-0.0014918280346804746,0.0
2238,10.0,1.3793103448275863,1.0714285714285714,0,202280.6335911023,418870.2822379253,246969.03203682744,195971.03589388792,-39395.13769948667,1.3485375572740152e-06,0.0,0.0,0.0,1.3485375572740152e-06,0.0,23.61230450651017,0.8656860593488953,-0.0013356246715954061,0.0
2239,10.0,1.3793103448275863,1.4285714285714286,0,441165.942002959,657152.9019620355,466464.9296136381,152717.2863396154,29016.471623373815,2.941106280019727e-06,0.0,0.0,0.0,2.941106280019727e-06,0.0,23.27076982264774,1.1764272683270574,0.0010216035369976925,0.0
2240,10.0,1.3793103448275863,1.7857142857142858,0,491237.11182964075,1074230.4098887683,620561.73350285,552519.0649821393,138365.4270570919,3.2749140788642716e-06,0.0,0.0,0.0,3.2749140788642716e-06,0.0,23.829479240042726,1.4908317343936055,0.005465088234383201,0.0
2241,10.0,1.3793103448275863,2.142857142857143,0,732971.6406585074,1246447.5051847897,791344.1907454194,400908.6669497142,340011.86756504624,4.886477604390049e-06,0.0,0.0,0.0,4.886477604390049e-06,0.0,23.31398408658682,1.8051132115496138,0.018226368604412915,0.0
2242,10.0,1.3793103448275863,2.5,0,823501.7110037178,1367621.124543827,674441.5351203855,457310.11271223193,700986.7229160517,5.4900114066914525e-06,0.0,0.0,0.0,5.4900114066914525e-06,0.0,23.349937668184644,2.113267193827696,0.07009867229160517,0.0
2243,10.0,1.3793103448275863,2.857142857142857,0,877921.0462523435,1151812.7116403054,634715.7842860032,138146.08552540443,268154.46200645436,5.852806975015623e-06,0.0,0.0,0.0,5.852806975015623e-06,0.0,22.41009495577233,2.412256068692471,0.014374445522883616,0.0
2244,10.0,1.3793103448275863,3.2142857142857144,0,198077.61004458464,403724.553833556,584890.6275023426,373399.03053033375,71313.98278976366,1.320517400297231e-06,0.0,0.0,0.0,1.320517400297231e-06,0.0,23.40915793025611,2.70511744867932,0.002816723921435456,0.0
2245,10.0,1.3793103448275863,3.5714285714285716,0,477158.8626958354,619028.1791911559,223756.18552496823,88975.84925069047,-98068.26999133363,3.1810590846389027e-06,0.0,0.0,0.0,3.1810590846389027e-06,0.0,22.637966494268156,2.997855839755629,-0.0034527592737942318,0.0
2246,10.0,1.3793103448275863,3.928571428571429,0,216628.32898781623,476028.99614490574,336634.85256009235,226457.55855585236,-13570.928998474566,1.444188859918775e-06,0.0,0.0,0.0,1.444188859918775e-06,0.0,23.086874419318928,3.2942574879203246,-0.0004600991047448059,0.0
2247,10.0,1.3793103448275863,4.285714285714286,0,222011.01155005174,488522.44058948755,363673.48830570944,232194.78349197473,3587.040749761362,1.4800734103336784e-06,0.0,0.0,0.0,1.4800734103336784e-06,0.0,23.377506691507204,3.5944346052270713,0.00012018969347395573,0.0
2248,10.0,1.3793103448275863,4.642857142857143,0,281789.7954888071,384717.79927988193,402361.8567121777,112164.62605097903,-78754.45646075705,1.8785986365920473e-06,0.0,0.0,0.0,1.8785986365920473e-06,0.0,22.848412513171823,3.896816379872073,-0.0026292988577408883,0.0
2249,10.0,1.3793103448275863,5.0,0,198566.7340631494,413970.9721875584,188497.67887857807,265177.51785674464,-45170.79854819031,1.3237782270876627e-06,0.0,0.0,0.0,1.3237782270876627e-06,0.0,23.54185106069931,4.200073873062607,-0.0015064171303527754,0.0
2250,0.0,1.7241379310344829,0.0,0,267635.48962242587,411588.06635939894,431972.2562703921,154727.50937769783,-2694.8299939177396,1.7842365974828392e-06,0.0,0.0,0.0,1.7842365974828392e-06,0.0,23.817989824737012,-0.04992234871934774,-8.987085012223649e-05,0.0
2251,0.0,1.7241379310344829,0.35714285714285715,0,460194.0098306721,540190.0711542781,466067.6669755712,47433.873938679004,-8817.243695705702,3.0679600655378142e-06,0.0,0.0,0.0,3.0679600655378142e-06,0.0,22.854953906697848,0.25397907137413783,-0.00029437278624472644,0.0
2252,0.0,1.7241379310344829,0.7142857142857143,0,85292.24861933196,415887.4850006977,351893.22432283923,319057.3489874774,-6759.6566032358105,5.686149907955465e-07,0.0,0.0,0.0,5.686149907955465e-07,0.0,23.360290090912464,0.5588009984041468,-0.00022649339993869956,0.0
2253,0.0,1.7241379310344829,1.0714285714285714,0,505052.7090108554,656689.2091119182,228266.90204092802,99813.51994108573,13649.087069855823,3.367018060072369e-06,0.0,0.0,0.0,3.367018060072369e-06,0.0,22.68309816035599,0.8659403393828203,0.00046274892029355265,0.0
2254,0.0,1.7241379310344829,1.4285714285714286,0,286024.59722475166,585164.2461784257,341764.6948187016,270131.6899982171,-83288.24751903799,1.906830648165011e-06,0.0,0.0,0.0,1.906830648165011e-06,0.0,22.72760213524166,1.1770482448638897,-0.002932388519190162,0.0
2255,0.0,1.7241379310344829,1.7857142857142858,0,183082.67047001864,574837.4274098458,532868.2109555324,374414.2422849337,135981.8564431064,1.220551136466791e-06,0.0,0.0,0.0,1.220551136466791e-06,0.0,23.470816345670045,1.4920067637381913,0.005370943157861023,0.0
2256,0.0,1.7241379310344829,2.142857142857143,0,492639.29361442913,1114005.207181737,862230.503472956,546359.3267824068,394803.02975836344,3.2842619574295275e-06,0.0,0.0,0.0,3.2842619574295275e-06,0.0,23.67725202900418,1.8068360034669901,0.021163454081902983,0.0
2257,0.0,1.7241379310344829,2.5,0,462613.39334745135,1170003.27811014,947659.1740035766,638196.6147476711,696057.2504249571,3.0840892889830088e-06,0.0,0.0,0.0,3.0840892889830088e-06,0.0,22.570650761597218,2.1152243592297943,0.06960572504249571,0.0
2258,0.0,1.7241379310344829,2.857142857142857,0,552515.2962020572,641589.292668713,864677.7557515936,235497.73935101557,218018.5624830358,3.6834353080137142e-06,0.0,0.0,0.0,3.6834353080137142e-06,0.0,24.354332381316507,2.413978860609847,0.011686905845013924,0.0
2259,0.0,1.7241379310344829,3.2142857142857144,0,472138.5078705979,1018608.9291404738,526208.2106562933,569748.9539373546,60642.183459829,3.1475900524706527e-06,0.0,0.0,0.0,3.1475900524706527e-06,0.0,23.086300048696053,2.706292478023906,0.0023952145444314757,0.0
2260,0.0,1.7241379310344829,3.5714285714285716,0,263439.3748012399,614501.868963114,405682.53893290134,318529.76047338505,34357.05192060417,1.7562624986749325e-06,0.0,0.0,0.0,1.7562624986749325e-06,0.0,23.443174115339662,2.9984768162924613,0.001209633142805304,0.0
2261,0.0,1.7241379310344829,3.928571428571429,0,261339.0070581804,513027.2203088223,281813.8072273393,229481.9987735617,6860.249050174795,1.742260047054536e-06,0.0,0.0,0.0,1.742260047054536e-06,0.0,23.07714940813493,3.2945117679542495,0.00023258499448833758,0.0
2262,0.0,1.7241379310344829,4.285714285714286,0,351289.69760040654,464859.3583840833,284546.68613227445,60028.65595351163,7692.415070505311,2.3419313173360438e-06,0.0,0.0,0.0,2.3419313173360438e-06,0.0,23.206745701354187,3.5945152841184327,0.0002577470048144781,0.0
2263,0.0,1.7241379310344829,4.642857142857143,0,208864.44356678415,324563.3597739793,262305.0588506204,91648.9676293048,-15207.471430437807,1.392429623778561e-06,0.0,0.0,0.0,1.392429623778561e-06,0.0,24.11285110168697,3.896836214231281,-0.0005077171382815858,0.0
2264,0.0,1.7241379310344829,5.0,0,218629.05366321836,405077.2259051293,485877.4227189894,238348.9601225898,-2715.317316644177,1.4575270244214559e-06,0.0,0.0,0.0,1.4575270244214559e-06,0.0,24.111148323380043,4.200077651280653,-9.055408918158687e-05,0.0
2265,0.3448275862068966,1.7241379310344829,0.0,0,478119.180284954,511577.27114878735,434699.43778201245,-322.62556249975734,-48491.38159566044,3.1874612018996936e-06,0.0,0.0,0.0,3.1874612018996936e-06,0.0,22.548417489794904,-0.04991684118825477,-0.0016171564430556816,0.0
2266,0.3448275862068966,1.7241379310344829,0.35714285714285715,0,145914.3558599233,345871.5826778707,355201.10776066553,204845.8540494136,-208.67050860283086,9.727623723994886e-07,0.0,0.0,0.0,9.727623723994886e-07,0.0,23.096540722144503,0.25400798403844793,-6.9666804212791e-06,0.0
2267,0.3448275862068966,1.7241379310344829,0.7142857142857143,0,317243.13736685226,216881.23057537005,423995.6014338958,58768.89878057549,-21570.19221403771,2.1149542491123484e-06,0.0,0.0,0.0,2.1149542491123484e-06,0.0,24.8584280786989,0.5589186045076956,-0.000722744727823896,0.0
2268,0.3448275862068966,1.7241379310344829,1.0714285714285714,0,310367.46757344925,432079.99965190433,389130.6148590529,102474.6893555485,-50622.74903331261,2.0691164504896617e-06,0.0,0.0,0.0,2.0691164504896617e-06,0.0,23.171333330245528,0.8663110049124959,-0.0017162776043236382,0.0
2269,0.3448275862068966,1.7241379310344829,1.4285714285714286,0,401806.5863510128,511101.40541421063,387280.5616974142,61957.42117904815,46311.33868340214,2.678710575673419e-06,0.0,0.0,0.0,2.678710575673419e-06,0.0,23.603918136218425,1.1779534460839314,0.0016305162121762007,0.0
2270,0.3448275862068966,1.7241379310344829,1.7857142857142858,0,455594.90056588734,773936.5618599978,300563.17760045856,338491.36619479774,-39305.40852994348,3.0372993371059157e-06,0.0,0.0,0.0,3.0372993371059157e-06,0.0,23.965505622238087,1.4937196110572373,-0.0015524653106876623,0.0
2271,0.3448275862068966,1.7241379310344829,2.142857142857143,0,570162.0911390819,1279056.9480572578,722940.255998471,695817.5430116057,479591.2940195004,3.801080607593879e-06,0.0,0.0,0.0,3.801080607593879e-06,0.0,23.828672707580644,1.809347327571829,0.02570853707803167,0.0
2272,0.3448275862068966,1.7241379310344829,2.5,0,779398.1056557749,1481080.6564215699,831481.361514995,616858.1932267983,835057.4213161077,5.195987371038499e-06,0.0,0.0,0.0,5.195987371038499e-06,0.0,21.99800420552157,2.1180773309682097,0.08350574213161077,0.0
2273,0.3448275862068966,1.7241379310344829,2.857142857142857,0,635781.8830909145,1174171.9764229099,528484.2092315024,548782.0908024556,362199.72120887524,4.238545887272763e-06,0.0,0.0,0.0,4.238545887272763e-06,0.0,23.5784989638305,2.4164901847146862,0.01941575061613293,0.0
2274,0.3448275862068966,1.7241379310344829,3.2142857142857144,0,618900.8754637628,933675.2119671075,303488.15095014573,326714.4261097005,157013.97905888263,4.1260058364250856e-06,0.0,0.0,0.0,4.1260058364250856e-06,0.0,24.29090591049602,2.7080053253429517,0.00620165938731447,0.0
2275,0.3448275862068966,1.7241379310344829,3.5714285714285716,0,120303.02626253272,366214.6253714849,420045.82771423133,282227.2537753333,-22231.500957679928,8.020201750835515e-07,0.0,0.0,0.0,8.020201750835515e-07,0.0,23.43568551302389,2.9993820175125028,-0.0007827202530316692,0.0
2276,0.3448275862068966,1.7241379310344829,3.928571428571429,0,238585.45665596428,498318.1508662556,346224.28844483715,223340.04339592636,-27373.233609599025,1.5905697110397618e-06,0.0,0.0,0.0,1.5905697110397618e-06,0.0,22.90513123678755,3.294882433483925,-0.0009280426033591811,0.0
2277,0.3448275862068966,1.7241379310344829,4.285714285714286,0,482700.0018744734,494398.91180124664,204963.7486226828,-62835.04103463831,-52730.93840777254,3.2180000124964896e-06,0.0,0.0,0.0,3.2180000124964896e-06,0.0,22.91939957588406,3.5946328902219813,-0.0017668367230692474,0.0
2278,0.3448275862068966,1.7241379310344829,4.642857142857143,0,82291.5259381829,329374.7824605541,241232.06839848025,254561.89473302703,-369.72171611316264,5.486101729212192e-07,0.0,0.0,0.0,5.486101729212192e-07,0.0,23.335656815628433,3.896865126895591,-1.2343541299694406e-05,0.0
2279,0.3448275862068966,1.7241379310344829,5.0,0,142548.49399254506,306251.1209915488,408193.2312508455,245302.88485979885,-41975.85707225299,9.503232932836338e-07,0.0,0.0,0.0,9.503232932836338e-07,0.0,23.777536702532228,4.200083158811745,-0.001399867883394214,0.0
2280,0.6896551724137931,1.7241379310344829,0.0,0,196511.90490760238,365240.2951217763,225142.8936270162,140606.77189422338,-33984.15278902575,1.3100793660506825e-06,0.0,0.0,0.0,1.3100793660506825e-06,0.0,24.897988777432463,-0.04991146749922844,-0.0011333496765016887,0.0
2281,0.6896551724137931,1.7241379310344829,0.35714285714285715,0,345267.1557001925,372560.41153359704,315225.8647134662,2214.9692116173055,-2806.9137189798575,2.3017810380012834e-06,0.0,0.0,0.0,2.3017810380012834e-06,0.0,23.313011148273905,0.25403619407744765,-9.3711713174841e-05,0.0
2282,0.6896551724137931,1.7241379310344829,0.7142857142857143,0,268555.7170209304,495645.953960601,285169.19423999824,193184.79813929967,-1006.5436992796418,1.7903714468062026e-06,0.0,0.0,0.0,1.7903714468062026e-06,0.0,23.743624288170672,0.5590333525894406,-3.372590029611733e-05,0.0
2283,0.6896551724137931,1.7241379310344829,1.0714285714285714,0,168444.4713714349,389230.5815954817,355583.8501376312,206502.2339273313,56019.462952341826,1.1229631424762326e-06,0.0,0.0,0.0,1.1229631424762326e-06,0.0,22.69508427829005,0.8666726626599758,0.0018992439467890858,0.0
2284,0.6896551724137931,1.7241379310344829,1.4285714285714286,0,231816.99234341504,427386.1228580781,272697.3792488455,160852.26300088852,54496.96783133866,1.5454466156227669e-06,0.0,0.0,0.0,1.5454466156227669e-06,0.0,22.62963255622143,1.178836649425075,0.0019187134747043948,0.0
2285,0.6896551724137931,1.7241379310344829,1.7857142857142858,0,285238.7401880607,648379.7465139243,530433.7139302418,323084.20216184057,118521.7971289661,1.9015916012537379e-06,0.0,0.0,0.0,1.9015916012537379e-06,0.0,23.228389890205456,1.4953908333684272,0.004681314492963623,0.0
2286,0.6896551724137931,1.7241379310344829,2.142857142857143,0,612178.1721516191,1339402.8326393915,803103.8872585589,672443.009849517,396773.01356927777,4.0811878143441275e-06,0.0,0.0,0.0,4.0811878143441275e-06,0.0,23.704298828881562,1.8117976223692516,0.02126905525206091,0.0
2287,0.6896551724137931,1.7241379310344829,2.5,0,286234.60871129436,1291203.7278097742,960778.3142323695,1132664.5336462639,691055.1221983217,1.9082307247419626e-06,0.0,0.0,0.0,1.9082307247419626e-06,0.0,23.443151747473873,2.120860970799629,0.06910551221983217,0.0
2288,0.6896551724137931,1.7241379310344829,2.857142857142857,0,507330.35075092386,1055288.9076269274,783479.2812801648,469969.21924136486,409902.65286810545,3.3822023383394923e-06,0.0,0.0,0.0,3.3822023383394923e-06,0.0,23.5176796724165,2.4189404795121083,0.02197287081949147,0.0
2289,0.6896551724137931,1.7241379310344829,3.2142857142857144,0,328864.73017110815,722495.1622015545,568039.827845695,344835.0183882242,36722.058898727446,2.1924315344740545e-06,0.0,0.0,0.0,2.1924315344740545e-06,0.0,23.358538748616773,2.709676547654142,0.0014504294627512297,0.0
2290,0.6896551724137931,1.7241379310344829,3.5714285714285716,0,499589.080520009,648978.1495719455,587062.803217415,121317.22817782301,-29665.318321568957,3.3305938701333932e-06,0.0,0.0,0.0,3.3305938701333932e-06,0.0,23.486648572361986,3.0002652208536467,-0.0010444479438039102,0.0
2291,0.6896551724137931,1.7241379310344829,3.928571428571429,0,353187.40265240445,377281.2663269471,537969.0624334634,133008.5974444208,-3212.2181548747967,2.354582684349363e-06,0.0,0.0,0.0,2.354582684349363e-06,0.0,23.358335734751062,3.295244091231405,-0.00010890475497064592,0.0
2292,0.6896551724137931,1.7241379310344829,4.285714285714286,0,348580.92701651587,544068.8188070211,246450.99387759177,160576.32065106084,-37829.50944874769,2.3238728467767723e-06,0.0,0.0,0.0,2.3238728467767723e-06,0.0,22.835168155057524,3.5947476383037267,-0.0012675398642230593,0.0
2293,0.6896551724137931,1.7241379310344829,4.642857142857143,0,299617.4412822716,447445.70443607884,101482.0991693066,272883.08124101005,-35076.23584365946,1.9974496085484772e-06,0.0,0.0,0.0,1.9974496085484772e-06,0.0,22.768971347098528,3.896893336934591,-0.0011710563564557078,0.0
2294,0.6896551724137931,1.7241379310344829,5.0,0,151970.7188871847,415511.4729853275,351626.6014186284,242027.022987938,40991.273075518824,1.0131381259145646e-06,0.0,0.0,0.0,1.0131381259145646e-06,0.0,24.199159437851293,4.2000885325007715,0.001367032639240423,0.0
2295,1.0344827586206897,1.7241379310344829,0.0,0,312184.4802854368,633037.4366074762,311100.7549755589,331617.219705933,-58218.910694939776,2.0812298685695784e-06,0.0,0.0,0.0,2.0812298685695784e-06,0.0,23.11878962065246,-0.049906249384656744,-0.0019415632931034227,0.0
2296,1.0344827586206897,1.7241379310344829,0.35714285714285715,0,319146.3521898682,332949.64182771154,385004.67932603636,43030.80608075796,-43884.57235641512,2.1276423479324547e-06,0.0,0.0,0.0,2.1276423479324547e-06,0.0,23.414862651455575,0.25406358740349455,-0.0014651317671993042,0.0
2297,1.0344827586206897,1.7241379310344829,0.7142857142857143,0,306300.1031693983,393454.76057013765,320508.1056504267,57266.831608115564,53916.992818077415,2.0420006877959888e-06,0.0,0.0,0.0,2.0420006877959888e-06,0.0,24.13484519660851,0.5591447785827378,0.0018065774246566102,0.0
2298,1.0344827586206897,1.7241379310344829,1.0714285714285714,0,51427.31874426637,328695.3546392974,310464.5616776106,270636.1357268595,-16826.198769176895,3.428487916284425e-07,0.0,0.0,0.0,3.428487916284425e-07,0.0,23.409793861079887,0.8670238500012687,-0.0005704634510155235,0.0
2299,1.0344827586206897,1.7241379310344829,1.4285714285714286,0,219943.6577560677,603496.1784892274,469306.2223703471,349666.08229522756,76126.97153807181,1.466291051707118e-06,0.0,0.0,0.0,1.466291051707118e-06,0.0,23.98808183136853,1.179694283017494,0.002680256386568001,0.0
2300,1.0344827586206897,1.7241379310344829,1.7857142857142858,0,588605.5537352759,971495.3669552302,692587.44126113,295278.6309702031,-8278.173694572732,3.924037024901839e-06,0.0,0.0,0.0,3.924037024901839e-06,0.0,23.110058258912446,1.497013671878776,-0.00032696715229103276,0.0
2301,1.0344827586206897,1.7241379310344829,2.142857142857143,0,1702402.3728684802,1435219.6118381675,454765.4525380927,-530543.3265024066,413721.6195161154,1.1349349152456534e-05,0.0,0.0,0.0,1.1349349152456534e-05,0.0,24.336503245335415,1.8141769783246733,0.022177586891059982,0.0
2302,1.0344827586206897,1.7241379310344829,2.5,0,1121566.0949072351,1575796.0792574936,679388.860210634,318116.6649838712,828138.7016217295,7.4771072993815674e-06,0.0,0.0,0.0,7.4771072993815674e-06,0.0,23.677053069502822,2.1235640210683577,0.08281387016217295,0.0
2303,1.0344827586206897,1.7241379310344829,2.857142857142857,0,461234.35234192293,1033365.6796335396,730401.1927952928,502546.4915775915,308310.9739123235,3.0748956822794863e-06,0.0,0.0,0.0,3.0748956822794863e-06,0.0,23.554857922180474,2.4213198354675303,0.016527039175291493,0.0
2304,1.0344827586206897,1.7241379310344829,3.2142857142857144,0,457008.4740761204,673122.9992130802,522614.25332647894,159842.27610792464,198076.9171105344,3.0467231605074694e-06,0.0,0.0,0.0,3.0467231605074694e-06,0.0,23.4906068159073,2.7112993861644905,0.007823542717481131,0.0
2305,1.0344827586206897,1.7241379310344829,3.5714285714285716,0,113279.18295090436,337496.70826679823,331939.39497079793,221541.1525107114,-13415.897258404922,7.551945530060291e-07,0.0,0.0,0.0,7.551945530060291e-07,0.0,23.960270668265903,3.0011228544460655,-0.0004723430287831294,0.0
2306,1.0344827586206897,1.7241379310344829,3.928571428571429,0,272168.310373479,613833.2419792815,343233.4499091767,340123.07331149996,22486.930911850053,1.8144554024898599e-06,0.0,0.0,0.0,1.8144554024898599e-06,0.0,23.700598939248056,3.295595278572698,0.00076238087916925,0.0
2307,1.0344827586206897,1.7241379310344829,4.285714285714286,0,149870.37482218767,463118.79673913517,380734.8667863999,290128.5187481461,-28703.276073810346,9.991358321479178e-07,0.0,0.0,0.0,9.991358321479178e-07,0.0,21.98854235884468,3.5948590642970237,-0.0009617504214969131,0.0
2308,1.0344827586206897,1.7241379310344829,4.642857142857143,0,181282.3273049433,380530.9707329347,440857.0978888,237102.9890928684,62954.7842350519,1.208548848699622e-06,0.0,0.0,0.0,1.208548848699622e-06,0.0,23.367934687537176,3.896920730260638,0.002101810484350524,0.0
2309,1.0344827586206897,1.7241379310344829,5.0,0,321070.9225593834,534055.4661155415,344239.2877262066,163350.52935117338,12801.000139532585,2.140472817062556e-06,0.0,0.0,0.0,2.140472817062556e-06,0.0,23.757677944756978,4.200093750615343,0.0004269051359644985,0.0
2310,1.3793103448275863,1.7241379310344829,0.0,0,181679.58110996863,334514.1275136975,219923.0199439712,125037.33723184951,87103.14566394482,1.2111972073997907e-06,0.0,0.0,0.0,1.2111972073997907e-06,0.0,23.120841945333403,-0.04990121268581896,0.002904833984632676,0.0
2311,1.3793103448275863,1.7241379310344829,0.35714285714285715,0,199989.39664126837,449178.964430839,278534.0025175934,229112.3500243373,48978.35704262777,1.3332626442751225e-06,0.0,0.0,0.0,1.3332626442751225e-06,0.0,23.357758463871285,0.2540900283586648,0.0016351930292398931,0.0
2312,1.3793103448275863,1.7241379310344829,0.7142857142857143,0,202242.70348744717,402335.48717142286,285426.03473680763,168805.78826386947,34886.920942848774,1.3482846899163144e-06,0.0,0.0,0.0,1.3482846899163144e-06,0.0,23.420410818408826,0.5592523306809578,0.0011689436019510166,0.0
2313,1.3793103448275863,1.7241379310344829,1.0714285714285714,0,266520.552275359,484173.5461563517,344723.15993870277,176859.63883118704,-40731.12509845496,1.7768036818357265e-06,0.0,0.0,0.0,1.7768036818357265e-06,0.0,24.416638586731054,0.8673628277775193,-0.0013809190362099987,0.0
2314,1.3793103448275863,1.7241379310344829,1.4285714285714286,0,405744.5022483972,492585.9452820802,387984.4947287745,44782.37107585531,10455.268340626706,2.704963348322648e-06,0.0,0.0,0.0,2.704963348322648e-06,0.0,23.922790557432585,1.1805220996663677,0.0003681060625041742,0.0
2315,1.3793103448275863,1.7241379310344829,1.7857142857142858,0,528292.5940250158,507310.1413152462,793382.7273835457,183747.11852603703,52651.819023673655,3.521950626833439e-06,0.0,0.0,0.0,3.521950626833439e-06,0.0,23.79314195380322,1.4985800899262678,0.0020796151378654967,0.0
2316,1.3793103448275863,1.7241379310344829,2.142857142857143,0,464752.74296687794,1074915.612620378,643496.7636864226,582794.4577879675,402156.7652648133,3.0983516197791862e-06,0.0,0.0,0.0,3.0983516197791862e-06,0.0,23.05046157078444,1.8164736123312073,0.02155765177541223,0.0
2317,1.3793103448275863,1.7241379310344829,2.5,0,1116072.607254702,1507298.5710575231,968029.4996088715,224002.4961109134,737309.6719803432,7.440484048364679e-06,0.0,0.0,0.0,7.440484048364679e-06,0.0,23.295744498287668,2.1261730956603233,0.07373096719803432,0.0
2318,1.3793103448275863,1.7241379310344829,2.857142857142857,0,685920.5907277656,1052722.390520149,1239922.3707298804,479835.9348952954,304003.7882374842,4.572803938185104e-06,0.0,0.0,0.0,4.572803938185104e-06,0.0,24.06795514143164,2.423616469474064,0.01629615207620443,0.0
2319,1.3793103448275863,1.7241379310344829,3.2142857142857144,0,449083.52316692076,825504.351153489,416645.2683035298,344847.1888099417,64095.35809413195,2.9938901544461385e-06,0.0,0.0,0.0,2.9938901544461385e-06,0.0,23.977612363519864,2.7128658042119826,0.002531606304039262,0.0
2320,1.3793103448275863,1.7241379310344829,3.5714285714285716,0,135275.03482560694,394600.5499833179,363734.58218210354,246559.8586489421,1462.4126664402093,9.018335655040463e-07,0.0,0.0,0.0,9.018335655040463e-07,0.0,22.942033577502034,3.001950671094939,5.148820201082163e-05,0.0
2321,1.3793103448275863,1.7241379310344829,3.928571428571429,0,207457.91481766367,427077.64421329065,219399.20267367657,219840.96162622812,-43097.23552863481,1.383052765451091e-06,0.0,0.0,0.0,1.383052765451091e-06,0.0,24.356732515716942,3.2959342563489487,-0.0014611379579047082,0.0
2322,1.3793103448275863,1.7241379310344829,4.285714285714286,0,126329.27360785895,364673.60114599165,298547.74326319643,219006.88203864286,33361.05934159564,8.421951573857264e-07,0.0,0.0,0.0,8.421951573857264e-07,0.0,23.231442704970544,3.5949666163952436,0.0011178171021613238,0.0
2323,1.3793103448275863,1.7241379310344829,4.642857142857143,0,322155.27983521594,477455.7729433078,225957.95251515685,114334.45686531678,9242.024023798182,2.1477018655681064e-06,0.0,0.0,0.0,2.1477018655681064e-06,0.0,23.845652891723272,3.896947171215808,0.0003085545161637297,0.0
2324,1.3793103448275863,1.7241379310344829,5.0,0,355297.37979178905,417930.6169324143,377670.7728017548,44218.19134090321,33775.612429991925,2.368649198611927e-06,0.0,0.0,0.0,2.368649198611927e-06,0.0,25.03798657415761,4.2000987873141815,0.0011263949894181006,0.0
2325,1.7241379310344829,1.7241379310344829,0.0,0,323732.38059529074,465234.58010553924,298213.8640751236,92102.54721358878,19918.10021339877,2.1582158706352714e-06,0.0,0.0,0.0,2.1582158706352714e-06,0.0,23.467162870621507,-0.04989638805878906,0.0006642558540012635,0.0
2326,1.7241379310344829,1.7241379310344829,0.35714285714285715,0,281598.8155291952,497844.8791139374,209729.8083682337,223249.33236376927,-70068.95594852934,1.8773254368613012e-06,0.0,0.0,0.0,1.8773254368613012e-06,0.0,23.764853477127584,0.2541153560090007,-0.0023393244537262066,0.0
2327,1.7241379310344829,1.7241379310344829,0.7142857142857143,0,359026.6525004431,466938.9709669281,356099.0933367148,65562.34649469555,-34176.346537395395,2.393511016669621e-06,0.0,0.0,0.0,2.393511016669621e-06,0.0,23.406426401260287,0.5593553542638455,-0.001145134639092827,0.0
2328,1.7241379310344829,1.7241379310344829,1.0714285714285714,0,319328.4885678651,445695.2575795503,311013.2502118325,81089.63898233067,70137.33160021645,2.128856590452434e-06,0.0,0.0,0.0,2.128856590452434e-06,0.0,23.778183385009704,0.8676875327865949,0.0023778861036025225,0.0
2329,1.7241379310344829,1.7241379310344829,1.4285714285714286,0,323810.8462608351,393070.1392960474,437372.0472171292,93691.20370964087,44730.49974423874,2.1587389750722343e-06,0.0,0.0,0.0,2.1587389750722343e-06,0.0,24.407854432295586,1.1813150608317238,0.001574858492221991,0.0
2330,1.7241379310344829,1.7241379310344829,1.7857142857142858,0,590992.3688467279,703126.2595374077,330982.4662721986,21671.957196139563,-39978.98228951162,3.9399491256448525e-06,0.0,0.0,0.0,3.9399491256448525e-06,0.0,23.602754519611384,1.5000805534432362,-0.0015790697891813123,0.0
2331,1.7241379310344829,1.7241379310344829,2.142857142857143,0,699423.5886416151,931199.6961770612,806519.1466767447,177820.76347748007,442117.34012457327,4.662823924277434e-06,0.0,0.0,0.0,4.662823924277434e-06,0.0,23.557607483461027,1.8186735458318144,0.023699742203767315,0.0
2332,1.7241379310344829,1.7241379310344829,2.5,0,368238.0640842793,1142034.2312636222,1048189.3333130409,735954.2636603324,605620.6683626974,2.4549204272285287e-06,0.0,0.0,0.0,2.4549204272285287e-06,0.0,24.261270974073607,2.128672314336054,0.06056206683626973,0.0
2333,1.7241379310344829,1.7241379310344829,2.857142857142857,0,603934.5128852279,964253.3163067622,641371.8217258947,267511.2041788787,174603.0270672793,4.0262300859015195e-06,0.0,0.0,0.0,4.0262300859015195e-06,0.0,23.082615388252783,2.425816402974671,0.009359611926385807,0.0
2334,1.7241379310344829,1.7241379310344829,3.2142857142857144,0,459504.7738158194,565639.1653955359,315316.50738101563,35325.319028533166,190693.98344428715,3.0633651587721296e-06,0.0,0.0,0.0,3.0633651587721296e-06,0.0,23.760524647308024,2.7143662677289506,0.007531935306780254,0.0
2335,1.7241379310344829,1.7241379310344829,3.5714285714285716,0,176662.5255176483,298861.26447949157,339695.88377755776,146191.75105305127,9872.734857371797,1.1777501701176553e-06,0.0,0.0,0.0,1.1777501701176553e-06,0.0,23.359853529349287,3.0027436322602954,0.0003475963921818387,0.0
2336,1.7241379310344829,1.7241379310344829,3.928571428571429,0,173134.25413311197,366137.8222262411,399630.42552253674,212196.82470553828,9440.590626690111,1.1542283608874132e-06,0.0,0.0,0.0,1.1542283608874132e-06,0.0,23.609446264834236,3.296258961358024,0.0003200670562855768,0.0
2337,1.7241379310344829,1.7241379310344829,4.285714285714286,0,390987.6586840403,426063.5573371212,379510.1726936962,13883.360239598573,-51546.867570449744,2.6065843912269354e-06,0.0,0.0,0.0,2.6065843912269354e-06,0.0,23.289497067078575,3.5950696399781314,-0.0017271624843534636,0.0
2338,1.7241379310344829,1.7241379310344829,4.642857142857143,0,52954.36857116901,298641.23456871987,251189.04605224778,241517.7975341624,-47150.97386978487,3.5302912380779343e-07,0.0,0.0,0.0,3.5302912380779343e-07,0.0,23.023498910478914,3.896972498866144,-0.001574183954897479,0.0
2339,1.7241379310344829,1.7241379310344829,5.0,0,318997.17763551924,410094.65816443064,181260.450181251,45706.799319477635,-65068.10825289649,2.1266478509034617e-06,0.0,0.0,0.0,2.1266478509034617e-06,0.0,22.638389933302676,4.200103611941211,-0.0021699796342373734,0.0
2340,2.0689655172413794,1.7241379310344829,0.0,0,380897.12943450664,554899.9187276948,246785.77977754074,129030.6323717329,56974.58903690711,2.5393141962300442e-06,0.0,0.0,0.0,2.5393141962300442e-06,0.0,23.51772224133746,-0.049891811683883444,0.0019000659647059716,0.0
2341,2.0689655172413794,1.7241379310344829,0.35714285714285715,0,314918.19713162235,484452.91919477243,243834.6441270656,128028.12109980256,-66088.9302669768,2.099454647544149e-06,0.0,0.0,0.0,2.099454647544149e-06,0.0,23.862792762383187,0.25413938042015144,-0.0022064471862219865,0.0
2342,2.0689655172413794,1.7241379310344829,0.7142857142857143,0,363801.40308467817,536066.3723744161,318438.2016715859,116077.18298383577,65234.701834857224,2.4253426872311877e-06,0.0,0.0,0.0,2.4253426872311877e-06,0.0,24.16017338057961,0.5594530767481931,0.0021857958591404354,0.0
2343,2.0689655172413794,1.7241379310344829,1.0714285714285714,0,249802.56676515797,448171.977901915,282230.9591148426,160875.7332829976,-40749.12809329594,1.6653504451010532e-06,0.0,0.0,0.0,1.6653504451010532e-06,0.0,23.090553687521762,0.8679955300361334,-0.0013815293969163284,0.0
2344,2.0689655172413794,1.7241379310344829,1.4285714285714286,0,328945.7589169085,595827.345044924,265355.1172567191,268429.6071303815,-53239.36723825203,2.1929717261127237e-06,0.0,0.0,0.0,2.1929717261127237e-06,0.0,23.839175076778233,1.1820672200257434,-0.0018744362369098185,0.0
2345,2.0689655172413794,1.7241379310344829,1.7857142857142858,0,345581.20232436515,591754.0460395335,637176.9939540176,271130.50248177996,69055.49297953665,2.303874682162434e-06,0.0,0.0,0.0,2.303874682162434e-06,0.0,24.047385619782684,1.5015038103174514,0.0027275192237601244,0.0
2346,2.0689655172413794,1.7241379310344829,2.142857142857143,0,548754.3668744258,893067.2950287418,746418.5637771968,285887.1741839345,316514.24278226384,3.6583624458295053e-06,0.0,0.0,0.0,3.6583624458295053e-06,0.0,23.952592212777382,1.8207602813253116,0.016966776185812268,0.0
2347,2.0689655172413794,1.7241379310344829,2.5,0,382493.9672424062,545431.636093937,949417.6525257122,592834.5124367841,707741.5003015604,2.5499597816160414e-06,0.0,0.0,0.0,2.5499597816160414e-06,0.0,23.90610331445276,2.1310429352276485,0.07077415003015604,0.0
2348,2.0689655172413794,1.7241379310344829,2.857142857142857,0,863545.2643487013,1268382.8728237194,363941.98678444064,452568.6505332683,296733.6808240487,5.756968428991342e-06,0.0,0.0,0.0,5.756968428991342e-06,0.0,22.700798225494793,2.4279031384681686,0.015906437274600924,0.0
2349,2.0689655172413794,1.7241379310344829,3.2142857142857144,0,739238.9704167224,905105.5319969794,148869.3556312459,184125.38766094597,51195.73838961091,4.928259802778149e-06,0.0,0.0,0.0,4.928259802778149e-06,0.0,23.726900582659354,2.715789524603166,0.0020221035953452244,0.0
2350,2.0689655172413794,1.7241379310344829,3.5714285714285716,0,231327.3438759582,429596.169578069,199248.42547289806,197301.51536471656,-30561.44272720121,1.542182292506388e-06,0.0,0.0,0.0,1.542182292506388e-06,0.0,23.75029324212543,3.003495791454315,-0.0010759984325837526,0.0
2351,2.0689655172413794,1.7241379310344829,3.928571428571429,0,251869.8046752763,394545.6126283057,251011.63541768424,103719.50746598555,36063.84300828309,1.6791320311685087e-06,0.0,0.0,0.0,1.6791320311685087e-06,0.0,24.068858502603806,3.2965669586075625,0.0012226828306030777,0.0
2352,2.0689655172413794,1.7241379310344829,4.285714285714286,0,244535.00531785848,342620.23202389554,328920.5583902691,91523.37264067688,20687.36931091712,1.6302333687857232e-06,0.0,0.0,0.0,1.6302333687857232e-06,0.0,24.494649109199482,3.595167362462479,0.0006931642960641201,0.0
2353,2.0689655172413794,1.7241379310344829,4.642857142857143,0,296655.28997402027,432943.34066205274,93121.63653003902,225679.20065267148,9962.460792391847,1.9777019331601352e-06,0.0,0.0,0.0,1.9777019331601352e-06,0.0,23.676071359312196,3.8969965232772945,0.0003326070416697847,0.0
2354,2.0689655172413794,1.7241379310344829,5.0,0,264237.5387423279,492549.61729126726,409552.64677176444,196777.45261494347,42361.64061038493,1.7615835916155192e-06,0.0,0.0,0.0,1.7615835916155192e-06,0.0,23.637894921977626,4.200108188316117,0.0014127335167044169,0.0
2355,2.413793103448276,1.7241379310344829,0.0,0,61633.7810842109,257230.07721500017,289872.2394986396,218782.6464012916,10391.917628924317,4.1089187389473934e-07,0.0,0.0,0.0,4.1089187389473934e-07,0.0,23.87278063691524,-0.049887525873688505,0.0003465637809507745,0.0
2356,2.413793103448276,1.7241379310344829,0.35714285714285715,0,200990.13785726222,427279.1839547172,383903.59121434967,208142.7765949962,7061.530134313773,1.339934252381748e-06,0.0,0.0,0.0,1.339934252381748e-06,0.0,23.823141110689612,0.2541618794654353,0.00023575647589296544,0.0
2357,2.413793103448276,1.7241379310344829,0.7142857142857143,0,248937.74690089616,374275.97230755555,207135.4226803608,88176.61480499206,-4747.027753272619,1.6595849793393078e-06,0.0,0.0,0.0,1.6595849793393078e-06,0.0,24.03321758462208,0.5595445946042105,-0.00015905696377052696,0.0
2358,2.413793103448276,1.7241379310344829,1.0714285714285714,0,149390.56884736713,417445.0017297002,326865.32448424544,245017.31031276414,-28974.76447713354,9.959371256491141e-07,0.0,0.0,0.0,9.959371256491141e-07,0.0,24.08626050533632,0.8682839718223316,-0.000982339764478853,0.0
2359,2.413793103448276,1.7241379310344829,1.4285714285714286,0,308646.68779458344,517902.6193545342,340132.69889316696,161508.46410256455,-27908.451258916182,2.057644585297223e-06,0.0,0.0,0.0,2.057644585297223e-06,0.0,23.73839709290308,1.1827716228791898,-0.0009825926766116365,0.0
2360,2.413793103448276,1.7241379310344829,1.7857142857142858,0,229752.19501236847,653931.4344460511,586780.879340186,398085.66104463214,81574.17266418823,1.5316813000824563e-06,0.0,0.0,0.0,1.5316813000824563e-06,0.0,24.0808097474102,1.502836701294994,0.003221975754627275,0.0
2361,2.413793103448276,1.7241379310344829,2.142857142857143,0,527429.7229960097,985900.7681575537,657656.4320120955,377510.826618227,482188.52414405224,3.5161981533067317e-06,0.0,0.0,0.0,3.5161981533067317e-06,0.0,23.726538138024583,1.8227145251179746,0.02584776184668335,0.0
2362,2.413793103448276,1.7241379310344829,2.5,0,517215.6946809528,1133902.2700086515,941312.210284485,548021.8272757577,751061.985808552,3.448104631206352e-06,0.0,0.0,0.0,3.448104631206352e-06,0.0,23.115434929518592,2.1332630398727237,0.0751061985808552,0.0
2363,2.413793103448276,1.7241379310344829,2.857142857142857,0,638803.0443194764,1202132.8987691237,926659.5289540922,471812.7629250381,436553.3218380586,4.258686962129842e-06,0.0,0.0,0.0,4.258686962129842e-06,0.0,23.267284681800575,2.4298573822608316,0.023401482472605695,0.0
2364,2.413793103448276,1.7241379310344829,3.2142857142857144,0,351704.31358538056,736418.6519811283,387159.96442380495,382318.6948172505,-3587.0582869955833,2.344695423902537e-06,0.0,0.0,0.0,2.344695423902537e-06,0.0,22.68263975636588,2.7171224155807083,-0.0001416798289663613,0.0
2365,2.413793103448276,1.7241379310344829,3.5714285714285716,0,408941.4896537137,495284.2754405096,355032.09742973896,34671.13558372314,30763.567534223395,2.7262765976914247e-06,0.0,0.0,0.0,2.7262765976914247e-06,0.0,24.686218223038644,3.0042001943077614,0.001083114784304563,0.0
2366,2.413793103448276,1.7241379310344829,3.928571428571429,0,236748.19707403722,304430.37362507207,131610.9808053342,34581.853852017535,-16033.551567978733,1.5783213138269148e-06,0.0,0.0,0.0,1.5783213138269148e-06,0.0,24.50222633433569,3.296855400393761,-0.0005435901052268348,0.0
2367,2.413793103448276,1.7241379310344829,4.285714285714286,0,140861.934825406,366200.7966531434,333005.84409266454,211706.0541703516,6968.20656485598,9.390795655027067e-07,0.0,0.0,0.0,9.390795655027067e-07,0.0,24.381685531080684,3.595258880318496,0.00023348120902974516,0.0
2368,2.413793103448276,1.7241379310344829,4.642857142857143,0,264016.0176450572,465922.39304905076,430851.32534860313,186123.6846376276,21801.247677487343,1.7601067843003811e-06,0.0,0.0,0.0,1.7601067843003811e-06,0.0,23.760875209952122,3.8970190223225787,0.0007278571676043111,0.0
2369,2.413793103448276,1.7241379310344829,5.0,0,269809.67780555855,397837.3844567559,178126.5803156835,96689.96962744872,-45654.04441760401,1.7987311853703903e-06,0.0,0.0,0.0,1.7987311853703903e-06,0.0,24.36214209101874,4.200112474126311,-0.0015225330698370064,0.0
2370,2.7586206896551726,1.7241379310344829,0.0,0,225741.67042003074,438008.4813454839,263803.44832928386,182981.11075707132,6090.978114900533,1.5049444694668717e-06,0.0,0.0,0.0,1.5049444694668717e-06,0.0,24.314817960894388,-0.04988357939967609,0.00020313020951137517,0.0
2371,2.7586206896551726,1.7241379310344829,0.35714285714285715,0,417465.70155722863,523784.74380245723,339085.978660328,45828.843401495855,9144.39302514562,2.7831046770481907e-06,0.0,0.0,0.0,2.7831046770481907e-06,0.0,23.143572830525475,0.2541825971112195,0.0003052950044513329,0.0
2372,2.7586206896551726,1.7241379310344829,0.7142857142857143,0,172671.40785609797,468931.0346124749,274234.0252869337,408801.08729378355,38780.167150227804,1.151142719040653e-06,0.0,0.0,0.0,1.151142719040653e-06,0.0,23.482277786755855,0.5596288663810778,0.001299393212347736,0.0
2373,2.7586206896551726,1.7241379310344829,1.0714285714285714,0,130709.8824115795,407479.35325538466,293227.16786644375,264943.0623382356,-20419.994951325476,8.713992160771966e-07,0.0,0.0,0.0,8.713992160771966e-07,0.0,24.14887158495083,0.8685495757482053,-0.000692304955471683,0.0
2374,2.7586206896551726,1.7241379310344829,1.4285714285714286,0,155935.5186353473,417363.6283499135,289057.83541720215,243807.33341255103,2997.7542207428464,1.0395701242356488e-06,0.0,0.0,0.0,1.0395701242356488e-06,0.0,23.640318530969452,1.183420253459862,0.00010554406320352491,0.0
2375,2.7586206896551726,1.7241379310344829,1.7857142857142858,0,116148.63850094366,325829.00205398916,409122.1650046698,276441.562526869,81464.32219113101,7.743242566729578e-07,0.0,0.0,0.0,7.743242566729578e-07,0.0,23.53597930965148,1.5040640584025158,0.0032176369357429973,0.0
2376,2.7586206896551726,1.7241379310344829,2.142857142857143,0,592726.9000247614,953401.7247136107,673532.8929829194,272560.42612052883,321130.20167771383,3.951512666831743e-06,0.0,0.0,0.0,3.951512666831743e-06,0.0,24.306142289661487,1.8245140383933798,0.017214215102852995,0.0
2377,2.7586206896551726,1.7241379310344829,2.5,0,825600.2049835298,1085194.5541233239,822296.2805014022,160159.20790357652,607718.9618959547,5.504001366556865e-06,0.0,0.0,0.0,5.504001366556865e-06,0.0,23.48491329208414,2.135307364023375,0.06077189618959546,0.0
2378,2.7586206896551726,1.7241379310344829,2.857142857142857,0,653000.3433344726,1063657.668111418,457511.17682027014,372191.230305487,315520.56519117596,4.353335622229817e-06,0.0,0.0,0.0,4.353335622229817e-06,0.0,25.14460478031474,2.4316568955362365,0.01691351000372629,0.0
2379,2.7586206896551726,1.7241379310344829,3.2142857142857144,0,431450.3606845346,645424.1709573476,457352.2633406754,151862.08294890134,61640.67062161949,2.876335737896897e-06,0.0,0.0,0.0,2.876335737896897e-06,0.0,24.70567467178218,2.71834977268823,0.0024346522895109047,0.0
2380,2.7586206896551726,1.7241379310344829,3.5714285714285716,0,343161.1766282155,435084.95410760277,471244.5113808374,111435.36912702366,87060.73860411183,2.2877411775214363e-06,0.0,0.0,0.0,2.2877411775214363e-06,0.0,23.80654301194072,3.0048488248884335,0.003065209293742888,0.0
2381,2.7586206896551726,1.7241379310344829,3.928571428571429,0,205640.71406720593,257664.96030107976,246485.43909627266,46662.5247944878,-3426.8807005850344,1.370938093781373e-06,0.0,0.0,0.0,1.370938093781373e-06,0.0,24.542811462363286,3.2971210043196346,-0.0001161825209301188,0.0
2382,2.7586206896551726,1.7241379310344829,4.285714285714286,0,140079.95686735376,315283.86925992,175714.6185367653,174698.73185646132,18935.504602368874,9.338663791156918e-07,0.0,0.0,0.0,9.338663791156918e-07,0.0,24.016010111139526,3.5953431520953636,0.0006344651908637504,0.0
2383,2.7586206896551726,1.7241379310344829,4.642857142857143,0,258808.44296435287,423938.7068182286,259208.4708765052,125634.30994107155,1222.827424862698,1.7253896197623525e-06,0.0,0.0,0.0,1.7253896197623525e-06,0.0,23.71956179714066,3.8970397399683625,4.082535637850325e-05,0.0
2384,2.7586206896551726,1.7241379310344829,5.0,0,314329.42607156845,519764.6692443481,215569.64894996406,196196.95668415347,-11900.2063410808,2.09552950714379e-06,0.0,0.0,0.0,2.09552950714379e-06,0.0,24.921246817303736,4.200116420600324,-0.0003968642411271926,0.0
2385,3.1034482758620694,1.7241379310344829,0.0,0,197161.5264848272,370949.7355452922,163563.62674016115,185918.38185003813,-915.469222692981,1.3144101765655147e-06,0.0,0.0,0.0,1.3144101765655147e-06,0.0,24.113732724638766,-0.04988002726266219,-3.0530310813615155e-05,0.0
2386,3.1034482758620694,1.7241379310344829,0.35714285714285715,0,203344.37159722112,403212.9654306542,275415.1539710199,168727.650512225,29112.39200375624,1.3556291439814742e-06,0.0,0.0,0.0,1.3556291439814742e-06,0.0,23.475983621094663,0.2542012446219339,0.0009719472710693309,0.0
2387,3.1034482758620694,1.7241379310344829,0.7142857142857143,0,209102.90092851935,451926.4482948638,211802.09275057603,353755.903229134,-2024.3879370156742,1.3940193395234622e-06,0.0,0.0,0.0,1.3940193395234622e-06,0.0,24.157996976091322,0.5597047176085015,-6.78304436988831e-05,0.0
2388,3.1034482758620694,1.7241379310344829,1.0714285714285714,0,104842.1514608591,327670.58608824236,224903.97229613914,220869.37558496068,-6043.468898916472,6.989476764057273e-07,0.0,0.0,0.0,6.989476764057273e-07,0.0,24.77142914211436,0.8687886401720843,-0.00020489346236039535,0.0
2389,3.1034482758620694,1.7241379310344829,1.4285714285714286,0,368337.718352952,487840.85130855354,332094.8162292033,67214.19895335246,-4957.366458112323,2.45558478901968e-06,0.0,0.0,0.0,2.45558478901968e-06,0.0,23.938613294210466,1.1840040719993232,-0.00017453752384289427,0.0
2390,3.1034482758620694,1.7241379310344829,1.7857142857142858,0,272220.3707742698,554639.2819692515,256104.2602128498,320156.97863598727,3899.00114916289,1.8148024718284653e-06,0.0,0.0,0.0,1.8148024718284653e-06,0.0,24.046956753146745,1.505168776334822,0.00015400079166701444,0.0
2391,3.1034482758620694,1.7241379310344829,2.142857142857143,0,774755.4943412085,1131452.412588056,339239.525830262,375422.18206380756,464140.9139353364,5.16503662894139e-06,0.0,0.0,0.0,5.16503662894139e-06,0.0,23.797041507934626,1.8261337418786818,0.024880317979360418,0.0
2392,3.1034482758620694,1.7241379310344829,2.5,0,928810.288827629,1169346.608844759,946770.2703839045,149469.7632595782,604156.4498308107,6.192068592184193e-06,0.0,0.0,0.0,6.192068592184193e-06,0.0,24.127628914588243,2.1371474165515516,0.060415644983081065,0.0
2393,3.1034482758620694,1.7241379310344829,2.857142857142857,0,831674.7537515933,1022186.7936175305,302726.386242801,111579.61846292911,505553.4442568997,5.544498358343955e-06,0.0,0.0,0.0,5.544498358343955e-06,0.0,23.467481425012227,2.433276599021539,0.02710024061878959,0.0
2394,3.1034482758620694,1.7241379310344829,3.2142857142857144,0,225293.41378972156,549156.2513286356,328566.8319099956,319436.4465704223,84512.34487845158,1.501956091931477e-06,0.0,0.0,0.0,1.501956091931477e-06,0.0,23.56335009744795,2.7194544906205365,0.00333802620697139,0.0
2395,3.1034482758620694,1.7241379310344829,3.5714285714285716,0,328415.3588760281,518766.5349130691,154543.77992748658,245205.79160123813,69610.18494156987,2.1894357258401873e-06,0.0,0.0,0.0,2.1894357258401873e-06,0.0,23.79467322666511,3.005432643427895,0.0024508152497110082,0.0
2396,3.1034482758620694,1.7241379310344829,3.928571428571429,0,422692.97271032416,554164.0626451516,235743.47730929905,74601.46812117405,-7569.072064382335,2.817953151402161e-06,0.0,0.0,0.0,2.817953151402161e-06,0.0,24.054422945063084,3.297360068743514,-0.00025661642478290783,0.0
2397,3.1034482758620694,1.7241379310344829,4.285714285714286,0,75273.90100750279,303088.9389585205,298227.6611038115,225502.22139409356,-27827.001690907087,5.018260067166853e-07,0.0,0.0,0.0,5.018260067166853e-07,0.0,24.531532966272557,3.595419003322787,-0.00093238940866559,0.0
2398,3.1034482758620694,1.7241379310344829,4.642857142857143,0,156041.33820669467,352690.7324976477,273384.5994784792,172924.13281408508,39476.198411190795,1.0402755880446312e-06,0.0,0.0,0.0,1.0402755880446312e-06,0.0,23.906468343213128,3.897058387479077,0.0013179536505622004,0.0
2399,3.1034482758620694,1.7241379310344829,5.0,0,184170.61637435915,395853.84136106906,445813.39971432084,241817.2865550877,-21224.79864430362,1.2278041091623943e-06,0.0,0.0,0.0,1.2278041091623943e-06,0.0,24.398509023043044,4.200119972737338,-0.0007078334077259366,0.0
2400,3.4482758620689657,1.7241379310344829,0.0,0,172697.2380898646,427008.31640787417,338491.8105812516,227998.78824601605,47433.14716603053,1.1513149205990973e-06,0.0,0.0,0.0,1.1513149205990973e-06,0.0,23.74420371839186,-0.049876929541597524,0.0015818650042509663,0.0
2401,3.4482758620689657,1.7241379310344829,0.35714285714285715,0,171407.78477012596,327748.5076383059,189605.4401333707,135925.19852170348,21357.38890531129,1.142718565134173e-06,0.0,0.0,0.0,1.142718565134173e-06,0.0,24.263429690346715,0.25421750660352915,0.0007130384841274936,0.0
2402,3.4482758620689657,1.7241379310344829,0.7142857142857143,0,104076.91657944454,160453.97915945036,170522.3135238397,269199.1681620369,54223.47139403852,6.938461105296303e-07,0.0,0.0,0.0,6.938461105296303e-07,0.0,24.573306331274168,0.5597708653792806,0.0018168464928581772,0.0
2403,3.4482758620689657,1.7241379310344829,1.0714285714285714,0,412604.62252639054,485115.9691094331,473482.2634565919,66817.52008782166,-37001.01605829573,2.75069748350927e-06,0.0,0.0,0.0,2.75069748350927e-06,0.0,23.920975154568104,0.8689971216858228,-0.0012544560777662046,0.0
2404,3.4482758620689657,1.7241379310344829,1.4285714285714286,0,114601.65787550138,510681.3087135855,404481.8622909629,389209.0897714626,47970.15833762456,7.640110525033425e-07,0.0,0.0,0.0,7.640110525033425e-07,0.0,24.158918121707853,1.1845132041022122,0.001688919454582483,0.0
2405,3.4482758620689657,1.7241379310344829,1.7857142857142858,0,336764.17262612074,413621.82976042444,519320.01567608875,142386.01395951954,19723.230051375547,2.2450944841741383e-06,0.0,0.0,0.0,2.2450944841741383e-06,0.0,23.69485018143922,1.5061321704820738,0.0007790182474797701,0.0
2406,3.4482758620689657,1.7241379310344829,2.142857142857143,0,404807.10940275295,826444.9840480213,672615.7357664192,367272.3088437399,129371.96708644414,2.6987140626850198e-06,0.0,0.0,0.0,2.6987140626850198e-06,0.0,24.28597460438626,1.8275462407730971,0.006934996640211128,0.0
2407,3.4482758620689657,1.7241379310344829,2.5,0,985854.2838796496,1454087.8298761896,835395.7652536782,317201.00345040375,737862.2967515567,6.5723618925309975e-06,0.0,0.0,0.0,6.5723618925309975e-06,0.0,22.59676833341012,2.1387520757902956,0.07378622967515566,0.0
2408,3.4482758620689657,1.7241379310344829,2.857142857142857,0,872995.0603695138,1213166.1841907813,379677.07189878984,305410.1208500947,354215.8448690245,5.8199670691300925e-06,0.0,0.0,0.0,5.8199670691300925e-06,0.0,23.189249810543068,2.434689097915954,0.018987774163121827,0.0
2409,3.4482758620689657,1.7241379310344829,3.2142857142857144,0,251435.2765776508,754163.8261774696,464417.213797095,625255.2864513582,127994.728802623,1.6762351771843387e-06,0.0,0.0,0.0,1.6762351771843387e-06,0.0,24.29335863303688,2.7204178847677882,0.005055471596626931,0.0
2410,3.4482758620689657,1.7241379310344829,3.5714285714285716,0,254694.91152256145,427648.05108659616,316597.376326557,136283.13118915772,9650.355819591892,1.6979660768170764e-06,0.0,0.0,0.0,1.6979660768170764e-06,0.0,23.193716458309627,3.0059417755307836,0.0003397669353650736,0.0
2411,3.4482758620689657,1.7241379310344829,3.928571428571429,0,180784.77137060478,387759.85051416425,198027.39043364598,217499.13292098284,1063.5858351040638,1.2052318091373652e-06,0.0,0.0,0.0,1.2052318091373652e-06,0.0,23.77195866388636,3.2975685502572523,3.605905613430312e-05,0.0
2412,3.4482758620689657,1.7241379310344829,4.285714285714286,0,200806.4443095483,360532.18733803736,219283.2749525084,130660.1671492337,55454.14012617587,1.338709628730322e-06,0.0,0.0,0.0,1.338709628730322e-06,0.0,24.722852870026014,3.5954851510935666,0.0018580820705954557,0.0
2413,3.4482758620689657,1.7241379310344829,4.642857142857143,0,207104.75885173422,452323.47243303945,370168.609808635,216745.87389877826,4365.653190187802,1.3806983923448947e-06,0.0,0.0,0.0,1.3806983923448947e-06,0.0,24.4578541551673,3.8970746494606723,0.00014575184011298946,0.0
2414,3.4482758620689657,1.7241379310344829,5.0,0,175904.29749473056,304342.544592261,249045.49087280745,107433.86659064388,-17544.78901451162,1.1726953166315371e-06,0.0,0.0,0.0,1.1726953166315371e-06,0.0,25.228086137671546,4.200123070458402,-0.0005851074492670079,0.0
2415,3.793103448275862,1.7241379310344829,0.0,0,207122.86399193513,301157.80132104334,400028.9834050461,161997.93164565196,-3172.8162446756764,1.3808190932795676e-06,0.0,0.0,0.0,1.3808190932795676e-06,0.0,24.040233322928653,-0.04987434892611723,-0.00010581138470115641,0.0
2416,3.793103448275862,1.7241379310344829,0.35714285714285715,0,279357.9488650947,431643.5146633584,126350.18591619389,188786.81115349344,5660.658197050618,1.862386325767298e-06,0.0,0.0,0.0,1.862386325767298e-06,0.0,23.965906238826264,0.25423105395675066,0.00018898691960350447,0.0
2417,3.793103448275862,1.7241379310344829,0.7142857142857143,0,229670.9690211173,357038.29861322953,214546.23097645782,92089.49763198856,-102469.1622619155,1.5311397934741153e-06,0.0,0.0,0.0,1.5311397934741153e-06,0.0,24.017081107766618,0.5598259710384721,-0.003433397628285097,0.0
2418,3.793103448275862,1.7241379310344829,1.0714285714285714,0,287872.5578778589,473453.872135977,144944.46386475925,353151.2565413237,18464.468265877545,1.9191503858523927e-06,0.0,0.0,0.0,1.9191503858523927e-06,0.0,23.554323490522314,0.8691708011780938,0.0006260061724347734,0.0
2419,3.793103448275862,1.7241379310344829,1.4285714285714286,0,161605.61792330752,373373.1196709372,197584.0351491461,231256.58863595666,64030.60246391911,1.0773707861553835e-06,0.0,0.0,0.0,1.0773707861553835e-06,0.0,23.914891471808236,1.1849373462889363,0.002254370924290453,0.0
2420,3.793103448275862,1.7241379310344829,1.7857142857142858,0,349832.7064658986,611057.3730096426,330140.8352718123,219208.2796615945,62053.11165200348,2.3322180431059907e-06,0.0,0.0,0.0,2.3322180431059907e-06,0.0,23.39594994190779,1.50693474430913,0.002450942678450321,0.0
2421,3.793103448275862,1.7241379310344829,2.142857142857143,0,485772.4937789598,746499.8903287807,698483.7374085054,238502.4002382599,306726.8738663085,3.238483291859732e-06,0.0,0.0,0.0,3.238483291859732e-06,0.0,24.61749284551982,1.8287229498559139,0.016442123341171632,0.0
2422,3.793103448275862,1.7241379310344829,2.5,0,545920.6105121621,1078628.80066845,811406.6133679528,450575.05114926724,663217.9268837415,3.6394707367477473e-06,0.0,0.0,0.0,3.6394707367477473e-06,0.0,24.404907241885553,2.140088867704627,0.06632179268837415,0.0
2423,3.793103448275862,1.7241379310344829,2.857142857142857,0,450913.323749805,644686.2606628505,516398.4138709398,143530.32735273056,504840.7922478439,3.0060888249986997e-06,0.0,0.0,0.0,3.0060888249986997e-06,0.0,23.460178613427647,2.435865806998771,0.027062038839843622,0.0
2424,3.793103448275862,1.7241379310344829,3.2142857142857144,0,363754.8448957109,557571.5445661373,157199.7206759929,467360.12585136865,94067.848623226,2.425032299304739e-06,0.0,0.0,0.0,2.425032299304739e-06,0.0,23.712634137557274,2.7212204585948445,0.0037154447008818942,0.0
2425,3.793103448275862,1.7241379310344829,3.5714285714285716,0,190613.32050773874,307406.89954420144,429373.21430478885,209718.6937149452,14667.281114374724,1.2707554700515915e-06,0.0,0.0,0.0,1.2707554700515915e-06,0.0,24.245174812831305,3.006365917717508,0.0005164013894961097,0.0
2426,3.793103448275862,1.7241379310344829,3.928571428571429,0,247006.51368585936,422642.2825687728,238582.7278472286,141922.87104644216,-14257.88300679885,1.6467100912390625e-06,0.0,0.0,0.0,1.6467100912390625e-06,0.0,24.190180124448887,3.297742229749523,-0.0004833891038499803,0.0
2427,3.793103448275862,1.7241379310344829,4.285714285714286,0,220178.67659311034,411862.429718228,171738.8575342852,219453.20284560023,-38521.91027208189,1.467857843954069e-06,0.0,0.0,0.0,1.467857843954069e-06,0.0,23.534605158518122,3.595540256752758,-0.0012907398913549475,0.0
2428,3.793103448275862,1.7241379310344829,4.642857142857143,0,164182.53034747654,234824.69338934007,271106.48047941615,91817.74420769795,840.5849175673117,1.0945502023165102e-06,0.0,0.0,0.0,1.0945502023165102e-06,0.0,24.09714607452431,3.8970881968138937,2.806379553511689e-05,0.0
2429,3.793103448275862,1.7241379310344829,5.0,0,341478.81427076465,454794.4656852073,265991.71972513775,60604.96262957985,1492.67635552541,2.2765254284717644e-06,0.0,0.0,0.0,2.2765254284717644e-06,0.0,24.354483181500846,4.200125651073883,4.9779798106449756e-05,0.0
2430,4.137931034482759,1.7241379310344829,0.0,0,355694.7207369403,522789.99340354046,221552.75143431642,130384.632918576,-67361.9572489446,2.3712981382462684e-06,0.0,0.0,0.0,2.3712981382462684e-06,0.0,24.33218430975858,-0.049872346665654245,-0.0022464780255244546,0.0
2431,4.137931034482759,1.7241379310344829,0.35714285714285715,0,176325.87808513088,351924.469232177,254460.11018373744,148381.6333597908,-25344.051507010674,1.1755058539008727e-06,0.0,0.0,0.0,1.1755058539008727e-06,0.0,24.879236133702786,0.2542415651429157,-0.0008461373320646855,0.0
2432,4.137931034482759,1.7241379310344829,0.7142857142857143,0,134881.58965034335,304973.02609997365,164067.76602539752,177054.5454286729,40545.22503470719,8.992105976689556e-07,0.0,0.0,0.0,8.992105976689556e-07,0.0,24.16667402484187,0.5598687266847618,0.0013585343765827617,0.0
2433,4.137931034482759,1.7241379310344829,1.0714285714285714,0,455786.9184184275,564000.2408597801,307066.76330316014,37751.39327771472,-9070.208190265681,3.0385794561228503e-06,0.0,0.0,0.0,3.0385794561228503e-06,0.0,23.425950093433794,0.8693055564654508,-0.00030750987413310696,0.0
2434,4.137931034482759,1.7241379310344829,1.4285714285714286,0,155323.92022359956,308352.268291433,209682.17979409042,129311.09303665982,-97594.87354277357,1.0354928014906636e-06,0.0,0.0,0.0,1.0354928014906636e-06,0.0,23.518845239749446,1.1852664317872006,-0.0034360920686106237,0.0
2435,4.137931034482759,1.7241379310344829,1.7857142857142858,0,643942.5729810717,602393.0012587266,347320.2398760124,-130011.50729020788,159267.31939686343,4.292950486540478e-06,0.0,0.0,0.0,4.292950486540478e-06,0.0,24.683937927430296,1.5075574491850832,0.006290660693717976,0.0
2436,4.137931034482759,1.7241379310344829,2.142857142857143,0,702039.8778583712,920863.718541587,737598.3936319215,145366.77450910604,256020.6581670285,4.6802658523891414e-06,0.0,0.0,0.0,4.6802658523891414e-06,0.0,24.866052060392533,1.8296359406098435,0.013724011810275901,0.0
2437,4.137931034482759,1.7241379310344829,2.5,0,658596.9988891687,1327319.4439425587,984004.8760474416,567996.1514926694,554316.3600977624,4.390646659261125e-06,0.0,0.0,0.0,4.390646659261125e-06,0.0,24.04788246034301,2.1411260643027785,0.05543163600977624,0.0
2438,4.137931034482759,1.7241379310344829,2.857142857142857,0,404310.2448818863,952885.9255097007,904178.9215288965,526428.5875032003,429696.41580725653,2.6954016325459086e-06,0.0,0.0,0.0,2.6954016325459086e-06,0.0,24.261241453862674,2.4367787977527002,0.023033917370545512,0.0
2439,4.137931034482759,1.7241379310344829,3.2142857142857144,0,440492.26675865473,540146.2011166151,546677.842812902,102956.07602153327,18677.006735302173,2.936615111724365e-06,0.0,0.0,0.0,2.936615111724365e-06,0.0,24.121315077894366,2.7218431634707976,0.0007376950437227305,0.0
2440,4.137931034482759,1.7241379310344829,3.5714285714285716,0,174175.33417844147,339160.7712971101,266040.794707401,140344.353842077,-77244.92201371906,1.1611688945229431e-06,0.0,0.0,0.0,1.1611688945229431e-06,0.0,23.930471717781618,3.006695003215772,-0.002719616863435542,0.0
2441,4.137931034482759,1.7241379310344829,3.928571428571429,0,192210.15508866045,335774.873619208,141207.96763548366,146011.51447932178,8072.364676328378,1.281401033924403e-06,0.0,0.0,0.0,1.281401033924403e-06,0.0,23.33872843572407,3.29787698503688,0.0002736796988010004,0.0
2442,4.137931034482759,1.7241379310344829,4.285714285714286,0,110698.65589998451,279378.6116156209,343186.2486046693,215362.50770364737,27880.742737701374,7.379910393332301e-07,0.0,0.0,0.0,7.379910393332301e-07,0.0,24.327628305866295,3.5955830123990475,0.0009341900907296576,0.0
2443,4.137931034482759,1.7241379310344829,4.642857142857143,0,100316.40784913562,352051.3273846537,339697.7667710276,246130.2548156855,-16358.58422000517,6.687760523275708e-07,0.0,0.0,0.0,6.687760523275708e-07,0.0,24.984701782552495,3.8970987080000588,-0.0005461482275018962,0.0
2444,4.137931034482759,1.7241379310344829,5.0,0,141632.34124749879,309305.782161951,197196.30608734515,150133.05773063446,-4282.9103467973455,9.442156083166586e-07,0.0,0.0,0.0,9.442156083166586e-07,0.0,24.1835694824011,4.200127653334346,-0.00014283231028775227,0.0
2445,4.482758620689656,1.7241379310344829,0.0,0,159677.54636661633,237092.8534204062,298985.6315286505,117626.86988771077,-39892.22353864913,1.0645169757774422e-06,0.0,0.0,0.0,1.0645169757774422e-06,0.0,23.901468214615715,-0.049870977046245824,-0.0013303800428139838,0.0
2446,4.482758620689656,1.7241379310344829,0.35714285714285715,0,334209.0685288938,423091.82084799046,214268.33372603907,37628.009323404185,-33666.03782650456,2.228060456859292e-06,0.0,0.0,0.0,2.228060456859292e-06,0.0,23.84134036117891,0.25424875517879925,-0.0011239754393581282,0.0
2447,4.482758620689656,1.7241379310344829,0.7142857142857143,0,181770.66533717985,305505.1596411141,339361.3415855631,143042.91089230092,-10908.959917045328,1.211804435581199e-06,0.0,0.0,0.0,1.211804435581199e-06,0.0,24.310374172528682,0.5598979731110191,-0.0003655226243628749,0.0
2448,4.482758620689656,1.7241379310344829,1.0714285714285714,0,67469.99660894282,260887.53983243095,208685.19921378806,284870.17097489774,22895.65199806951,4.497999773929521e-07,0.0,0.0,0.0,4.497999773929521e-07,0.0,24.6422015849114,0.8693977340119609,0.0007762378675803628,0.0
2449,4.482758620689656,1.7241379310344829,1.4285714285714286,0,158202.55234086388,392533.5416589239,445088.934459557,267297.2268825768,9077.604456195568,1.0546836822724258e-06,0.0,0.0,0.0,1.0546836822724258e-06,0.0,24.337720428359408,1.185491538307449,0.00031960167108826203,0.0
2450,4.482758620689656,1.7241379310344829,1.7857142857142858,0,301700.2359574854,589835.5719649022,498800.5184305114,253100.77811384154,120647.70112679391,2.011334906383236e-06,0.0,0.0,0.0,2.011334906383236e-06,0.0,23.141284996497635,1.5079834021015954,0.004765282382725298,0.0
2451,4.482758620689656,1.7241379310344829,2.142857142857143,0,456931.68152550055,560980.8684335361,913413.5282714894,397153.1176932833,467713.8691572725,3.0462112101700037e-06,0.0,0.0,0.0,3.0462112101700037e-06,0.0,24.952040639950308,1.8302604596868617,0.02507184658496008,0.0
2452,4.482758620689656,1.7241379310344829,2.5,0,708692.1037540934,1081659.809216258,615970.6475545934,266067.6831683355,675227.1561370861,4.72461402502729e-06,0.0,0.0,0.0,4.72461402502729e-06,0.0,24.50222067353202,2.1418355447212565,0.06752271561370861,0.0
2453,4.482758620689656,1.7241379310344829,2.857142857142857,0,394233.806618174,681557.1850242442,673313.19952449,283266.0384736598,188081.99823257778,2.6282253774544935e-06,0.0,0.0,0.0,2.6282253774544935e-06,0.0,24.000269264275794,2.4374033168297187,0.010082153461851432,0.0
2454,4.482758620689656,1.7241379310344829,3.2142857142857144,0,510242.6451771815,781001.0502626281,294514.54616134416,249928.47734128207,44780.755324296784,3.4016176345145433e-06,0.0,0.0,0.0,3.4016176345145433e-06,0.0,23.82990030001662,2.72226911638731,0.0017687278119600438,0.0
2455,4.482758620689656,1.7241379310344829,3.5714285714285716,0,240878.50724108823,448769.88318361464,352908.3064519432,174718.83073120177,40729.79270196065,1.6058567149405882e-06,0.0,0.0,0.0,1.6058567149405882e-06,0.0,23.876421275116385,3.0069201097360208,0.0014340027562823208,0.0
2456,4.482758620689656,1.7241379310344829,3.928571428571429,0,104790.05355593655,321584.3432212371,307528.723092694,210475.86741467883,-3954.559954139473,6.98600357039577e-07,0.0,0.0,0.0,6.98600357039577e-07,0.0,24.535850725907355,3.29796916258339,-0.00013407258226490987,0.0
2457,4.482758620689656,1.7241379310344829,4.285714285714286,0,172876.175961963,288711.38457599666,400142.202652399,200991.9589248889,-54935.40156974823,1.15250783974642e-06,0.0,0.0,0.0,1.15250783974642e-06,0.0,23.121527784127966,3.5956122588253048,-0.0018407008830262014,0.0
2458,4.482758620689656,1.7241379310344829,4.642857142857143,0,140320.73478898517,331095.10086329747,269341.19930920575,170488.62243793104,-18667.607827209482,9.354715652599011e-07,0.0,0.0,0.0,9.354715652599011e-07,0.0,24.370851006263305,3.8971058980359423,-0.0006232373651298632,0.0
2459,4.482758620689656,1.7241379310344829,5.0,0,277131.8810398503,379568.4306084707,285656.9719068663,67683.35608788856,-76837.97326881114,1.847545873599002e-06,0.0,0.0,0.0,1.847545873599002e-06,0.0,24.259005562868488,4.200129022953754,-0.002562497075853955,0.0
2460,4.827586206896552,1.7241379310344829,0.0,0,223460.42447763577,326109.89386770595,198580.9666246666,68085.70502012497,-9095.78451289215,1.4897361631842385e-06,0.0,0.0,0.0,1.4897361631842385e-06,0.0,24.196037916527562,-0.04987028112927476,-0.0003033385736938042,0.0
2461,4.827586206896552,1.7241379310344829,0.35714285714285715,0,220436.79627356518,313607.14482492354,264990.07495746965,72920.08383216131,-22454.83271321045,1.469578641823768e-06,0.0,0.0,0.0,1.469578641823768e-06,0.0,23.48608520146046,0.25425240850611275,-0.0007496777789714863,0.0
2462,4.827586206896552,1.7241379310344829,0.7142857142857143,0,164497.9025437837,332732.23814685567,205236.21674742975,147049.27209474178,-11856.789954985887,1.0966526836252247e-06,0.0,0.0,0.0,1.0966526836252247e-06,0.0,23.22018368108371,0.5599128335052644,-0.00039728122697508736,0.0
2463,4.827586206896552,1.7241379310344829,1.0714285714285714,0,277076.5846923046,297921.6309893792,245042.89508794353,-1783.748846921526,40250.800645520125,1.8471772312820306e-06,0.0,0.0,0.0,1.8471772312820306e-06,0.0,25.199142017136598,0.8694445703217947,0.0013646344582855842,0.0
2464,4.827586206896552,1.7241379310344829,1.4285714285714286,0,183701.46274325324,366743.9566313793,289385.01278964593,157015.010084662,-47477.27106602045,1.224676418288355e-06,0.0,0.0,0.0,1.224676418288355e-06,0.0,24.148150103018025,1.1856059171244944,-0.0016715660221408113,0.0
2465,4.827586206896552,1.7241379310344829,1.7857142857142858,0,48331.29489394488,328765.1610149505,355105.9673836325,384544.66541031405,18904.97897774742,3.222086326262992e-07,0.0,0.0,0.0,3.222086326262992e-07,0.0,25.054396262035905,1.5081998329302273,0.0007466993770049125,0.0
2466,4.827586206896552,1.7241379310344829,2.142857142857143,0,495136.7279132542,998483.5339566476,595531.4779768785,445748.8978659769,219784.06538488177,3.3009115194216945e-06,0.0,0.0,0.0,3.3009115194216945e-06,0.0,24.542825287833026,1.8305777839170656,0.011781545796529881,0.0
2467,4.827586206896552,1.7241379310344829,2.5,0,625368.0963817834,1042099.9877903623,614527.1060509123,324357.8652650554,672733.3765629012,4.169120642545222e-06,0.0,0.0,0.0,4.169120642545222e-06,0.0,24.15209509931095,2.142196038637172,0.06727333765629012,0.0
2468,4.827586206896552,1.7241379310344829,2.857142857142857,0,427536.20939335483,706449.3052054651,521539.9857262292,217581.2021774882,409745.2916809102,2.850241395955699e-06,0.0,0.0,0.0,2.850241395955699e-06,0.0,24.21657216086817,2.4377206410599226,0.021964435458036627,0.0
2469,4.827586206896552,1.7241379310344829,3.2142857142857144,0,401095.8273806481,778278.029068223,516314.59308176866,316525.64823320933,79728.4685071794,2.673972182537654e-06,0.0,0.0,0.0,2.673972182537654e-06,0.0,24.645525075523732,2.7224855472159417,0.003149075057631202,0.0
2470,4.827586206896552,1.7241379310344829,3.5714285714285716,0,189678.53316733343,400625.9504198724,289455.73286786204,181612.46897990713,17089.332105737405,1.2645235544488896e-06,0.0,0.0,0.0,1.2645235544488896e-06,0.0,24.706488681829473,3.007034488553066,0.0006016762599793866,0.0
2471,4.827586206896552,1.7241379310344829,3.928571428571429,0,145992.46479748297,268626.17772572127,260711.43769292772,118837.33838495584,-40455.632658019,9.732830986498864e-07,0.0,0.0,0.0,9.732830986498864e-07,0.0,24.35282357076165,3.298015998893224,-0.0013715789368532931,0.0
2472,4.827586206896552,1.7241379310344829,4.285714285714286,0,274032.39042677905,385247.6664315569,134365.52031414333,92811.49592189136,6555.772903092324,1.8268826028451936e-06,0.0,0.0,0.0,1.8268826028451936e-06,0.0,24.665948371220736,3.59562711921955,0.00021966194160463634,0.0
2473,4.827586206896552,1.7241379310344829,4.642857142857143,0,189014.35280300793,353945.7867287756,257258.08482223915,136146.80368867883,-36781.35022469124,1.2600956853533863e-06,0.0,0.0,0.0,1.2600956853533863e-06,0.0,24.694464760451677,3.897109551363256,-0.0012279833609179682,0.0
2474,4.827586206896552,1.7241379310344829,5.0,0,212316.85788947184,353648.3727230515,264219.4022991592,111246.52681055343,1350.2605143567173,1.4154457192631456e-06,0.0,0.0,0.0,1.4154457192631456e-06,0.0,24.293856206257402,4.200129718870725,4.5030321239414966e-05,0.0
2475,5.172413793103448,1.7241379310344829,0.0,0,105197.5393263867,290894.67198222235,197247.17154824443,177069.94022632044,-10917.45865184622,7.01316928842578e-07,0.0,0.0,0.0,7.01316928842578e-07,0.0,23.760846488230882,-0.04987028112927476,-0.000364090236649539,0.0
2476,5.172413793103448,1.7241379310344829,0.35714285714285715,0,144995.94714401683,346687.6456337473,355244.89649820345,206159.83204677084,-18896.43416454281,9.666396476267789e-07,0.0,0.0,0.0,9.666396476267789e-07,0.0,24.31604139159459,0.25425240850611275,-0.0006308769687079966,0.0
2477,5.172413793103448,1.7241379310344829,0.7142857142857143,0,245614.30009886879,302345.7370064619,77259.03353602458,40375.59264801339,907.4369694019017,1.6374286673257918e-06,0.0,0.0,0.0,1.6374286673257918e-06,0.0,23.6980676473785,0.5599128335052644,3.0405166489007897e-05,0.0
2478,5.172413793103448,1.7241379310344829,1.0714285714285714,0,282008.7947313261,365250.1913392022,281656.30068762146,50894.98363614713,22472.42313264196,1.8800586315421741e-06,0.0,0.0,0.0,1.8800586315421741e-06,0.0,23.886748898340873,0.8694445703217947,0.0007618890177626929,0.0
2479,5.172413793103448,1.7241379310344829,1.4285714285714286,0,77556.7261384452,236454.0488858644,321847.13278836425,255782.62803482334,72621.67083956345,5.17044840922968e-07,0.0,0.0,0.0,5.17044840922968e-07,0.0,24.280457120085707,1.1856059171244944,0.0025568427738339155,0.0
2480,5.172413793103448,1.7241379310344829,1.7857142857142858,0,239205.19179163963,499707.2221208721,442302.2804002838,237022.64023578828,87788.44611459383,1.594701278610931e-06,0.0,0.0,0.0,1.594701278610931e-06,0.0,24.046805755284044,1.5081998329302273,0.0034674240103178995,0.0
2481,5.172413793103448,1.7241379310344829,2.142857142857143,0,822217.2803195984,1089949.7980242283,596071.8307900084,140796.6938095594,490449.87663068285,5.4814485354639895e-06,0.0,0.0,0.0,5.4814485354639895e-06,0.0,24.748918883104437,1.8305777839170656,0.02629061243501908,0.0
2482,5.172413793103448,1.7241379310344829,2.5,0,223071.5270706379,807561.800503472,772791.4046763077,569146.8062497966,569568.6055429447,1.4871435138042528e-06,0.0,0.0,0.0,1.4871435138042528e-06,0.0,23.76567777128807,2.142196038637172,0.05695686055429447,0.0
2483,5.172413793103448,1.7241379310344829,2.857142857142857,0,330873.2721013368,712806.4571570926,708268.689490476,379687.63953280094,450392.2697177188,2.205821814008912e-06,0.0,0.0,0.0,2.205821814008912e-06,0.0,23.036555822333398,2.4377206410599226,0.024143320594193298,0.0
2484,5.172413793103448,1.7241379310344829,3.2142857142857144,0,178573.32436947624,498165.4748521498,303592.99027196807,459994.3182812507,81473.83375022764,1.1904888291298416e-06,0.0,0.0,0.0,1.1904888291298416e-06,0.0,24.760375506703397,2.7224855472159417,0.0032180126185332373,0.0
2485,5.172413793103448,1.7241379310344829,3.5714285714285716,0,154898.12848245673,289178.78910019953,290248.4863439735,134818.27943713768,13961.211596832498,1.0326541898830448e-06,0.0,0.0,0.0,1.0326541898830448e-06,0.0,24.133850537075944,3.007034488553066,0.0004915422982237462,0.0
2486,5.172413793103448,1.7241379310344829,3.928571428571429,0,30101.7344161299,183528.92835936922,218040.3030891618,204367.65571205446,-5319.027609574903,2.0067822944086601e-07,0.0,0.0,0.0,2.0067822944086601e-07,0.0,24.162359493034263,3.298015998893224,-0.00018033252119684678,0.0
2487,5.172413793103448,1.7241379310344829,4.285714285714286,0,233666.85108866458,304334.80576792033,153540.8936485014,35169.703852183055,9547.224352746727,1.5577790072577639e-06,0.0,0.0,0.0,1.5577790072577639e-06,0.0,23.725355208375998,3.59562711921955,0.0003198954370841909,0.0
2488,5.172413793103448,1.7241379310344829,4.642857142857143,0,95888.75768034771,326674.69204187806,268239.9553783323,216009.85589939306,13725.667520661946,6.392583845356514e-07,0.0,0.0,0.0,6.392583845356514e-07,0.0,23.182479765891088,3.897109551363256,0.00045824558451229455,0.0
2489,5.172413793103448,1.7241379310344829,5.0,0,127671.942428831,314631.1807660937,186689.17476031018,187231.02667348002,-45070.77326627118,8.511462828588733e-07,0.0,0.0,0.0,8.511462828588733e-07,0.0,23.719614544376185,4.200129718870725,-0.001503081351420495,0.0
2490,5.517241379310345,1.7241379310344829,0.0,0,153121.8541545989,300132.0502717135,123767.61087015145,222812.17864452166,21637.837766611217,1.0208123610306593e-06,0.0,0.0,0.0,1.0208123610306593e-06,0.0,24.337447999283157,-0.049870977046245824,0.0007216079972693613,0.0
2491,5.517241379310345,1.7241379310344829,0.35714285714285715,0,124370.00067931,311810.4930676384,183071.36278466278,192326.7344778306,-45877.52202050883,8.291333378620667e-07,0.0,0.0,0.0,8.291333378620667e-07,0.0,23.956600126018483,0.25424875517879925,-0.0015316684498306902,0.0
2492,5.517241379310345,1.7241379310344829,0.7142857142857143,0,234821.15452744803,373580.2823668497,167541.86825574195,117910.80984628467,21750.19491613097,1.56547436351632e-06,0.0,0.0,0.0,1.56547436351632e-06,0.0,23.895634553352078,0.5598979731110191,0.0007287760140841683,0.0
2493,5.517241379310345,1.7241379310344829,1.0714285714285714,0,245893.36589203886,307350.1686410823,289388.3384962366,52968.404175056305,19342.5688152612,1.6392891059469258e-06,0.0,0.0,0.0,1.6392891059469258e-06,0.0,23.216992908578547,0.8693977340119609,0.0006557766676376261,0.0
2494,5.517241379310345,1.7241379310344829,1.4285714285714286,0,202371.49620061836,328683.1874195567,271298.14024132234,103816.15033610011,57440.699680839316,1.3491433080041224e-06,0.0,0.0,0.0,1.3491433080041224e-06,0.0,24.977024455432094,1.185491538307449,0.0020223555338926016,0.0
2495,5.517241379310345,1.7241379310344829,1.7857142857142858,0,485519.786046633,501998.0013930453,519392.1500822345,25409.030877186426,10173.449154538088,3.2367985736442197e-06,0.0,0.0,0.0,3.2367985736442197e-06,0.0,24.046470618015018,1.5079834021015954,0.00040182579174652367,0.0
2496,5.517241379310345,1.7241379310344829,2.142857142857143,0,619222.2525521237,879381.2396249846,446589.43081978173,170081.04864225336,219438.20939091133,4.128148350347492e-06,0.0,0.0,0.0,4.128148350347492e-06,0.0,25.251814206261983,1.8302604596868617,0.011763006152971866,0.0
2497,5.517241379310345,1.7241379310344829,2.5,0,640254.710930484,1189119.8528594656,811196.261802568,449879.56932637776,637698.8766482425,4.26836473953656e-06,0.0,0.0,0.0,4.26836473953656e-06,0.0,24.26897527450607,2.1418355447212565,0.06376988766482425,0.0
2498,5.517241379310345,1.7241379310344829,2.857142857142857,0,599923.2116361691,689064.2477792964,999211.1438188817,307700.80573874485,212523.96158787658,3.9994880775744605e-06,0.0,0.0,0.0,3.9994880775744605e-06,0.0,24.865860426429997,2.4374033168297187,0.011392367239739652,0.0
2499,5.517241379310345,1.7241379310344829,3.2142857142857144,0,309317.82233078557,542429.0394090435,410208.10907462955,188976.0358010655,-6375.735330765805,2.0621188155385705e-06,0.0,0.0,0.0,2.0621188155385705e-06,0.0,23.736162777644196,2.72226911638731,-0.0002518255960524899,0.0
2500,5.517241379310345,1.7241379310344829,3.5714285714285716,0,277745.6122177831,396443.9848147207,323910.39269092225,89628.14769659268,12413.767479199603,1.8516374147852207e-06,0.0,0.0,0.0,1.8516374147852207e-06,0.0,23.342604601508377,3.0069201097360208,0.0004370603334831888,0.0
2501,5.517241379310345,1.7241379310344829,3.928571428571429,0,247706.362224044,256090.66309737132,267982.9379449516,14544.634512858289,-1287.1090442162317,1.6513757481602932e-06,0.0,0.0,0.0,1.6513757481602932e-06,0.0,24.011279065048694,3.29796916258339,-4.3637227710748216e-05,0.0
2502,5.517241379310345,1.7241379310344829,4.285714285714286,0,179371.66583483707,311402.66131624905,128887.94924855104,135348.61069175915,4822.462122556396,1.1958111055655804e-06,0.0,0.0,0.0,1.1958111055655804e-06,0.0,24.38926771008707,3.5956122588253048,0.00016158451624458835,0.0
2503,5.517241379310345,1.7241379310344829,4.642857142857143,0,93271.2077877387,218526.8780140133,252625.4969440258,147103.1331489984,16623.82254218129,6.21808051918258e-07,0.0,0.0,0.0,6.21808051918258e-07,0.0,24.448302829250515,3.8971058980359423,0.0005550034827962335,0.0
2504,5.517241379310345,1.7241379310344829,5.0,0,158207.75253448097,199729.61933831978,235306.06893421552,62339.14025708007,16793.075137073047,1.0547183502298732e-06,0.0,0.0,0.0,1.0547183502298732e-06,0.0,24.31599457686339,4.200129022953754,0.0005600382740809796,0.0
2505,5.862068965517242,1.7241379310344829,0.0,0,203979.32700252486,323660.5264852758,195414.8357545517,88446.04499718403,-2348.198272865211,1.3598621800168324e-06,0.0,0.0,0.0,1.3598621800168324e-06,0.0,25.17805912367406,-0.049872346665654245,-7.831090477479888e-05,0.0
2506,5.862068965517242,1.7241379310344829,0.35714285714285715,0,104581.61304981717,278446.7845458199,157796.12104838504,213663.10822503967,1452.3533176878425,6.972107536654478e-07,0.0,0.0,0.0,6.972107536654478e-07,0.0,24.232823494438147,0.2542415651429157,4.848831533915364e-05,0.0
2507,5.862068965517242,1.7241379310344829,0.7142857142857143,0,107056.62405563051,314805.74929765105,253790.6327730334,191190.79379535865,-2022.5163460878637,7.137108270375367e-07,0.0,0.0,0.0,7.137108270375367e-07,0.0,23.886601711798736,0.5598687266847618,-6.776773297000802e-05,0.0
2508,5.862068965517242,1.7241379310344829,1.0714285714285714,0,241548.93466247575,310604.6331703967,157580.60210253927,32143.063852894247,1299.3554045869337,1.6103262310831717e-06,0.0,0.0,0.0,1.6103262310831717e-06,0.0,23.929603987162896,0.8693055564654508,4.4052419584758876e-05,0.0
2509,5.862068965517242,1.7241379310344829,1.4285714285714286,0,233996.32688556382,291511.2780097534,408159.6704288322,138768.78948323816,-45707.089437627146,1.5599755125704254e-06,0.0,0.0,0.0,1.5599755125704254e-06,0.0,23.648451117600423,1.1852664317872006,-0.0016092419795705154,0.0
2510,5.862068965517242,1.7241379310344829,1.7857142857142858,0,148085.1851893056,514222.78096169035,375092.5254779144,358568.73941950314,93911.81425593444,9.87234567928704e-07,0.0,0.0,0.0,9.87234567928704e-07,0.0,24.20243463021571,1.5075574491850832,0.003709281733708797,0.0
2511,5.862068965517242,1.7241379310344829,2.142857142857143,0,275009.724932484,579220.8240318777,350077.895538911,274253.7517775129,370625.4611553155,1.8333981662165599e-06,0.0,0.0,0.0,1.8333981662165599e-06,0.0,24.60136511517441,1.8296359406098435,0.01986741320993745,0.0
2512,5.862068965517242,1.7241379310344829,2.5,0,755599.7549128048,1156281.611151736,540240.3579287755,313190.0823507386,579629.5280871289,5.0373316994186985e-06,0.0,0.0,0.0,5.0373316994186985e-06,0.0,24.769808145740758,2.1411260643027785,0.057962952808712886,0.0
2513,5.862068965517242,1.7241379310344829,2.857142857142857,0,76792.16130937665,560327.7471880976,495413.29210159247,475557.79481443774,333065.8059860147,5.11947742062511e-07,0.0,0.0,0.0,5.11947742062511e-07,0.0,23.921639191861367,2.4367787977527002,0.017854024310682757,0.0
2514,5.862068965517242,1.7241379310344829,3.2142857142857144,0,265486.655074437,498600.09147978417,613609.4464503047,310009.66494108853,3257.0479045511893,1.76991103382958e-06,0.0,0.0,0.0,1.76991103382958e-06,0.0,24.04835890059933,2.7218431634707976,0.00012864524441239618,0.0
2515,5.862068965517242,1.7241379310344829,3.5714285714285716,0,87983.20308052083,286738.86105419527,189487.48082751242,212663.79359459956,-46714.476273820954,5.865546872034722e-07,0.0,0.0,0.0,5.865546872034722e-07,0.0,23.75872561542731,3.006695003215772,-0.0016447097638117767,0.0
2516,5.862068965517242,1.7241379310344829,3.928571428571429,0,207603.24091746006,347282.64803165314,210958.73949381517,108354.91964462124,26100.394944509335,1.3840216061164004e-06,0.0,0.0,0.0,1.3840216061164004e-06,0.0,24.56841547707846,3.29787698503688,0.0008848891884118207,0.0
2517,5.862068965517242,1.7241379310344829,4.285714285714286,0,113404.35720810737,282509.23252006347,179249.98010618237,161139.42186413537,868.6058563929116,7.560290480540491e-07,0.0,0.0,0.0,7.560290480540491e-07,0.0,23.471701885477174,3.5955830123990475,2.910406625196332e-05,0.0
2518,5.862068965517242,1.7241379310344829,4.642857142857143,0,51542.84857972972,270316.07083369687,241237.09896876456,210804.64602628557,5113.1745981648855,3.4361899053153143e-07,0.0,0.0,0.0,3.4361899053153143e-07,0.0,23.732727090196576,3.8970987080000588,0.00017070861427484767,0.0
2519,5.862068965517242,1.7241379310344829,5.0,0,211324.6723115888,352997.91525641416,179605.8000499637,117609.22866380308,6467.836087818718,1.4088311487439254e-06,0.0,0.0,0.0,1.4088311487439254e-06,0.0,22.019594453960845,4.200127653334346,0.00021569818095222367,0.0
2520,6.206896551724139,1.7241379310344829,0.0,0,184641.3325793471,297483.5346850617,139646.3785204815,94436.00833893789,7602.14954191793,1.2309422171956473e-06,0.0,0.0,0.0,1.2309422171956473e-06,0.0,23.412920880385123,-0.04987434892611723,0.0002535268063776012,0.0
2521,6.206896551724139,1.7241379310344829,0.35714285714285715,0,133121.46312128214,326366.11996689375,195507.23201311723,191091.937274934,19124.797432687235,8.874764208085476e-07,0.0,0.0,0.0,8.874764208085476e-07,0.0,23.711742419945725,0.25423105395675066,0.0006385011122430524,0.0
2522,6.206896551724139,1.7241379310344829,0.7142857142857143,0,49365.05212486197,238504.80557234728,189953.1878054779,240093.32889477478,-2827.6492125373325,3.291003474990798e-07,0.0,0.0,0.0,3.291003474990798e-07,0.0,23.75662171919328,0.5598259710384721,-9.474503241407114e-05,0.0
2523,6.206896551724139,1.7241379310344829,1.0714285714285714,0,64132.58653922804,219827.24228347937,177794.5350019213,251611.71529483443,-58047.470932785625,4.275505769281869e-07,0.0,0.0,0.0,4.275505769281869e-07,0.0,23.369302943266057,0.8691708011780938,-0.0019680000839940185,0.0
2524,6.206896551724139,1.7241379310344829,1.4285714285714286,0,216180.28264886994,362902.1671384194,210412.8412336677,115502.11069819253,28923.88514203303,1.4412018843257995e-06,0.0,0.0,0.0,1.4412018843257995e-06,0.0,23.45655207224286,1.1849373462889363,0.0010183437789525508,0.0
2525,6.206896551724139,1.7241379310344829,1.7857142857142858,0,300982.8907399514,476483.96640283463,476844.5141263767,175681.5114873853,83003.4972976664,2.0065526049330093e-06,0.0,0.0,0.0,2.0065526049330093e-06,0.0,24.65699831156517,1.50693474430913,0.0032784305020571547,0.0
2526,6.206896551724139,1.7241379310344829,2.142857142857143,0,608301.3711458243,848513.8963240767,479610.0513396198,146410.52449102714,186773.67337293059,4.055342474305496e-06,0.0,0.0,0.0,4.055342474305496e-06,0.0,23.64098495926324,1.8287229498559139,0.010012020582911008,0.0
2527,6.206896551724139,1.7241379310344829,2.5,0,476742.33818291174,873042.3586969902,419810.63686580333,375836.3801485404,408472.7054263891,3.178282254552745e-06,0.0,0.0,0.0,3.178282254552745e-06,0.0,23.131050239207216,2.140088867704627,0.04084727054263891,0.0
2528,6.206896551724139,1.7241379310344829,2.857142857142857,0,558895.165180611,784969.3480628417,458138.58512510726,139630.68954625152,350976.61671434937,3.7259677678707398e-06,0.0,0.0,0.0,3.7259677678707398e-06,0.0,23.518995818978123,2.435865806998771,0.018814135028806588,0.0
2529,6.206896551724139,1.7241379310344829,3.2142857142857144,0,203376.60901703968,343698.2007730572,361787.7304533746,149970.62582736515,110563.89696963245,1.3558440601135979e-06,0.0,0.0,0.0,1.3558440601135979e-06,0.0,23.530374825603086,2.7212204585948445,0.0043669973441196,0.0
2530,6.206896551724139,1.7241379310344829,3.5714285714285716,0,318352.1507911488,489470.7073145635,153747.88805056748,191933.80507727008,-90169.053657254,2.122347671940992e-06,0.0,0.0,0.0,2.122347671940992e-06,0.0,24.01471360406189,3.006365917717508,-0.003174645950742744,0.0
2531,6.206896551724139,1.7241379310344829,3.928571428571429,0,159163.50964537714,295682.1202706529,313427.6005920796,146135.01871715588,13673.600154461958,1.0610900643025143e-06,0.0,0.0,0.0,1.0610900643025143e-06,0.0,24.23443078204478,3.297742229749523,0.00046357999444353044,0.0
2532,6.206896551724139,1.7241379310344829,4.285714285714286,0,295462.6439165821,338146.82433207374,259212.0380127799,11233.525684589777,-6543.441172788264,1.9697509594438807e-06,0.0,0.0,0.0,1.9697509594438807e-06,0.0,23.382566834018043,3.595540256752758,-0.00021924874672098554,0.0
2533,6.206896551724139,1.7241379310344829,4.642857142857143,0,69859.42469814375,246337.89957034023,291670.3015520157,211219.42078284523,2193.82607020182,4.6572949798762496e-07,0.0,0.0,0.0,4.6572949798762496e-07,0.0,24.21424347094263,3.8970881968138937,7.324314889200086e-05,0.0
2534,6.206896551724139,1.7241379310344829,5.0,0,229828.39289184014,313961.09739894775,230213.7411207466,54002.85901645197,3882.445977296881,1.5321892859456008e-06,0.0,0.0,0.0,1.5321892859456008e-06,0.0,24.768696777022676,4.200125651073883,0.00012947708067701536,0.0
2535,6.551724137931035,1.7241379310344829,0.0,0,145741.62333043403,215978.81180222877,82152.77269366513,60699.711575694615,-22261.261556915026,9.716108222028934e-07,0.0,0.0,0.0,9.716108222028934e-07,0.0,24.472357798518388,-0.049876929541597524,-0.000742398780416159,0.0
2536,6.551724137931035,1.7241379310344829,0.35714285714285715,0,262763.2684143573,318559.58187798643,294210.1696042936,44469.116728361456,19067.516033166576,1.7517551227623821e-06,0.0,0.0,0.0,1.7517551227623821e-06,0.0,24.25869129632339,0.25421750660352915,0.0006365887135662294,0.0
2537,6.551724137931035,1.7241379310344829,0.7142857142857143,0,169071.2352598949,272212.6679107299,154536.19415746105,78469.7675266618,-20164.07654212511,1.1271415683992994e-06,0.0,0.0,0.0,1.1271415683992994e-06,0.0,24.17767599338646,0.5597708653792806,-0.0006756305121274771,0.0
2538,6.551724137931035,1.7241379310344829,1.0714285714285714,0,206399.36066270035,303709.1929415265,164126.7853939859,66621.06836705623,22749.30078575537,1.3759957377513357e-06,0.0,0.0,0.0,1.3759957377513357e-06,0.0,23.820111210846527,0.8689971216858228,0.0007712760803827715,0.0
2539,6.551724137931035,1.7241379310344829,1.4285714285714286,0,278298.94848189934,399876.45395851636,256596.17354396437,79131.16394623053,38413.33261568169,1.8553263232126622e-06,0.0,0.0,0.0,1.8553263232126622e-06,0.0,24.69272212064106,1.1845132041022122,0.0013524454998324962,0.0
2540,6.551724137931035,1.7241379310344829,1.7857142857142858,0,490867.9477873652,378741.9030957107,490407.38547744986,-46673.168382027725,9108.406948936368,3.272452985249101e-06,0.0,0.0,0.0,3.272452985249101e-06,0.0,24.202639189404056,1.5061321704820738,0.00035975928893036983,0.0
2541,6.551724137931035,1.7241379310344829,2.142857142857143,0,344606.2426282375,642772.0429629567,678187.9423215939,317241.37591505464,217749.00592356155,2.297374950854917e-06,0.0,0.0,0.0,2.297374950854917e-06,0.0,23.590564862340514,1.8275462407730971,0.011672456239922493,0.0
2542,6.551724137931035,1.7241379310344829,2.5,0,499300.4628463264,956403.6835595913,772206.9052668097,391172.5304362427,515559.4149875437,3.3286697523088426e-06,0.0,0.0,0.0,3.3286697523088426e-06,0.0,23.922105688539258,2.1387520757902956,0.05155594149875437,0.0
2543,6.551724137931035,1.7241379310344829,2.857142857142857,0,521820.7436899638,1057242.399687446,474861.4324481523,632181.8473697685,392861.48870556516,3.478804957933092e-06,0.0,0.0,0.0,3.478804957933092e-06,0.0,23.664373970128942,2.434689097915954,0.021059377588507844,0.0
2544,6.551724137931035,1.7241379310344829,3.2142857142857144,0,212882.66242008426,488767.5254360579,318919.9254109483,249951.31971956216,23154.92877628887,1.4192177494672285e-06,0.0,0.0,0.0,1.4192177494672285e-06,0.0,23.937525064730014,2.7204178847677882,0.0009145617623907106,0.0
2545,6.551724137931035,1.7241379310344829,3.5714285714285716,0,249320.42955756406,392378.70734622487,269903.3565165204,105507.43974234622,-9737.177679736027,1.662136197050427e-06,0.0,0.0,0.0,1.662136197050427e-06,0.0,24.619427312606003,3.0059417755307836,-0.0003428237342951171,0.0
2546,6.551724137931035,1.7241379310344829,3.928571428571429,0,216421.13818851384,295486.4693962651,203507.59516128435,48268.24687355248,9888.175761108561,1.4428075879234257e-06,0.0,0.0,0.0,1.4428075879234257e-06,0.0,23.928287065777166,3.2975685502572523,0.0003352416636883685,0.0
2547,6.551724137931035,1.7241379310344829,4.285714285714286,0,255776.36985018835,406924.34301159676,257282.78859194316,111588.0215267853,19252.902641600627,1.7051757990012557e-06,0.0,0.0,0.0,1.7051757990012557e-06,0.0,23.623865543647884,3.5954851510935666,0.0006451001336217988,0.0
2548,6.551724137931035,1.7241379310344829,4.642857142857143,0,95534.85751776063,190057.00890986776,253005.00903605676,143076.74866146734,15395.159379665154,6.368990501184041e-07,0.0,0.0,0.0,6.368990501184041e-07,0.0,24.546238237402427,3.8970746494606723,0.0005139832942896728,0.0
2549,6.551724137931035,1.7241379310344829,5.0,0,187866.62410848757,297615.36355160887,239006.2036093128,87430.73152368059,943.257458919465,1.2524441607232505e-06,0.0,0.0,0.0,1.2524441607232505e-06,0.0,24.668897241172257,4.200123070458402,3.1457030650750784e-05,0.0
2550,6.8965517241379315,1.7241379310344829,0.0,0,121149.64350699203,196365.52446992774,56681.02522649697,119934.14552748675,-8889.34294687844,8.076642900466135e-07,0.0,0.0,0.0,8.076642900466135e-07,0.0,23.52582003981672,-0.04988002726266219,-0.00029645388000993825,0.0
2551,6.8965517241379315,1.7241379310344829,0.35714285714285715,0,75111.45191941204,145125.70537857866,211160.8114203109,226838.7796204465,9656.625173832217,5.007430127960802e-07,0.0,0.0,0.0,5.007430127960802e-07,0.0,24.663203842137975,0.2542012446219339,0.0003223964037113347,0.0
2552,6.8965517241379315,1.7241379310344829,0.7142857142857143,0,186203.29975478695,309313.9926362011,198005.9385505142,94350.3404562857,-93435.1077998032,1.2413553316985796e-06,0.0,0.0,0.0,1.2413553316985796e-06,0.0,24.409219951397787,0.5597047176085015,-0.003130696791473992,0.0
2553,6.8965517241379315,1.7241379310344829,1.0714285714285714,0,269244.52480400243,309170.85721799347,220653.1969803774,6811.1127139850105,56416.04630603414,1.7949634986933495e-06,0.0,0.0,0.0,1.7949634986933495e-06,0.0,23.656744540268377,0.8687886401720843,0.001912689426167177,0.0
2554,6.8965517241379315,1.7241379310344829,1.4285714285714286,0,133438.8968134735,329624.96605893644,191943.12813322508,200878.09737616195,-2100.9313372484175,8.895926454231566e-07,0.0,0.0,0.0,8.895926454231566e-07,0.0,24.54688400247404,1.1840040719993232,-7.396898261721587e-05,0.0
2555,6.8965517241379315,1.7241379310344829,1.7857142857142858,0,265552.015474831,490071.5588453171,217828.53250132434,231758.9090142205,61870.476278715585,1.7703467698322066e-06,0.0,0.0,0.0,1.7703467698322066e-06,0.0,23.32622404277866,1.505168776334822,0.002443729038085333,0.0
2556,6.8965517241379315,1.7241379310344829,2.142857142857143,0,1003756.8250800502,1201536.2330295776,588006.7190612449,43176.551499639674,435536.32771934295,6.691712167200335e-06,0.0,0.0,0.0,6.691712167200335e-06,0.0,23.706052868633112,1.8261337418786818,0.023346966405831397,0.0
2557,6.8965517241379315,1.7241379310344829,2.5,0,358242.1384001044,827799.2025442651,548807.9669691748,423803.40029611706,438939.11655409756,2.388280922667363e-06,0.0,0.0,0.0,2.388280922667363e-06,0.0,23.40417018067744,2.1371474165515516,0.043893911655409755,0.0
2558,6.8965517241379315,1.7241379310344829,2.857142857142857,0,591832.4206084841,817531.3993313955,604557.9458093871,148685.93906082868,452801.8666404375,3.945549470723227e-06,0.0,0.0,0.0,3.945549470723227e-06,0.0,23.468059511750056,2.433276599021539,0.02427248726715693,0.0
2559,6.8965517241379315,1.7241379310344829,3.2142857142857144,0,175045.95425798016,435677.79434808466,283308.00741669786,244476.9362298713,89777.99114729799,1.1669730283865344e-06,0.0,0.0,0.0,1.1669730283865344e-06,0.0,24.386656354298285,2.7194544906205365,0.0035460060620722046,0.0
2560,6.8965517241379315,1.7241379310344829,3.5714285714285716,0,86861.39449361843,370176.13914419955,343658.7147943195,273146.7787220226,20001.908876974903,5.790759632907895e-07,0.0,0.0,0.0,5.790759632907895e-07,0.0,23.95852289574106,3.005432643427895,0.000704221420186828,0.0
2561,6.8965517241379315,1.7241379310344829,3.928571428571429,0,169485.83511656828,286448.09959027165,270765.3803868756,109665.95881377517,19559.906573108092,1.1299055674437885e-06,0.0,0.0,0.0,1.1299055674437885e-06,0.0,23.415042878219555,3.297360068743514,0.0006631451320827528,0.0
2562,6.8965517241379315,1.7241379310344829,4.285714285714286,0,76198.68704467716,267975.65286973945,221693.28265456663,180029.40188932244,-24562.695628483554,5.079912469645145e-07,0.0,0.0,0.0,5.079912469645145e-07,0.0,23.680513708963183,3.595419003322787,-0.0008230134711120617,0.0
2563,6.8965517241379315,1.7241379310344829,4.642857142857143,0,306255.0182188199,396882.23960915545,191297.38465602737,44904.56629200059,-47987.303487734505,2.0417001214587994e-06,0.0,0.0,0.0,2.0417001214587994e-06,0.0,23.647732360583095,3.897058387479077,-0.001602105682860462,0.0
2564,6.8965517241379315,1.7241379310344829,5.0,0,293196.8443879075,359461.25156401633,253274.3234751974,27965.844663020736,-34346.628210843555,1.9546456292527166e-06,0.0,0.0,0.0,1.9546456292527166e-06,0.0,24.110211849122226,4.200119972737338,-0.0011454379990974396,0.0
2565,7.241379310344828,1.7241379310344829,0.0,0,69473.82875355633,300718.86685531825,227880.14448230597,235187.59618181863,31830.132362919594,4.631588583570422e-07,0.0,0.0,0.0,4.631588583570422e-07,0.0,25.00248393883793,-0.04988357939967609,0.001061514478247349,0.0
2566,7.241379310344828,1.7241379310344829,0.35714285714285715,0,75043.71136105468,157849.87285313592,218910.0273067031,135132.39832003877,-27390.81085507769,5.002914090736979e-07,0.0,0.0,0.0,5.002914090736979e-07,0.0,23.973528674832128,0.2541825971112195,-0.0009144705065641462,0.0
2567,7.241379310344828,1.7241379310344829,0.7142857142857143,0,114899.5611194818,272499.85473528167,266853.33594366146,154881.13913757546,-48577.75535765735,7.659970741298787e-07,0.0,0.0,0.0,7.659970741298787e-07,0.0,24.0113603945204,0.5596288663810778,-0.0016276775017061275,0.0
2568,7.241379310344828,1.7241379310344829,1.0714285714285714,0,240440.4040734183,466176.4941471969,298147.10301222623,190755.99747353568,-2206.13385627034,1.602936027156122e-06,0.0,0.0,0.0,1.602936027156122e-06,0.0,24.650708359624456,0.8685495757482053,-7.479518994840255e-05,0.0
2569,7.241379310344828,1.7241379310344829,1.4285714285714286,0,209998.2586117876,335422.7902865516,158070.67128021098,103537.31058710426,24629.291320241224,1.3999883907452507e-06,0.0,0.0,0.0,1.3999883907452507e-06,0.0,23.61343782765317,1.183420253459862,0.0008671409623159216,0.0
2570,7.241379310344828,1.7241379310344829,1.7857142857142858,0,350701.0580370283,614869.0937428646,246786.7294832694,284616.55107945076,55007.73609730887,2.3380070535801887e-06,0.0,0.0,0.0,2.3380070535801887e-06,0.0,24.556038594119137,1.5040640584025158,0.0021726679687218186,0.0
2571,7.241379310344828,1.7241379310344829,2.142857142857143,0,559069.190017346,961547.918386667,405958.2459442126,399062.99429247587,326737.949294879,3.727127933448973e-06,0.0,0.0,0.0,3.727127933448973e-06,0.0,23.682082911768564,1.8245140383933798,0.01751481894895674,0.0
2572,7.241379310344828,1.7241379310344829,2.5,0,707120.5089925962,916589.4243350736,350827.58141881117,123851.10412416948,608108.633014926,4.714136726617308e-06,0.0,0.0,0.0,4.714136726617308e-06,0.0,23.718967686699447,2.135307364023375,0.060810863301492595,0.0
2573,7.241379310344828,1.7241379310344829,2.857142857142857,0,102424.96471002368,620664.9337544115,513056.74499801325,524361.054902934,324117.74153737625,6.828330980668245e-07,0.0,0.0,0.0,6.828330980668245e-07,0.0,23.738955473123813,2.4316568955362365,0.017374362462098232,0.0
2574,7.241379310344828,1.7241379310344829,3.2142857142857144,0,133987.4817765062,258379.6437982026,413066.52750183654,333149.90078425466,45300.742253365635,8.932498785100414e-07,0.0,0.0,0.0,8.932498785100414e-07,0.0,23.855030732274024,2.71834977268823,0.0017892659948611429,0.0
2575,7.241379310344828,1.7241379310344829,3.5714285714285716,0,303209.8450898833,399761.5079097267,244645.16882465704,50375.44949067264,-14720.48692766621,2.0213989672658887e-06,0.0,0.0,0.0,2.0213989672658887e-06,0.0,23.825806255941554,3.0048488248884335,-0.0005182746443753705,0.0
2576,7.241379310344828,1.7241379310344829,3.928571428571429,0,104935.1456494563,253285.1346358907,179490.82534364855,133158.2693719062,23517.943065687417,6.99567637663042e-07,0.0,0.0,0.0,6.99567637663042e-07,0.0,24.097136000507575,3.2971210043196346,0.0007973355804291938,0.0
2577,7.241379310344828,1.7241379310344829,4.285714285714286,0,186112.73775780352,304053.255138462,271763.65020508674,103908.48741188673,8090.246999772854,1.2407515850520236e-06,0.0,0.0,0.0,1.2407515850520236e-06,0.0,23.71060037068272,3.5953431520953636,0.0002710770172031022,0.0
2578,7.241379310344828,1.7241379310344829,4.642857142857143,0,17149.05197270722,219588.9916069942,213170.0829983758,200156.4613684404,-25200.73479311044,1.1432701315138147e-07,0.0,0.0,0.0,1.1432701315138147e-07,0.0,23.977705235200172,3.8970397399683625,-0.0008413525555696458,0.0
2579,7.241379310344828,1.7241379310344829,5.0,0,221246.6878248288,277185.6389646541,224978.48592081232,34504.34717232521,38116.61212906877,1.474977918832192e-06,0.0,0.0,0.0,1.474977918832192e-06,0.0,23.126386499680923,4.200116420600324,0.0012711645423089824,0.0
2580,7.586206896551724,1.7241379310344829,0.0,0,49212.081261065374,299692.44205903774,277099.09499984916,333550.88389351923,7804.20157327161,3.280805417404358e-07,0.0,0.0,0.0,3.280805417404358e-07,0.0,24.198723610701773,-0.049887525873688505,0.0002602651118987896,0.0
2581,7.586206896551724,1.7241379310344829,0.35714285714285715,0,177851.43669515013,313738.25486006413,201081.78110400192,108707.2179910233,19440.135135332563,1.1856762446343342e-06,0.0,0.0,0.0,1.1856762446343342e-06,0.0,24.378263189815247,0.2541618794654353,0.0006490289870913937,0.0
2582,7.586206896551724,1.7241379310344829,0.7142857142857143,0,146835.69262246456,232096.15922367416,332160.94422154315,163591.6387780892,-11705.203101399293,9.78904617483097e-07,0.0,0.0,0.0,9.78904617483097e-07,0.0,23.927769727467506,0.5595445946042105,-0.0003922020604034597,0.0
2583,7.586206896551724,1.7241379310344829,1.0714285714285714,0,184097.7265993877,381398.04497789027,187851.2375051701,208488.5924413642,34992.99289212062,1.2273181773292513e-06,0.0,0.0,0.0,1.2273181773292513e-06,0.0,24.195647709537294,0.8682839718223316,0.0011863774914610335,0.0
2584,7.586206896551724,1.7241379310344829,1.4285714285714286,0,235046.237588899,314925.4701935414,393232.4663517185,129028.43046120953,-52199.9359856908,1.5669749172593267e-06,0.0,0.0,0.0,1.5669749172593267e-06,0.0,23.407738790805784,1.1827716228791898,-0.0018378402421291467,0.0
2585,7.586206896551724,1.7241379310344829,1.7857142857142858,0,128075.34340794712,340721.10836164956,258728.95091282096,193135.82672845814,139794.50246241235,8.538356227196475e-07,0.0,0.0,0.0,8.538356227196475e-07,0.0,24.589981027031666,1.502836701294994,0.005521533137924319,0.0
2586,7.586206896551724,1.7241379310344829,2.142857142857143,0,463333.5101479585,742444.4508286264,609849.449004944,227268.4967197514,139106.21169886395,3.0888900676530567e-06,0.0,0.0,0.0,3.0888900676530567e-06,0.0,23.93102201628012,1.8227145251179746,0.00745680175149167,0.0
2587,7.586206896551724,1.7241379310344829,2.5,0,607560.1883709162,899187.838425354,510371.2307452046,199066.5560219655,392349.78975514235,4.050401255806108e-06,0.0,0.0,0.0,4.050401255806108e-06,0.0,23.038094213238892,2.1332630398727237,0.039234978975514236,0.0
2588,7.586206896551724,1.7241379310344829,2.857142857142857,0,403756.27007112134,783371.3625417928,701244.6640590817,344865.5273115942,305376.74420795846,2.691708467140809e-06,0.0,0.0,0.0,2.691708467140809e-06,0.0,24.453088433787066,2.4298573822608316,0.016369749512007776,0.0
2589,7.586206896551724,1.7241379310344829,3.2142857142857144,0,414430.8516380186,651839.6924487689,309598.7009645358,191053.42620497532,26772.358657410357,2.7628723442534576e-06,0.0,0.0,0.0,2.7628723442534576e-06,0.0,24.20899617327362,2.7171224155807083,0.0010574411933475926,0.0
2590,7.586206896551724,1.7241379310344829,3.5714285714285716,0,208213.69726492968,340705.8238535941,271136.35350275546,106614.76583552228,-7246.476812487065,1.3880913150995313e-06,0.0,0.0,0.0,1.3880913150995313e-06,0.0,24.790680057379546,3.0042001943077614,-0.0002551318588454823,0.0
2591,7.586206896551724,1.7241379310344829,3.928571428571429,0,178980.7034611761,300370.2246820675,175374.10508917723,95337.7136939987,-16146.145003798756,1.193204689741174e-06,0.0,0.0,0.0,1.193204689741174e-06,0.0,24.6915352300827,3.296855400393761,-0.0005474073928293826,0.0
2592,7.586206896551724,1.7241379310344829,4.285714285714286,0,99059.14481710184,232791.38869123964,265074.84858635423,153901.2932601589,-23385.851749068748,6.60394298780679e-07,0.0,0.0,0.0,6.60394298780679e-07,0.0,24.535241729690668,3.595258880318496,-0.0007835813834941621,0.0
2593,7.586206896551724,1.7241379310344829,4.642857142857143,0,241451.50071152492,346606.78798339225,169371.50724352125,71603.6099726788,9437.847081392056,1.6096766714101662e-06,0.0,0.0,0.0,1.6096766714101662e-06,0.0,24.106058572503663,3.8970190223225787,0.00031509227116566365,0.0
2594,7.586206896551724,1.7241379310344829,5.0,0,204261.07492644,308658.11676351324,308604.8776428055,104370.42748036137,-1445.6101311333657,1.3617404995095999e-06,0.0,0.0,0.0,1.3617404995095999e-06,0.0,24.23031741889746,4.200112474126311,-4.8210169741134005e-05,0.0
2595,7.931034482758621,1.7241379310344829,0.0,0,116930.74807315019,280464.20228444104,153337.86584238397,177505.97368698716,27092.33269116185,7.795383204876679e-07,0.0,0.0,0.0,7.795383204876679e-07,0.0,23.204763796822178,-0.049891811683883444,0.0009035119010269921,0.0
2596,7.931034482758621,1.7241379310344829,0.35714285714285715,0,55009.98287671856,189586.25455237622,131953.6053332155,137640.80276335502,2455.270817510288,3.6673321917812376e-07,0.0,0.0,0.0,3.6673321917812376e-07,0.0,23.610317378582415,0.25413938042015144,8.197175177180164e-05,0.0
2597,7.931034482758621,1.7241379310344829,0.7142857142857143,0,295998.5754984819,395975.33501581056,273524.53134674544,58399.598989819955,-12801.278175813552,1.973323836656546e-06,0.0,0.0,0.0,1.973323836656546e-06,0.0,25.245670568536738,0.5594530767481931,-0.0004289278565146572,0.0
2598,7.931034482758621,1.7241379310344829,1.0714285714285714,0,98496.01762382861,238802.85122620667,184110.51674909034,125096.81541528452,24716.31542458463,6.566401174921908e-07,0.0,0.0,0.0,6.566401174921908e-07,0.0,22.894454237690557,0.8679955300361334,0.0008379643428036418,0.0
2599,7.931034482758621,1.7241379310344829,1.4285714285714286,0,125722.07195249354,324331.5569708377,256948.1955691665,179281.66449068702,-62771.48392041298,8.38147146349957e-07,0.0,0.0,0.0,8.38147146349957e-07,0.0,23.918144054352243,1.1820672200257434,-0.0022100402429367258,0.0
2600,7.931034482758621,1.7241379310344829,1.7857142857142858,0,240342.10030146432,564672.3241058224,334878.14555452875,315015.0708154665,-80531.34728838682,1.6022806686764287e-06,0.0,0.0,0.0,1.6022806686764287e-06,0.0,23.748035455329962,1.5015038103174514,-0.0031807867610107055,0.0
2601,7.931034482758621,1.7241379310344829,2.142857142857143,0,349962.0332796124,593844.8010998159,341525.1722363306,194327.11060658982,170481.25700041797,2.3330802218640828e-06,0.0,0.0,0.0,2.3330802218640828e-06,0.0,24.199165771393336,1.8207602813253114,0.009138664048656573,0.0
2602,7.931034482758621,1.7241379310344829,2.5,0,371933.47096767364,644177.0349958781,628840.2170729501,264812.38804153295,498448.9383321259,2.4795564731178243e-06,0.0,0.0,0.0,2.4795564731178243e-06,0.0,23.876536145504495,2.1310429352276485,0.04984489383321259,0.0
2603,7.931034482758621,1.7241379310344829,2.857142857142857,0,468512.9486939388,449048.18941611855,743963.0941659232,203729.26481399388,324998.03530410235,3.123419657959592e-06,0.0,0.0,0.0,3.123419657959592e-06,0.0,24.389248209695566,2.4279031384681686,0.01742155069346033,0.0
2604,7.931034482758621,1.7241379310344829,3.2142857142857144,0,411284.3421211001,602889.3138397406,474548.9641749191,142737.6040086387,-85243.99811029759,2.7418956141406675e-06,0.0,0.0,0.0,2.7418956141406675e-06,0.0,23.79427070057861,2.715789524603166,-0.0033669246793286514,0.0
2605,7.931034482758621,1.7241379310344829,3.5714285714285716,0,132468.0757780459,327722.3386581594,274532.655850666,176926.31234675256,4196.552075816586,8.831205051869726e-07,0.0,0.0,0.0,8.831205051869726e-07,0.0,24.178565122673287,3.003495791454315,0.0001477509912127196,0.0
2606,7.931034482758621,1.7241379310344829,3.928571428571429,0,295227.44423029694,501827.7035580043,291974.9142753194,164241.47364322905,-11020.233866738869,1.968182961535313e-06,0.0,0.0,0.0,1.968182961535313e-06,0.0,23.979009168964083,3.2965669586075625,-0.00037362215488231346,0.0
2607,7.931034482758621,1.7241379310344829,4.285714285714286,0,83955.70040051515,246125.87569402688,149954.7851341812,187462.02075998008,4212.091219281273,5.597046693367677e-07,0.0,0.0,0.0,5.597046693367677e-07,0.0,23.655095583119294,3.595167362462479,0.00014113303635132564,0.0
2608,7.931034482758621,1.7241379310344829,4.642857142857143,0,115621.36335452182,249807.9354839244,194438.43993320974,116914.04416199644,-58418.91303880641,7.708090890301454e-07,0.0,0.0,0.0,7.708090890301454e-07,0.0,23.588620229728576,3.8969965232772945,-0.001950375740323171,0.0
2609,7.931034482758621,1.7241379310344829,5.0,0,220508.03758399078,271562.4569270756,238567.78161500883,36416.29537772429,80075.6679925048,1.4700535838932718e-06,0.0,0.0,0.0,1.4700535838932718e-06,0.0,24.449302489526406,4.200108188316117,0.002670472116176113,0.0
2610,8.275862068965518,1.7241379310344829,0.0,0,146820.81830090532,334000.8897686258,214651.06658881463,170051.976305011,1035.389924870916,9.788054553393689e-07,0.0,0.0,0.0,9.788054553393689e-07,0.0,23.988825199265662,-0.04989638805878906,3.452958923797262e-05,0.0
2611,8.275862068965518,1.7241379310344829,0.35714285714285715,0,130939.33824689663,288616.5824527123,207276.573916008,137570.11982945612,-38776.30982491681,8.729289216459775e-07,0.0,0.0,0.0,8.729289216459775e-07,0.0,24.179187824331336,0.2541153560090007,-0.0012945871473427535,0.0
2612,8.275862068965518,1.7241379310344829,0.7142857142857143,0,219811.00261172172,358732.08258705755,146971.49617338885,131670.2421031122,4141.311359901575,1.4654066840781448e-06,0.0,0.0,0.0,1.4654066840781448e-06,0.0,24.31321902510968,0.5593553542638455,0.00013876144087849988,0.0
2613,8.275862068965518,1.7241379310344829,1.0714285714285714,0,198592.39833434686,264820.4560503878,93422.37424892376,47189.75161784144,49430.588307646285,1.323949322228979e-06,0.0,0.0,0.0,1.323949322228979e-06,0.0,23.43166301089127,0.8676875327865949,0.0016758594367352105,0.0
2614,8.275862068965518,1.7241379310344829,1.4285714285714286,0,171969.6449469574,276908.3719447242,330436.27721852926,138068.48615711584,-44422.3853651486,1.1464642996463828e-06,0.0,0.0,0.0,1.1464642996463828e-06,0.0,23.559877997294482,1.1813150608317238,-0.001564010490315902,0.0
2615,8.275862068965518,1.7241379310344829,1.7857142857142858,0,296762.11834196176,350994.32508214226,410349.0467983813,88395.24549338048,-24196.088632328305,1.978414122279745e-06,0.0,0.0,0.0,1.978414122279745e-06,0.0,23.529624220134362,1.5000805534432362,-0.0009556849721431399,0.0
2616,8.275862068965518,1.7241379310344829,2.142857142857143,0,290901.4801123044,450945.7032960391,714970.3880600804,403119.51947200485,296705.5360341769,1.939343200748696e-06,0.0,0.0,0.0,1.939343200748696e-06,0.0,24.22032550835164,1.8186735458318144,0.015904928570454297,0.0
2617,8.275862068965518,1.7241379310344829,2.5,0,481966.2597205619,856524.5086495624,585313.0026212679,300056.8842839866,548216.3467487172,3.2131083981370795e-06,0.0,0.0,0.0,3.2131083981370795e-06,0.0,23.754932848119868,2.128672314336054,0.05482163467487172,0.0
2618,8.275862068965518,1.7241379310344829,2.857142857142857,0,455378.53697997355,763212.4414630645,452699.2302311439,240456.48730366587,363902.11363367626,3.035856913199824e-06,0.0,0.0,0.0,3.035856913199824e-06,0.0,23.805860963280953,2.425816402974671,0.019507007524504953,0.0
2619,8.275862068965518,1.7241379310344829,3.2142857142857144,0,389605.75384215306,478901.82736190036,384403.80498554796,50739.13008180753,138601.62766315514,2.5973716922810202e-06,0.0,0.0,0.0,2.5973716922810202e-06,0.0,23.19159290113953,2.7143662677289506,0.005474417567444253,0.0
2620,8.275862068965518,1.7241379310344829,3.5714285714285716,0,214243.00702302746,477793.3279423235,333216.7743402644,231656.60803730125,34655.58274992052,1.4282867134868497e-06,0.0,0.0,0.0,1.4282867134868497e-06,0.0,24.135718614609875,3.0027436322602954,0.0012201437298639578,0.0
2621,8.275862068965518,1.7241379310344829,3.928571428571429,0,260180.9167808407,410132.05320689996,215242.40714245418,114678.066625171,-45480.376097759196,1.7345394452056047e-06,0.0,0.0,0.0,1.7345394452056047e-06,0.0,24.157008850590838,3.296258961358024,-0.0015419342572927906,0.0
2622,8.275862068965518,1.7241379310344829,4.285714285714286,0,154496.7164243586,298192.58307936724,274963.82950498234,133396.7643958274,-34225.25315667757,1.0299781094957241e-06,0.0,0.0,0.0,1.0299781094957241e-06,0.0,24.01367532142092,3.5950696399781314,-0.0011467733357206152,0.0
2623,8.275862068965518,1.7241379310344829,4.642857142857143,0,108391.34460055675,204275.73257475987,158885.9092236636,80568.41306515477,-25431.8733720965,7.226089640037117e-07,0.0,0.0,0.0,7.226089640037117e-07,0.0,23.819311389867295,3.896972498866144,-0.0008490693557231802,0.0
2624,8.275862068965518,1.7241379310344829,5.0,0,233238.83936174973,282412.05612851173,212674.23047547258,22259.249200114908,24769.943767297165,1.5549255957449982e-06,0.0,0.0,0.0,1.5549255957449982e-06,0.0,24.264262937887413,4.200103611941211,0.0008260617214708579,0.0
2625,8.620689655172415,1.7241379310344829,0.0,0,173303.84231458622,294776.52103861794,229774.72295568523,98369.25712534986,20322.210869301078,1.155358948763908e-06,0.0,0.0,0.0,1.155358948763908e-06,0.0,23.580441148925395,-0.04990121268581896,0.0006777326849224586,0.0
2626,8.620689655172415,1.7241379310344829,0.35714285714285715,0,195996.07663933095,290994.56472200877,316692.7299125747,109115.20746479028,42264.81603645321,1.306640510928873e-06,0.0,0.0,0.0,1.306640510928873e-06,0.0,24.319475948384994,0.2540900283586648,0.0014110545297541244,0.0
2627,8.620689655172415,1.7241379310344829,0.7142857142857143,0,120185.43297569257,289195.54741885385,249223.4493849984,154117.3099891864,18762.642990403063,8.012362198379505e-07,0.0,0.0,0.0,8.012362198379505e-07,0.0,23.971855539993793,0.5592523306809578,0.0006286731785603032,0.0
2628,8.620689655172415,1.7241379310344829,1.0714285714285714,0,224809.36431753283,301010.99868324987,363306.925735955,113919.04058815334,-21505.22678660051,1.498729095450219e-06,0.0,0.0,0.0,1.498729095450219e-06,0.0,22.988038518847112,0.8673628277775193,-0.0007290978821686492,0.0
2629,8.620689655172415,1.7241379310344829,1.4285714285714286,0,240875.53873594519,371288.15680053964,173216.93986338863,103146.45758680833,-2861.075260552334,1.6058369249063012e-06,0.0,0.0,0.0,1.6058369249063012e-06,0.0,23.557109754866563,1.1805220996663675,-0.00010073190992120385,0.0
2630,8.620689655172415,1.7241379310344829,1.7857142857142858,0,410168.76872017625,503157.87419039744,418476.22369211784,57257.657543794514,-23521.346663518023,2.734458458134508e-06,0.0,0.0,0.0,2.734458458134508e-06,0.0,23.791086490682662,1.4985800899262678,-0.0009290343523068127,0.0
2631,8.620689655172415,1.7241379310344829,2.142857142857143,0,467497.50587894506,889614.8361359454,628464.7462371138,349888.97435683245,375753.1123808369,3.116650039192967e-06,0.0,0.0,0.0,3.116650039192967e-06,0.0,23.285037005712113,1.8164736123312073,0.020142281443156818,0.0
2632,8.620689655172415,1.7241379310344829,2.5,0,742860.6340605088,1077296.541380334,828032.9930952741,241860.51552075255,516899.9774786768,4.9524042270700585e-06,0.0,0.0,0.0,4.9524042270700585e-06,0.0,24.177869798585245,2.1261730956603233,0.051689997747867686,0.0
2633,8.620689655172415,1.7241379310344829,2.857142857142857,0,207810.49566939895,698488.0054265072,458895.3268416157,567215.0208598993,426666.57823289296,1.3854033044626596e-06,0.0,0.0,0.0,1.3854033044626596e-06,0.0,22.654784844286766,2.423616469474064,0.022871502638267715,0.0
2634,8.620689655172415,1.7241379310344829,3.2142857142857144,0,426475.19359182403,722961.5330978378,597690.3570530157,247880.26369611576,95321.56550686441,2.843167957278827e-06,0.0,0.0,0.0,2.843167957278827e-06,0.0,24.049455745247023,2.7128658042119826,0.003764963381492714,0.0
2635,8.620689655172415,1.7241379310344829,3.5714285714285716,0,103165.01778242522,323521.9945943107,282721.073464202,206196.38496953555,83042.59685856999,6.877667852161681e-07,0.0,0.0,0.0,6.877667852161681e-07,0.0,23.997469277355012,3.001950671094939,0.00292373972181544,0.0
2636,8.620689655172415,1.7241379310344829,3.928571428571429,0,98396.33244249373,234227.65998706222,167102.96041699967,121276.74510065517,14757.997961703728,6.559755496166248e-07,0.0,0.0,0.0,6.559755496166248e-07,0.0,22.66328185674031,3.2959342563489487,0.0005003446448484695,0.0
2637,8.620689655172415,1.7241379310344829,4.285714285714286,0,186236.83791023828,361691.164554018,234189.7327452335,147968.1230030693,13484.58797957594,1.2415789194015885e-06,0.0,0.0,0.0,1.2415789194015885e-06,0.0,23.713516271374765,3.5949666163952436,0.0004518232741001458,0.0
2638,8.620689655172415,1.7241379310344829,4.642857142857143,0,181984.03894364944,280255.42787172407,213534.7673560897,74327.84832971674,-6114.7943487157,1.2132269262909962e-06,0.0,0.0,0.0,1.2132269262909962e-06,0.0,23.449012118749003,3.896947171215808,-0.00020414872400789189,0.0
2639,8.620689655172415,1.7241379310344829,5.0,0,338287.45710157993,356483.662961741,420926.1400295855,55052.71883492669,-12881.74023586512,2.255249714010533e-06,0.0,0.0,0.0,2.255249714010533e-06,0.0,24.379998622014394,4.2000987873141815,-0.0004295977663392284,0.0
2640,8.965517241379311,1.7241379310344829,0.0,0,163678.9590010784,184770.20392318856,323800.7317092093,143408.57266968038,-9203.592520266511,1.0911930600071892e-06,0.0,0.0,0.0,1.0911930600071892e-06,0.0,23.111654250932975,-0.049906249384656744,-0.0003069339015232353,0.0
2641,8.965517241379311,1.7241379310344829,0.35714285714285715,0,244762.97764439145,455014.7930033392,252664.77262959565,182960.3891892426,35559.70718913658,1.631753184295943e-06,0.0,0.0,0.0,1.631753184295943e-06,0.0,23.934722461355676,0.25406358740349455,0.0011871975465996187,0.0
2642,8.965517241379311,1.7241379310344829,0.7142857142857143,0,349441.7244987791,405042.63141452934,241933.56770531862,3869.430169963098,-48145.26861234734,2.3296114966585273e-06,0.0,0.0,0.0,2.3296114966585273e-06,0.0,24.039030630340992,0.5591447785827378,-0.001613186322771565,0.0
2643,8.965517241379311,1.7241379310344829,1.0714285714285714,0,191865.3211740738,257452.49806575046,327454.7875952869,110417.76432109487,2565.172775072517,1.279102141160492e-06,0.0,0.0,0.0,1.279102141160492e-06,0.0,23.34830852411362,0.8670238500012687,8.696778956394791e-05,0.0
2644,8.965517241379311,1.7241379310344829,1.4285714285714286,0,73793.98192888746,301042.098351449,384624.0219870753,328476.936042353,-65857.08564593755,4.919598795259164e-07,0.0,0.0,0.0,4.919598795259164e-07,0.0,24.19821063713721,1.179694283017494,-0.002318677215669924,0.0
2645,8.965517241379311,1.7241379310344829,1.7857142857142858,0,660473.6286955636,817139.9423582981,72066.38223332295,303626.3673815179,87340.73634163867,4.403157524637091e-06,0.0,0.0,0.0,4.403157524637091e-06,0.0,23.346313368186365,1.497013671878776,0.0034497405942750608,0.0
2646,8.965517241379311,1.7241379310344829,2.142857142857143,0,122147.5340625404,773446.0132520039,751739.8843702715,641900.5586024477,300576.74533674866,8.143168937502693e-07,0.0,0.0,0.0,8.143168937502693e-07,0.0,24.225079911441362,1.8141769783246733,0.016112445114505533,0.0
2647,8.965517241379311,1.7241379310344829,2.5,0,542640.4437061487,889385.0512616934,753206.8974811264,291625.9979046546,669696.7329054564,3.617602958040991e-06,0.0,0.0,0.0,3.617602958040991e-06,0.0,24.865724880144246,2.1235640210683577,0.06696967329054565,0.0
2648,8.965517241379311,1.7241379310344829,2.857142857142857,0,187513.70856916075,496070.740611892,397164.66546248086,279810.68242574926,274813.9133819463,1.2500913904610716e-06,0.0,0.0,0.0,1.2500913904610716e-06,0.0,24.033399540950985,2.4213198354675303,0.014731426049304977,0.0
2649,8.965517241379311,1.7241379310344829,3.2142857142857144,0,191713.6929131328,569381.5090241879,536436.644014957,363330.2882743322,48766.11768150871,1.2780912860875521e-06,0.0,0.0,0.0,1.2780912860875521e-06,0.0,23.879099323933737,2.7112993861644905,0.0019261396553041593,0.0
2650,8.965517241379311,1.7241379310344829,3.5714285714285716,0,236592.83755791633,407999.53641122225,491262.42727727024,224294.25816792663,32404.474203938324,1.577285583719442e-06,0.0,0.0,0.0,1.577285583719442e-06,0.0,23.341192271032565,3.0011228544460655,0.001140887351535429,0.0
2651,8.965517241379311,1.7241379310344829,3.928571428571429,0,243408.6327388449,420476.6723563225,298449.85048007645,140192.07418904925,4866.157923267782,1.622724218258966e-06,0.0,0.0,0.0,1.622724218258966e-06,0.0,24.51101086530521,3.295595278572698,0.0001649787501131289,0.0
2652,8.965517241379311,1.7241379310344829,4.285714285714286,0,247982.67320580606,257131.75325134984,328503.74757495127,52661.686508860475,55088.266771947274,1.6532178213720404e-06,0.0,0.0,0.0,1.6532178213720404e-06,0.0,24.031336857328245,3.5948590642970237,0.0018458228827682897,0.0
2653,8.965517241379311,1.7241379310344829,4.642857142857143,0,142746.02433606252,247685.86587587645,377547.0136655044,224704.6135763606,-17138.172230510376,9.516401622404168e-07,0.0,0.0,0.0,9.516401622404168e-07,0.0,23.361736791376067,3.896920730260638,-0.000572175578303958,0.0
2654,8.965517241379311,1.7241379310344829,5.0,0,174375.2609641714,387922.54256611905,189994.23842503512,320974.3466924301,-20210.67114638019,1.1625017397611427e-06,0.0,0.0,0.0,1.1625017397611427e-06,0.0,24.346246276718496,4.200093750615343,-0.0006740129067754425,0.0
2655,9.310344827586208,1.7241379310344829,0.0,0,387662.40099297854,458251.28232386505,125300.28525550858,32662.174909274465,47177.20195477227,2.584416006619857e-06,0.0,0.0,0.0,2.584416006619857e-06,0.0,23.50811301987042,-0.04991146749922844,0.0015733293957812624,0.0
2656,9.310344827586208,1.7241379310344829,0.35714285714285715,0,56538.369848867835,261637.33804562845,317188.59593283146,259712.28390736354,-14008.987400666325,3.769224656591189e-07,0.0,0.0,0.0,3.769224656591189e-07,0.0,23.796328678089445,0.25403619407744765,-0.0004677045112873399,0.0
2657,9.310344827586208,1.7241379310344829,0.7142857142857143,0,304589.04665746493,465529.8417788796,248964.95598929032,117249.01341886987,-15810.243597113918,2.0305936443830994e-06,0.0,0.0,0.0,2.0305936443830994e-06,0.0,23.257438744920357,0.5590333525894406,-0.0005297481863879331,0.0
2658,9.310344827586208,1.7241379310344829,1.0714285714285714,0,249720.34807694316,397283.5917301533,167652.40524292618,131430.28502390525,15359.290853583694,1.6648023205129543e-06,0.0,0.0,0.0,1.6648023205129543e-06,0.0,22.998081769387262,0.8666726626599758,0.0005207304505125096,0.0
2659,9.310344827586208,1.7241379310344829,1.4285714285714286,0,311237.3326019006,558307.5427095098,313607.12107320025,208010.06837760867,-1748.3884296937422,2.0749155506793375e-06,0.0,0.0,0.0,2.0749155506793375e-06,0.0,23.02881214755649,1.178836649425075,-6.155675393634533e-05,0.0
2660,9.310344827586208,1.7241379310344829,1.7857142857142858,0,503183.6589325841,647208.7214387084,555015.7879784862,104303.29556858497,48695.232434502395,3.3545577262172273e-06,0.0,0.0,0.0,3.3545577262172273e-06,0.0,23.28615249360941,1.4953908333684272,0.0019233398653736467,0.0
2661,9.310344827586208,1.7241379310344829,2.142857142857143,0,236424.604133491,481947.4965696714,651816.3310162112,381800.7754981154,299414.23495641316,1.5761640275566066e-06,0.0,0.0,0.0,1.5761640275566066e-06,0.0,23.73816915638012,1.8117976223692516,0.016050128634642086,0.0
2662,9.310344827586208,1.7241379310344829,2.5,0,884118.2149535599,1109555.7379081028,620956.2120664567,88971.30070653747,816177.6844217026,5.894121433023733e-06,0.0,0.0,0.0,5.894121433023733e-06,0.0,23.33726943111061,2.120860970799629,0.08161776844217025,0.0
2663,9.310344827586208,1.7241379310344829,2.857142857142857,0,633806.7916781579,1178772.6972589483,637318.2775274477,481628.575565961,352161.3434240575,4.225378611187719e-06,0.0,0.0,0.0,4.225378611187719e-06,0.0,23.095402248044078,2.4189404795121083,0.018877642417125914,0.0
2664,9.310344827586208,1.7241379310344829,3.2142857142857144,0,91669.58186641337,539091.7208846213,456942.36903520336,555826.4320229444,32244.954728743418,6.111305457760891e-07,0.0,0.0,0.0,6.111305457760891e-07,0.0,23.020228583445427,2.709676547654142,0.0012735950479418722,0.0
2665,9.310344827586208,1.7241379310344829,3.5714285714285716,0,288858.76108899177,422688.15265370806,143936.296373535,124685.50601028891,-7844.405542667489,1.925725073926612e-06,0.0,0.0,0.0,1.925725073926612e-06,0.0,24.133759937490428,3.0002652208536467,-0.00027618356056695553,0.0
2666,9.310344827586208,1.7241379310344829,3.928571428571429,0,204404.8225115217,380432.176652727,264766.1234029808,144421.27665355738,14248.088705673843,1.362698816743478e-06,0.0,0.0,0.0,1.362698816743478e-06,0.0,23.444004357016073,3.295244091231405,0.00048305704484504977,0.0
2667,9.310344827586208,1.7241379310344829,4.285714285714286,0,19299.381318221123,160788.73735841629,165012.17043831767,143950.83440269376,55934.78092350776,1.2866254212147416e-07,0.0,0.0,0.0,1.2866254212147416e-07,0.0,22.531164923726536,3.5947476383037267,0.0018741867301553562,0.0
2668,9.310344827586208,1.7241379310344829,4.642857142857143,0,248810.70585781249,509055.4610624602,317353.4056855076,227881.71802950237,-6452.24687265691,1.6587380390520833e-06,0.0,0.0,0.0,1.6587380390520833e-06,0.0,23.51085170794028,3.896893336934591,-0.00021541492500291143,0.0
2669,9.310344827586208,1.7241379310344829,5.0,0,150159.9875041891,312682.5790703822,147922.36634119754,183520.2530776707,-32911.133367062335,1.0010665833612607e-06,0.0,0.0,0.0,1.0010665833612607e-06,0.0,23.3117650272974,4.2000885325007715,-0.0010975651676951319,0.0
2670,9.655172413793103,1.7241379310344829,0.0,0,186222.00613683654,453873.51156535326,372010.5120585537,240743.07873326016,79092.42459038497,1.2414800409122436e-06,0.0,0.0,0.0,1.2414800409122436e-06,0.0,23.475870203611386,-0.04991684118825477,0.0026376815799920013,0.0
2671,9.655172413793103,1.7241379310344829,0.35714285714285715,0,244352.78188204588,405115.29632076266,254848.02442535252,123165.09367365643,5588.3325159606275,1.629018545880306e-06,0.0,0.0,0.0,1.629018545880306e-06,0.0,23.0947606228132,0.25400798403844793,0.00018657225205043714,0.0
2672,9.655172413793103,1.7241379310344829,0.7142857142857143,0,297037.49249156186,517605.46903345874,244593.340127368,201295.1914810042,-4375.172533342934,1.980249949943746e-06,0.0,0.0,0.0,1.980249949943746e-06,0.0,24.026545673362808,0.5589186045076956,-0.00014659734370543222,0.0
2673,9.655172413793103,1.7241379310344829,1.0714285714285714,0,522313.94268361595,460698.1186510131,323359.2206028678,-116562.89050151326,3333.9172262520615,3.4820929512241063e-06,0.0,0.0,0.0,3.4820929512241063e-06,0.0,23.31114688276846,0.8663110049124959,0.00011303075355152773,0.0
2674,9.655172413793103,1.7241379310344829,1.4285714285714286,0,209411.9943911477,471901.34111383394,260850.39327244266,264167.714600912,-55446.79136468813,1.3960799626076513e-06,0.0,0.0,0.0,1.3960799626076513e-06,0.0,23.287378160056132,1.1779534460839314,-0.0019521545868350582,0.0
2675,9.655172413793103,1.7241379310344829,1.7857142857142858,0,450151.10009212344,582560.469823175,536066.2346178788,110966.69227573051,71496.48759011985,3.0010073339474897e-06,0.0,0.0,0.0,3.0010073339474897e-06,0.0,23.239290185628455,1.4937196110572373,0.0028239324044962827,0.0
2676,9.655172413793103,1.7241379310344829,2.142857142857143,0,777967.805797135,1218619.4110812533,581768.3394507108,351514.1496709124,476196.32423080865,5.186452038647567e-06,0.0,0.0,0.0,5.186452038647567e-06,0.0,23.638891600866604,1.809347327571829,0.025526549398564267,0.0
2677,9.655172413793103,1.7241379310344829,2.5,0,81686.71954400634,773221.82400564,727892.014882569,678921.5479192034,864355.0397202193,5.445781302933756e-07,0.0,0.0,0.0,5.445781302933756e-07,0.0,23.604248466223627,2.1180773309682097,0.08643550397202193,0.0
2678,9.655172413793103,1.7241379310344829,2.857142857142857,0,960039.3629027035,1186679.6875859085,820845.6276318162,97506.81141764579,358722.16445520986,6.4002624193513566e-06,0.0,0.0,0.0,6.4002624193513566e-06,0.0,23.216095632697908,2.4164901847146862,0.019229335854527747,0.0
2679,9.655172413793103,1.7241379310344829,3.2142857142857144,0,189236.1580365456,553403.305623629,334999.2872734437,438277.86122888577,88049.06012565843,1.261574386910304e-06,0.0,0.0,0.0,1.261574386910304e-06,0.0,23.428179557181224,2.7080053253429517,0.0034777176118040336,0.0
2680,9.655172413793103,1.7241379310344829,3.5714285714285716,0,416748.86088936223,619184.5026654414,221405.13303306256,185756.35005829122,67524.57094273313,2.778325739262415e-06,0.0,0.0,0.0,2.778325739262415e-06,0.0,23.29447978511372,2.9993820175125028,0.002377385555512518,0.0
2681,9.655172413793103,1.7241379310344829,3.928571428571429,0,134766.6260104022,439840.2338507484,319419.6287344694,294270.6793992171,1872.168232972163,8.984441734026813e-07,0.0,0.0,0.0,8.984441734026813e-07,0.0,23.850575608938808,3.294882433483925,6.347265747385316e-05,0.0
2682,9.655172413793103,1.7241379310344829,4.285714285714286,0,325828.6153220334,466859.5681247199,287281.0912044067,90752.38657871854,29761.824812990988,2.172190768813556e-06,0.0,0.0,0.0,2.172190768813556e-06,0.0,22.786062456429274,3.5946328902219813,0.0009972188360940508,0.0
2683,9.655172413793103,1.7241379310344829,4.642857142857143,0,359767.17429400166,419024.2566676289,302494.0248104804,15436.178141749207,17492.881890552453,2.398447828626678e-06,0.0,0.0,0.0,2.398447828626678e-06,0.0,23.26488770902369,3.896865126895591,0.0005840179266089459,0.0
2684,9.655172413793103,1.7241379310344829,5.0,0,135619.43287791932,267722.6376288852,315537.1489755401,162486.71712693456,-27380.286167529513,9.041295525194621e-07,0.0,0.0,0.0,9.041295525194621e-07,0.0,23.342151874214753,4.200083158811745,-0.0009131149645876707,0.0
2685,10.0,1.7241379310344829,0.0,0,121817.44000015293,371253.81075349625,319063.2560094808,232036.483431778,-41084.34395089495,8.121162666676862e-07,0.0,0.0,0.0,8.121162666676862e-07,0.0,23.989465681411946,-0.04992234871934774,-0.0013701364931794661,0.0
2686,10.0,1.7241379310344829,0.35714285714285715,0,233251.7815564895,508860.88484843186,368530.3534808979,239605.43840766352,47515.056738876774,1.5550118770432634e-06,0.0,0.0,0.0,1.5550118770432634e-06,0.0,23.88453140463549,0.25397907137413783,0.0015863392374661977,0.0
2687,10.0,1.7241379310344829,0.7142857142857143,0,339363.6659174068,464972.04598138505,323750.48189273337,77801.5537366494,-120345.19923301892,2.2624244394493785e-06,0.0,0.0,0.0,2.2624244394493785e-06,0.0,23.497671223632516,0.5588009984041468,-0.004032363615562759,0.0
2688,10.0,1.7241379310344829,1.0714285714285714,0,494690.4005107676,573088.244790318,138399.60932570524,34803.22380281776,-30699.52992156686,3.2979360034051173e-06,0.0,0.0,0.0,3.2979360034051173e-06,0.0,22.80912227945533,0.8659403393828203,-0.0010408149828642524,0.0
2689,10.0,1.7241379310344829,1.4285714285714286,0,396922.03677969554,582191.7114866162,188786.82818266825,181843.61771852823,-68398.42779746262,2.646146911864637e-06,0.0,0.0,0.0,2.646146911864637e-06,0.0,23.33968477917219,1.1770482448638897,-0.002408152054803293,0.0
2690,10.0,1.7241379310344829,1.7857142857142858,0,389290.7066174848,622527.7003712098,837787.9912022115,388405.728525888,163157.26612923134,2.5952713774498988e-06,0.0,0.0,0.0,2.5952713774498988e-06,0.0,24.25562251789196,1.4920067637381913,0.00644430385857208,0.0
2691,10.0,1.7241379310344829,2.142857142857143,0,346295.14774938225,961357.0657050442,800397.2777187151,563876.7153347421,587295.6396910264,2.308634318329215e-06,0.0,0.0,0.0,2.308634318329215e-06,0.0,23.24618643506782,1.8068360034669901,0.03148203880479359,0.0
2692,10.0,1.7241379310344829,2.5,0,357994.0894280516,1373041.3992889777,1197426.0128128778,961151.6252595681,678818.5737474787,2.3866272628536772e-06,0.0,0.0,0.0,2.3866272628536772e-06,0.0,23.389577707206346,2.1152243592297943,0.06788185737474786,0.0
2693,10.0,1.7241379310344829,2.857142857142857,0,310016.46807773504,614225.050028034,721325.1907242635,371958.6563709667,747385.7201538075,2.066776453851567e-06,0.0,0.0,0.0,2.066776453851567e-06,0.0,23.423208851523746,2.413978860609847,0.04006368284363458,0.0
2694,10.0,1.7241379310344829,3.2142857142857144,0,871306.8349568525,1030026.127015328,531260.24656101,23939.778567022342,187576.71922416746,5.808712233045684e-06,0.0,0.0,0.0,5.808712233045684e-06,0.0,22.90985282906879,2.706292478023906,0.0074088111682206245,0.0
2695,10.0,1.7241379310344829,3.5714285714285716,0,250377.25416492383,586337.0089687894,328268.6869809309,344434.22836362745,17393.488046372848,1.6691816944328255e-06,0.0,0.0,0.0,1.6691816944328255e-06,0.0,22.93498554745395,2.9984768162924613,0.000612384894329737,0.0
2696,10.0,1.7241379310344829,3.928571428571429,0,362326.01283548214,577357.4107293161,553148.1001124037,203533.8430913435,69835.03490493215,2.4155067522365474e-06,0.0,0.0,0.0,2.4155067522365474e-06,0.0,22.93920677395422,3.2945117679542495,0.002367637251892868,0.0
2697,10.0,1.7241379310344829,4.285714285714286,0,120214.58495233348,307727.79102500685,337772.220539079,205384.9955505337,-28869.81523065783,8.014305663488899e-07,0.0,0.0,0.0,8.014305663488899e-07,0.0,23.19980665978267,3.5945152841184327,-0.0009673305895544524,0.0
2698,10.0,1.7241379310344829,4.642857142857143,0,303465.5184851727,560189.8536693436,265998.10769350623,248231.20938589872,-12406.195677223503,2.0231034565678183e-06,0.0,0.0,0.0,2.0231034565678183e-06,0.0,23.574778944631817,3.896836214231281,-0.00041419365441608863,0.0
2699,10.0,1.7241379310344829,5.0,0,433511.6827136934,648597.6961055823,165789.5683816749,292718.25103850063,20772.817047794335,2.890077884757956e-06,0.0,0.0,0.0,2.890077884757956e-06,0.0,23.443380671975152,4.200077651280653,0.0006927601116703136,0.0
2700,0.0,2.0689655172413794,0.0,0,271639.7547312743,329982.7396441264,490942.6031497508,177316.58392032026,-31035.275225996706,1.8109316982084956e-06,0.0,0.0,0.0,1.8109316982084956e-06,0.0,23.597754778111973,-0.04991883929012872,-0.0010350065030569975,0.0
2701,0.0,2.0689655172413794,0.35714285714285715,0,225938.44637964448,517743.13245699194,299331.90624404553,284963.3159318224,-57606.64523047469,1.5062563091976298e-06,0.0,0.0,0.0,1.5062563091976298e-06,0.0,24.42900563453372,0.25399749468346045,-0.0019232573407226294,0.0
2702,0.0,2.0689655172413794,0.7142857142857143,0,195451.5760047362,450073.7818350298,381958.4596104871,229678.93784875388,-42200.90599879569,1.3030105066982415e-06,0.0,0.0,0.0,1.3030105066982415e-06,0.0,24.65096422563699,0.5588759376626208,-0.0014140106874046276,0.0
2703,0.0,2.0689655172413794,1.0714285714285714,0,248246.25675357398,320392.74792608037,403878.809002796,124651.5427842934,-8820.928757498257,1.6549750450238264e-06,0.0,0.0,0.0,1.6549750450238264e-06,0.0,23.40518958085342,0.8661765295047404,-0.00029905848190634956,0.0
2704,0.0,2.0689655172413794,1.4285714285714286,0,353508.9805614864,591846.9408247693,327248.7590645536,190364.91773217468,32055.83001058979,2.356726537076576e-06,0.0,0.0,0.0,2.356726537076576e-06,0.0,23.824599336055034,1.1776250440788345,0.001128612387656235,0.0
2705,0.0,2.0689655172413794,1.7857142857142858,0,430069.647042726,900399.4967825942,644005.8137981604,403886.7436035305,55215.85810705088,2.86713098028484e-06,0.0,0.0,0.0,2.86713098028484e-06,0.0,23.697292183925033,1.4930981995063628,0.0021808882674694816,0.0
2706,0.0,2.0689655172413794,2.142857142857143,0,615567.3482503372,1005935.4396147268,662226.3541924235,295266.26395400986,243746.5814497536,4.103782321668915e-06,0.0,0.0,0.0,4.103782321668915e-06,0.0,23.910944941208786,1.808436233051387,0.013066058756666388,0.0
2707,0.0,2.0689655172413794,2.5,0,937231.2247610651,1659062.4536843959,675250.6920616275,776659.2208504211,839541.1634309939,6.248208165073768e-06,0.0,0.0,0.0,6.248208165073768e-06,0.0,23.898055651713616,2.1170422885725118,0.08395411634309939,0.0
2708,0.0,2.0689655172413794,2.857142857142857,0,496672.30548103154,762245.3471048863,1066670.9095430842,493533.922875447,576844.1143119847,3.311148703206877e-06,0.0,0.0,0.0,3.311148703206877e-06,0.0,23.11783844712213,2.4155790901942438,0.030921783789576072,0.0
2709,0.0,2.0689655172413794,3.2142857142857144,0,162292.62412460064,541024.0791180138,515798.6402393158,367595.77035262436,30361.789252121685,1.0819508274973375e-06,0.0,0.0,0.0,1.0819508274973375e-06,0.0,24.377341706942055,2.707383913792077,0.0011992147225341708,0.0
2710,0.0,2.0689655172413794,3.5714285714285716,0,160918.83771204788,553457.7956509698,432986.48568230576,370707.3663068817,96353.0806843846,1.0727922514136526e-06,0.0,0.0,0.0,1.0727922514136526e-06,0.0,24.15696316856623,2.999053615507406,0.0033923713849653135,0.0
2711,0.0,2.0689655172413794,3.928571428571429,0,215263.6600607077,465943.0402686942,362612.2809185318,218495.87142051078,40577.15069302208,1.4350910670713847e-06,0.0,0.0,0.0,1.4350910670713847e-06,0.0,23.879437125569705,3.2947479580761696,0.0013756987977059693,0.0
2712,0.0,2.0689655172413794,4.285714285714286,0,192856.5516632468,385486.0202234438,372392.2702832263,186416.25102042602,-47428.077967983474,1.2857103444216452e-06,0.0,0.0,0.0,1.2857103444216452e-06,0.0,23.743716726039853,3.5945902233769065,-0.0015891556719588537,0.0
2713,0.0,2.0689655172413794,4.642857142857143,0,347998.8061181669,521169.33259451727,174344.9323506504,172007.89177356675,-29061.39618559136,2.3199920407877793e-06,0.0,0.0,0.0,2.3199920407877793e-06,0.0,23.604818696378572,3.8968546375406037,-0.0009702447230171162,0.0
2714,0.0,2.0689655172413794,5.0,0,293261.3377202283,496069.3977473192,261422.12969463784,167303.793199472,-14035.684431573829,1.955075584801522e-06,0.0,0.0,0.0,1.955075584801522e-06,0.0,23.512969794829836,4.200081160709871,-0.0004680810643936614,0.0
2715,0.3448275862068966,2.0689655172413794,0.0,0,276940.277743094,506558.64560054766,274590.53870379203,199946.64175277652,-8010.523782694282,1.8462685182872934e-06,0.0,0.0,0.0,1.8462685182872934e-06,0.0,23.822095975167233,-0.049913149907751274,-0.00026714582511697555,0.0
2716,0.3448275862068966,2.0689655172413794,0.35714285714285715,0,169153.54259892134,421790.33173343464,230795.15776364086,290887.185665941,-105445.27092761164,1.1276902839928088e-06,0.0,0.0,0.0,1.1276902839928088e-06,0.0,23.559881975118294,0.2540273620051394,-0.00352039926200619,0.0
2717,0.3448275862068966,2.0689655172413794,0.7142857142857143,0,318893.5127337768,486103.085585666,340896.91905425483,120448.04555354237,-32667.557338634135,2.1259567515585123e-06,0.0,0.0,0.0,2.1259567515585123e-06,0.0,23.62672790614634,0.5589974269618576,-0.0010945801781968934,0.0
2718,0.3448275862068966,2.0689655172413794,1.0714285714285714,0,295885.4037384831,407110.9821062124,418958.96687870007,117327.532773266,-24458.094780315823,1.972569358256554e-06,0.0,0.0,0.0,1.972569358256554e-06,0.0,23.454272735202906,0.8665594339126985,-0.000829209814114555,0.0
2719,0.3448275862068966,2.0689655172413794,1.4285714285714286,0,340718.5727765275,732750.7171903332,503317.80374709517,341249.9590595038,104724.535076199,2.2714571518435168e-06,0.0,0.0,0.0,2.2714571518435168e-06,0.0,23.380458139029972,1.1785601338282001,0.003687111128911413,0.0
2720,0.3448275862068966,2.0689655172413794,1.7857142857142858,0,358661.43707610195,623119.5957553699,470346.26311015035,213366.37731655053,95257.81666688682,2.391076247174013e-06,0.0,0.0,0.0,2.391076247174013e-06,0.0,24.40981249451598,1.4948676027448986,0.0037624454617874305,0.0
2721,0.3448275862068966,2.0689655172413794,2.142857142857143,0,952958.4813287713,1566512.5599011972,836018.788689856,488584.81668637705,327795.82000697096,6.353056542191809e-06,0.0,0.0,0.0,6.353056542191809e-06,0.0,23.562009453913696,1.811030477707467,0.01757152620941938,0.0
2722,0.3448275862068966,2.0689655172413794,2.5,0,836130.3265429888,1306104.368170255,1023542.5833927896,365302.96240965463,691520.3864673608,5.574202176953259e-06,0.0,0.0,0.0,5.574202176953259e-06,0.0,23.319075686828022,2.1199894616084696,0.06915203864673608,0.0
2723,0.3448275862068966,2.0689655172413794,2.857142857142857,0,788914.5075034237,799095.0091935196,908617.7599508831,70664.40590459843,462625.228954389,5.2594300500228245e-06,0.0,0.0,0.0,5.2594300500228245e-06,0.0,23.611572132623348,2.418173334850324,0.0247990695413316,0.0
2724,0.3448275862068966,2.0689655172413794,3.2142857142857144,0,591505.3176378821,947610.36486127,390150.03477178264,327109.7709080533,50252.87751959406,3.943368784252548e-06,0.0,0.0,0.0,3.943368784252548e-06,0.0,22.92950964513263,2.709153317030613,0.001984862949636356,0.0
2725,0.3448275862068966,2.0689655172413794,3.5714285714285716,0,219685.85976147992,532478.6592363094,552701.9021511066,323603.6548152141,-23874.033027476667,1.464572398409866e-06,0.0,0.0,0.0,1.464572398409866e-06,0.0,24.00883112285553,2.9999887052567717,-0.0008405500468783058,0.0
2726,0.3448275862068966,2.0689655172413794,3.928571428571429,0,306642.88895406696,523028.9803397574,395684.3675752819,173231.92223898068,-24439.06270330757,2.0442859263604464e-06,0.0,0.0,0.0,2.0442859263604464e-06,0.0,23.549335670442293,3.2951308624841276,-0.0008285645641398541,0.0
2727,0.3448275862068966,2.0689655172413794,4.285714285714286,0,438862.13125881355,540007.5360876311,386330.3123688961,44973.45146988422,20817.75487621856,2.9257475417254238e-06,0.0,0.0,0.0,2.9257475417254238e-06,0.0,23.384231551761907,3.5947117126761436,0.0006975330786401338,0.0
2728,0.3448275862068966,2.0689655172413794,4.642857142857143,0,256266.96801708333,461669.27044714056,406793.00361733156,182409.3639450256,-59750.850103160934,1.7084464534472223e-06,0.0,0.0,0.0,1.7084464534472223e-06,0.0,23.337743427668805,3.8968845048622827,-0.001994843834692347,0.0
2729,0.3448275862068966,2.0689655172413794,5.0,0,258931.27505343204,381142.96720324206,348835.4261205561,107574.02171549272,-46992.59298758602,1.7262085003562136e-06,0.0,0.0,0.0,1.7262085003562136e-06,0.0,22.768130653995428,4.200086850092249,-0.0015671728052510019,0.0
2730,0.6896551724137931,2.0689655172413794,0.0,0,478974.75778858346,500797.1817299476,207224.5422052911,-51917.88497022285,-38870.83472986972,3.19316505192389e-06,0.0,0.0,0.0,3.19316505192389e-06,0.0,24.48634480746776,-0.04990757928494666,-0.0012963173818084579,0.0
2731,0.6896551724137931,2.0689655172413794,0.35714285714285715,0,223855.90803929447,419173.3850205588,281728.0659212952,160864.1865042238,-46273.62640028859,1.4923727202619632e-06,0.0,0.0,0.0,1.4923727202619632e-06,0.0,23.677804533029153,0.2540566058794688,-0.0015448928036019592,0.0
2732,0.6896551724137931,2.0689655172413794,0.7142857142857143,0,298526.5451737223,478121.5833351957,155477.2044003715,211711.08942966067,-34623.656672440105,1.9901769678248153e-06,0.0,0.0,0.0,1.9901769678248153e-06,0.0,24.488697979418504,0.5591163803061661,-0.001160122500053814,0.0
2733,0.6896551724137931,2.0689655172413794,1.0714285714285714,0,82094.5993534881,246583.78511362025,339178.5013556721,275297.4253100958,39127.01283394414,5.47297329023254e-07,0.0,0.0,0.0,5.47297329023254e-07,0.0,23.462380901660506,0.8669343456140839,0.001326534357247007,0.0
2734,0.6896551724137931,2.0689655172413794,1.4285714285714286,0,195174.20402424887,548390.5223476999,335336.4774702944,378232.1366709563,58496.647338019124,1.3011613601616591e-06,0.0,0.0,0.0,1.3011613601616591e-06,0.0,23.824489258257252,1.179475704611917,0.002059533033468061,0.0
2735,0.6896551724137931,2.0689655172413794,1.7857142857142858,0,213740.75432655588,629000.1222433969,498923.45840606024,382316.10167840676,95550.6378509491,1.4249383621770391e-06,0.0,0.0,0.0,1.4249383621770391e-06,0.0,23.968955895028955,1.4966000716452545,0.003774011166037645,0.0
2736,0.6896551724137931,2.0689655172413794,2.142857142857143,0,688595.967715995,1421645.8368433975,1005127.3708537093,626829.9719945393,425899.43216845434,4.5906397847733005e-06,0.0,0.0,0.0,4.5906397847733005e-06,0.0,23.851157602820344,1.8135705703718683,0.02283037970028318,0.0
2737,0.6896551724137931,2.0689655172413794,2.5,0,1069020.7459384277,1413725.08849762,765055.4946039588,179870.54260900468,641108.9708232991,7.126804972922852e-06,0.0,0.0,0.0,7.126804972922852e-06,0.0,23.385191780959463,2.122875115662652,0.0641108970823299,0.0
2738,0.6896551724137931,2.0689655172413794,2.857142857142857,0,391843.2535329061,1119626.525182627,693990.0352916437,773893.5737738716,180610.60202308928,2.612288356886041e-06,0.0,0.0,0.0,2.612288356886041e-06,0.0,22.730104877938064,2.4207134275147255,0.009681648555128727,0.0
2739,0.6896551724137931,2.0689655172413794,3.2142857142857144,0,303326.9162497706,791231.8156752931,507936.54188380484,471216.41541646357,86331.02796569704,2.0221794416651374e-06,0.0,0.0,0.0,2.0221794416651374e-06,0.0,24.748770581595508,2.710885785930969,0.0034098596393076033,0.0
2740,0.6896551724137931,2.0689655172413794,3.5714285714285716,0,237119.5571559971,402868.45539492427,167126.04608208954,164395.33647347084,21315.331714983455,1.5807970477066473e-06,0.0,0.0,0.0,1.5807970477066473e-06,0.0,23.259507466211662,3.000904276040489,0.000750464031428445,0.0
2741,0.6896551724137931,2.0689655172413794,3.928571428571429,0,320245.38208281744,573799.4054572182,280168.9317377654,232323.01833160786,-28903.973614907147,2.1349692138854496e-06,0.0,0.0,0.0,2.1349692138854496e-06,0.0,24.898077832660125,3.295505774185513,-0.000979939721538673,0.0
2742,0.6896551724137931,2.0689655172413794,4.285714285714286,0,451398.8507522286,587901.6325727352,85284.11329198886,217041.02457992476,-45237.363114491316,3.0093256716815237e-06,0.0,0.0,0.0,3.0093256716815237e-06,0.0,23.332440007536995,3.594830666020452,-0.0015157521716647516,0.0
2743,0.6896551724137931,2.0689655172413794,4.642857142857143,0,188816.00831109862,452044.8576159721,244297.44478578394,290880.2763488618,-53370.0732246021,1.2587733887406574e-06,0.0,0.0,0.0,1.2587733887406574e-06,0.0,24.32823672812354,3.896913748736612,-0.00178181500924862,0.0
2744,0.6896551724137931,2.0689655172413794,5.0,0,344315.0507961991,552311.5526153244,364988.45677416725,154947.19349907598,7024.390762032137,2.295433671974661e-06,0.0,0.0,0.0,2.295433671974661e-06,0.0,23.936158574014406,4.200092420715054,0.00023425892200971358,0.0
2745,1.0344827586206897,2.0689655172413794,0.0,0,241821.46483598836,361372.253334684,321931.9161702673,102254.99682388158,3339.977938632761,1.6121430989065892e-06,0.0,0.0,0.0,1.6121430989065892e-06,0.0,23.97312394785149,-0.04990214827301091,0.00011138611987098282,0.0
2746,1.0344827586206897,2.0689655172413794,0.35714285714285715,0,190281.58365266578,342847.6639436559,236988.09986705752,123177.37813527434,48722.6214187855,1.268543891017772e-06,0.0,0.0,0.0,1.268543891017772e-06,0.0,23.348286522624807,0.25408511684423896,0.0016266550313427557,0.0
2747,1.0344827586206897,2.0689655172413794,0.7142857142857143,0,155941.99967269675,412522.8690978896,289760.37387717207,237058.60527868912,-32950.90700476043,1.0396133311513116e-06,0.0,0.0,0.0,1.0396133311513116e-06,0.0,23.463867753430286,0.5592323524434646,-0.0011040742742759338,0.0
2748,1.0344827586206897,2.0689655172413794,1.0714285714285714,0,391987.6718016645,458225.0272609236,204454.92671681035,6755.801624659691,-11867.860684368909,2.61325114534443e-06,0.0,0.0,0.0,2.61325114534443e-06,0.0,23.475699999952337,0.8672998612837834,-0.0004023594904024615,0.0
2749,1.0344827586206897,2.0689655172413794,1.4285714285714286,0,503543.32757127826,451288.9232508875,342694.1196774538,-97691.46714488913,7000.563434072411,3.3569555171418553e-06,0.0,0.0,0.0,3.3569555171418553e-06,0.0,23.747422455178413,1.180368329373777,0.000246473811773312,0.0
2750,1.0344827586206897,2.0689655172413794,1.7857142857142858,0,447023.5088973715,777237.2977491615,902508.8430119455,406213.87531197886,35334.200650519095,2.9801567259824764e-06,0.0,0.0,0.0,2.9801567259824764e-06,0.0,23.572405189435553,1.4982891214348637,0.001395612533807372,0.0
2751,1.0344827586206897,2.0689655172413794,2.142857142857143,0,634541.1475673253,1103438.8416884723,1111634.3488874533,473035.142805487,479379.050983928,4.230274317115502e-06,0.0,0.0,0.0,4.230274317115502e-06,0.0,23.41614946441496,1.8160470032703258,0.025697159769857803,0.0
2752,1.0344827586206897,2.0689655172413794,2.5,0,440699.9992065745,979105.2721609672,869229.814024192,493862.9683143185,857351.1765431128,2.9379999947104966e-06,0.0,0.0,0.0,2.9379999947104966e-06,0.0,23.216479343618875,2.125688449496293,0.08573511765431129,0.0
2753,1.0344827586206897,2.0689655172413794,2.857142857142857,0,876387.1404296722,1147607.1621331293,761109.8377514773,144408.32641626103,277195.58741657966,5.8425809361978144e-06,0.0,0.0,0.0,5.8425809361978144e-06,0.0,23.270483461945375,2.4231898604131827,0.014859095913188429,0.0
2754,1.0344827586206897,2.0689655172413794,3.2142857142857144,0,681926.3419368537,822958.3994540713,353748.2568183029,40717.57568464194,41774.66985072072,4.5461756129123585e-06,0.0,0.0,0.0,4.5461756129123585e-06,0.0,23.900583688213672,2.7125748357205786,0.0016499949557646004,0.0
2755,1.0344827586206897,2.0689655172413794,3.5714285714285716,0,327742.78920021135,506691.2877686267,264365.86347197654,133786.39117891624,71046.68152064794,2.184951928001409e-06,0.0,0.0,0.0,2.184951928001409e-06,0.0,23.287518989317544,3.001796900802349,0.0025013910056168056,0.0
2756,1.0344827586206897,2.0689655172413794,3.928571428571429,0,278794.1144361723,518735.5897591462,325624.4186992296,199116.7509731882,13893.305409662948,1.858627429574482e-06,0.0,0.0,0.0,1.858627429574482e-06,0.0,23.093659941822516,3.2958712898552127,0.0004710287248316319,0.0
2757,1.0344827586206897,2.0689655172413794,4.285714285714286,0,170654.64201481434,309547.8543175813,243467.20410923887,115734.34241835878,4801.712699775875,1.1376976134320955e-06,0.0,0.0,0.0,1.1376976134320955e-06,0.0,23.718422019772497,3.5949466381577504,0.00016088927274507747,0.0
2758,1.0344827586206897,2.0689655172413794,4.642857142857143,0,182293.46600077627,446044.41693272366,359265.57237403846,236573.74390733553,13918.280894357908,1.2152897733385086e-06,0.0,0.0,0.0,1.2152897733385086e-06,0.0,22.561665397677725,3.8969422597013823,0.00046467618090269394,0.0
2759,1.0344827586206897,2.0689655172413794,5.0,0,291092.275495861,312344.9740192359,413474.38830715144,85305.0269736509,26746.578133810985,1.940615169972407e-06,0.0,0.0,0.0,1.940615169972407e-06,0.0,23.654187890923332,4.200097851726989,0.0008919812085258353,0.0
2760,1.3793103448275863,2.0689655172413794,0.0,0,189413.55009373542,309384.7337072338,305141.3244105216,117885.13154370448,15492.004636274212,1.2627570006249029e-06,0.0,0.0,0.0,1.2627570006249029e-06,0.0,23.70845768908468,-0.049896882170131655,0.0005166484082120144,0.0
2761,1.3793103448275863,2.0689655172413794,0.35714285714285715,0,115003.4636611167,347920.53032660956,286815.8573522803,215263.04774200774,8504.619563094526,7.66689757740778e-07,0.0,0.0,0.0,7.66689757740778e-07,0.0,23.95522241704791,0.25411276209257255,0.00028393550673424704,0.0
2762,1.3793103448275863,2.0689655172413794,0.7142857142857143,0,187171.1365766399,324176.1155648427,145331.82383969717,129663.18106982378,388.0374203762165,1.2478075771775993e-06,0.0,0.0,0.0,1.2478075771775993e-06,0.0,23.849059518301832,0.5593448031641346,1.3001831276810753e-05,0.0
2763,1.3793103448275863,2.0689655172413794,1.0714285714285714,0,220822.16658401847,366418.2779659957,349595.815317319,137665.98642435376,55745.95064122622,1.4721477772267897e-06,0.0,0.0,0.0,1.4721477772267897e-06,0.0,23.044286308768456,0.8676542783138678,0.0018899709803256168,0.0
2764,1.3793103448275863,2.0689655172413794,1.4285714285714286,0,292171.4460508912,457747.6633897833,225373.55452529233,129744.98386216364,-6723.1638128316235,1.9478096403392744e-06,0.0,0.0,0.0,1.9478096403392744e-06,0.0,23.59486812305572,1.1812338501798707,-0.00023670720617426582,0.0
2765,1.3793103448275863,2.0689655172413794,1.7857142857142858,0,556669.3548945503,799756.2549104225,422267.64474438014,160448.37764818376,72246.35329254736,3.711129032630335e-06,0.0,0.0,0.0,3.711129032630335e-06,0.0,24.01910291481657,1.4999268843537292,0.002853550223881273,0.0
2766,1.3793103448275863,2.0689655172413794,2.142857142857143,0,451290.912579773,949784.3826848975,905274.5265386775,477887.7724842668,540334.2091384277,3.008606083865153e-06,0.0,0.0,0.0,3.008606083865153e-06,0.0,23.906468167698183,1.8184482409349,0.028964666839009317,0.0
2767,1.3793103448275863,2.0689655172413794,2.5,0,423798.6859776486,815519.4477206741,1081927.6269124113,593230.4462708952,727978.7002991021,2.825324573184324e-06,0.0,0.0,0.0,2.825324573184324e-06,0.0,23.31124766241037,2.1284163583237716,0.07279787002991021,0.0
2768,1.3793103448275863,2.0689655172413794,2.857142857142857,0,726428.6716571344,1246407.0904460861,615785.7895469142,452101.4544854556,376051.92984235304,4.842857811047563e-06,0.0,0.0,0.0,4.842857811047563e-06,0.0,23.914869476020968,2.425591098077757,0.02015829958169425,0.0
2769,1.3793103448275863,2.0689655172413794,3.2142857142857144,0,332615.049022926,570365.7856008082,423513.5700439352,189598.51408726166,115371.32938586801,2.21743366015284e-06,0.0,0.0,0.0,2.21743366015284e-06,0.0,24.169097230995735,2.7142125986394436,0.004556878898308138,0.0
2770,1.3793103448275863,2.0689655172413794,3.5714285714285716,0,265953.8823012462,472613.9192609369,267874.1132501244,172020.21247027314,16881.02106298921,1.7730258820083082e-06,0.0,0.0,0.0,1.7730258820083082e-06,0.0,23.22823795319306,3.0026624216084423,0.0005943421050611227,0.0
2771,1.3793103448275863,2.0689655172413794,3.928571428571429,0,225292.43790591386,448272.3839643455,189476.1172540098,295960.2411349577,-30152.368960298532,1.5019495860394256e-06,0.0,0.0,0.0,1.5019495860394256e-06,0.0,22.741005468196768,3.296225706885297,-0.001022264427595769,0.0
2772,1.3793103448275863,2.0689655172413794,4.285714285714286,0,319684.13413576304,415380.6079295115,228892.22436236168,46247.83770526206,9795.777904336463,2.131227560905087e-06,0.0,0.0,0.0,2.131227560905087e-06,0.0,24.61288889691141,3.59505908887842,0.0003282236321791088,0.0
2773,1.3793103448275863,2.0689655172413794,4.642857142857143,0,290272.05892232916,485295.63149332843,150256.44582280397,309443.7976670706,-32202.087660878446,1.9351470594821943e-06,0.0,0.0,0.0,1.9351470594821943e-06,0.0,23.888259526951458,3.896969904949716,-0.0010750999512746271,0.0
2774,1.3793103448275863,2.0689655172413794,5.0,0,235101.35513515671,436221.15766399604,333042.4082868013,167173.15140583873,72720.9610468773,1.5673423675677114e-06,0.0,0.0,0.0,1.5673423675677114e-06,0.0,23.506681021671756,4.200103117829869,0.002425197361518014,0.0
2775,1.7241379310344829,2.0689655172413794,0.0,0,171894.25757032385,322362.2602977034,303344.1269209167,141749.80750079406,9299.158809038898,1.1459617171354923e-06,0.0,0.0,0.0,1.1459617171354923e-06,0.0,23.49830621616679,-0.049891811683883444,0.00031012097589690126,0.0
2776,1.7241379310344829,2.0689655172413794,0.35714285714285715,0,295630.43404564937,559248.3054908019,316336.90242135245,230083.9348347749,-36545.63162848098,1.970869560304329e-06,0.0,0.0,0.0,1.970869560304329e-06,0.0,23.82221399861375,0.25413938042015144,-0.0012201136521596742,0.0
2777,1.7241379310344829,2.0689655172413794,0.7142857142857143,0,356125.66514649615,405958.1953489387,198948.63219889358,-5257.115700385289,-15337.389958334636,2.374171100976641e-06,0.0,0.0,0.0,2.374171100976641e-06,0.0,24.274062801317413,0.5594530767481931,-0.000513904448368869,0.0
2778,1.7241379310344829,2.0689655172413794,1.0714285714285714,0,178374.08764980608,390730.6531085385,185590.3001952766,272179.49264379736,30838.212470705697,1.1891605843320405e-06,0.0,0.0,0.0,1.1891605843320405e-06,0.0,23.00339439382566,0.8679955300361334,0.001045516777171015,0.0
2779,1.7241379310344829,2.0689655172413794,1.4285714285714286,0,212745.8974826624,558052.88772803,332507.32725417905,360972.83017410274,-45168.2841611316,1.4183059832177493e-06,0.0,0.0,0.0,1.4183059832177493e-06,0.0,23.562551048554297,1.1820672200257434,-0.001590271879299004,0.0
2780,1.7241379310344829,2.0689655172413794,1.7857142857142858,0,263671.00489370694,703633.3471733305,477730.23184249527,413910.08451945963,252921.0853796281,1.7578066992913795e-06,0.0,0.0,0.0,1.7578066992913795e-06,0.0,24.594741904648224,1.5015038103174514,0.009989750166169044,0.0
2781,1.7241379310344829,2.0689655172413794,2.142857142857143,0,956464.983151548,1072246.1556487684,665827.0237731502,-20313.10581335611,230005.58183936856,6.37643322101032e-06,0.0,0.0,0.0,6.37643322101032e-06,0.0,24.184802538785753,1.8207602813253116,0.01232947116139941,0.0
2782,1.7241379310344829,2.0689655172413794,2.5,0,1056505.5687670934,1750683.7588785486,750195.0698608633,645897.6009302763,782280.1907395566,7.043370458447289e-06,0.0,0.0,0.0,7.043370458447289e-06,0.0,24.14688178735785,2.1310429352276485,0.07822801907395566,0.0
2783,1.7241379310344829,2.0689655172413794,2.857142857142857,0,275486.00381862425,938325.3871518114,1034820.9217915736,724067.9218649978,326188.2565828484,1.8365733587908283e-06,0.0,0.0,0.0,1.8365733587908283e-06,0.0,23.985811048974682,2.4279031384681686,0.017485352618677216,0.0
2784,1.7241379310344829,2.0689655172413794,3.2142857142857144,0,134614.50660854223,627604.6025275667,526242.105810299,474867.9839824861,16386.373227527198,8.974300440569482e-07,0.0,0.0,0.0,8.974300440569482e-07,0.0,23.941938297756256,2.715789524603166,0.0006472207504047936,0.0
2785,1.7241379310344829,2.0689655172413794,3.5714285714285716,0,440881.11378083663,478765.4458047934,511899.06942616735,55385.921424441185,31039.124074783915,2.9392074252055778e-06,0.0,0.0,0.0,2.9392074252055778e-06,0.0,23.5573449737839,3.003495791454315,0.001092816499252314,0.0
2786,1.7241379310344829,2.0689655172413794,3.928571428571429,0,213809.58861701112,488871.5668638002,383991.6470676794,242873.6259826634,-18018.03136627867,1.4253972574467409e-06,0.0,0.0,0.0,1.4253972574467409e-06,0.0,23.517059133117524,3.2965669586075625,-0.000610870493966956,0.0
2787,1.7241379310344829,2.0689655172413794,4.285714285714286,0,123526.92998378484,273028.51282585977,406656.69425083225,296639.1976771195,62198.60622377451,8.235128665585656e-07,0.0,0.0,0.0,8.235128665585656e-07,0.0,24.203968481884488,3.595167362462479,0.002084066487686283,0.0
2788,1.7241379310344829,2.0689655172413794,4.642857142857143,0,68308.85024466609,236399.39094581737,188962.29564394502,158106.21078362165,-54584.00727005388,4.5539233496444055e-07,0.0,0.0,0.0,4.5539233496444055e-07,0.0,23.535833342365436,3.8969965232772945,-0.0018223434509714019,0.0
2789,1.7241379310344829,2.0689655172413794,5.0,0,289443.493520874,343719.23273546,318816.7556505829,42629.05725303391,21897.912550826764,1.92962329013916e-06,0.0,0.0,0.0,1.92962329013916e-06,0.0,23.95228828141127,4.200108188316117,0.0007302813243458602,0.0
2790,2.0689655172413794,2.0689655172413794,0.0,0,35583.33335140787,256846.49691084464,234119.80066646694,215838.6455754249,-10500.344637592805,2.3722222234271913e-07,0.0,0.0,0.0,2.3722222234271913e-07,0.0,23.891550969290975,-0.049886974009061495,-0.0003501797520759443,0.0
2791,2.0689655172413794,2.0689655172413794,0.35714285714285715,0,181375.32950355206,349174.6152858671,140169.42045253707,233068.93413971915,11305.978908185067,1.2091688633570136e-06,0.0,0.0,0.0,1.2091688633570136e-06,0.0,24.91636188107531,0.25416477656695613,0.00037746178140085683,0.0
2792,2.0689655172413794,2.0689655172413794,0.7142857142857143,0,261595.8427773211,421288.74650636496,382509.7735715384,142468.09691091324,19685.70648013758,1.7439722851821406e-06,0.0,0.0,0.0,1.7439722851821406e-06,0.0,23.744941807869633,0.5595563789495683,0.0006596019372858827,0.0
2793,2.0689655172413794,2.0689655172413794,1.0714285714285714,0,233002.11460840635,324137.04499848635,252912.99936775127,63835.598967467326,-68042.11905968506,1.553347430722709e-06,0.0,0.0,0.0,1.553347430722709e-06,0.0,24.414119478368747,0.8683211131821946,-0.0023068515108891617,0.0
2794,2.0689655172413794,2.0689655172413794,1.4285714285714286,0,89603.47926919248,327540.9433716295,224115.71553357673,273338.31296073773,16486.568321794563,5.973565284612832e-07,0.0,0.0,0.0,5.973565284612832e-07,0.0,24.18827524127947,1.182862325686897,0.0005804543270840691,0.0
2795,2.0689655172413794,2.0689655172413794,1.7857142857142858,0,436551.601545553,665659.3763946159,405151.48808928527,161668.8526701747,140661.6145177469,2.910344010303687e-06,0.0,0.0,0.0,2.910344010303687e-06,0.0,23.780736110946116,1.5030083317099465,0.005555781894946155,0.0
2796,2.0689655172413794,2.0689655172413794,2.142857142857143,0,646411.1127404277,1140557.6367593512,526019.5055181688,466403.72461022815,412251.11621218006,4.3094074182695185e-06,0.0,0.0,0.0,4.3094074182695185e-06,0.0,23.22209875297677,1.822966164358321,0.022098760421138588,0.0
2797,2.0689655172413794,2.0689655172413794,2.5,0,151679.20910715373,756558.5908230158,642394.810313046,814505.200906535,618201.7760004754,1.0111947273810248e-06,0.0,0.0,0.0,1.0111947273810248e-06,0.0,23.82234550800699,2.1335489128269955,0.06182017760004754,0.0
2798,2.0689655172413794,2.0689655172413794,2.857142857142857,0,923936.378748997,1132326.0163481478,637811.9496197809,66380.81870428004,229355.47363845017,6.159575858326647e-06,0.0,0.0,0.0,6.159575858326647e-06,0.0,24.30318036664018,2.430109021501178,0.012294622049256512,0.0
2799,2.0689655172413794,2.0689655172413794,3.2142857142857144,0,349962.4053333172,763875.8867967405,686863.2068377623,381821.1943385457,102509.02587432943,2.3330827022221144e-06,0.0,0.0,0.0,2.3330827022221144e-06,0.0,23.245888229356765,2.717294045995661,0.004048850085886875,0.0
2800,2.0689655172413794,2.0689655172413794,3.5714285714285716,0,343781.9012307891,545791.211420864,259754.29182299745,164396.67043071988,91749.5006090951,2.291879341538594e-06,0.0,0.0,0.0,2.291879341538594e-06,0.0,24.280886636443764,3.0042908971154687,0.0032302898697207315,0.0
2801,2.0689655172413794,2.0689655172413794,3.928571428571429,0,313686.9209461829,490512.6832847921,406962.4104047882,143509.76583697548,26356.830157440607,2.0912461396412194e-06,0.0,0.0,0.0,2.0912461396412194e-06,0.0,24.53921018709147,3.296892541753624,0.000893583185109319,0.0
2802,2.0689655172413794,2.0689655172413794,4.285714285714286,0,313257.44430947956,551408.9207084518,332960.6730969496,192504.00318419185,44324.652345176524,2.088382962063197e-06,0.0,0.0,0.0,2.088382962063197e-06,0.0,23.9205051530416,3.5952706646638544,0.0014851702978453305,0.0
2803,2.0689655172413794,2.0689655172413794,4.642857142857143,0,237325.23415294677,354420.76467923337,297361.52426395373,93767.36482337548,35603.738308299406,1.5821682276863117e-06,0.0,0.0,0.0,1.5821682276863117e-06,0.0,24.33408483500217,3.897021919424099,0.0011886675709832871,0.0
2804,2.0689655172413794,2.0689655172413794,5.0,0,299526.1166390379,389882.8057397758,324150.26021975605,62949.67171611312,-14996.82372515713,1.996840777593586e-06,0.0,0.0,0.0,1.996840777593586e-06,0.0,23.95209859195815,4.200113025990938,-0.0005001344427496891,0.0
2805,2.413793103448276,2.0689655172413794,0.0,0,294970.4313590019,342871.696619761,262837.76518601127,16143.23350426587,3384.461429674347,1.966469542393346e-06,0.0,0.0,0.0,1.966469542393346e-06,0.0,24.168864705807636,-0.049882413935357584,0.00011286961573726576,0.0
2806,2.413793103448276,2.0689655172413794,0.35714285714285715,0,125153.19546385782,374245.17032478505,358089.64973142825,241798.71742187708,32491.263648381853,8.343546364257187e-07,0.0,0.0,0.0,8.343546364257187e-07,0.0,24.634698994426724,0.2541887154023444,0.0010847543902460606,0.0
2807,2.413793103448276,2.0689655172413794,0.7142857142857143,0,318808.9017972673,490346.4578089221,305260.68048621755,122219.53996623773,-59280.32546295358,2.125392678648449e-06,0.0,0.0,0.0,2.125392678648449e-06,0.0,23.115655742631624,0.5596537533431323,-0.0019862846963482994,0.0
2808,2.413793103448276,2.0689655172413794,1.0714285714285714,0,122611.71193233278,282638.0427394711,141925.38150559503,198732.09480920326,25447.270810504015,8.174114128822185e-07,0.0,0.0,0.0,8.174114128822185e-07,0.0,23.514769137556765,0.8686280133351466,0.0008627461332549592,0.0
2809,2.413793103448276,2.0689655172413794,1.4285714285714286,0,222013.629467965,371946.6802953913,341150.09647149465,136142.55931324317,62214.31733691284,1.4800908631197667e-06,0.0,0.0,0.0,1.4800908631197667e-06,0.0,24.527454169125118,1.18361180566451,0.002190423683081042,0.0
2810,2.413793103448276,2.0689655172413794,1.7857142857142858,0,623606.7636177031,820934.6522278318,551475.9636447863,107906.59015277906,64494.24703618533,4.15737842411802e-06,0.0,0.0,0.0,4.15737842411802e-06,0.0,24.624408612020154,1.504426518895193,0.002547361419391467,0.0
2811,2.413793103448276,2.0689655172413794,2.142857142857143,0,596219.4855082034,1148178.0938266753,612421.2794854724,505865.24404309643,437299.6626753246,3.974796570054689e-06,0.0,0.0,0.0,3.974796570054689e-06,0.0,23.20762021388874,1.8250454668296399,0.02344149014440243,0.0
2812,2.413793103448276,2.0689655172413794,2.5,0,449887.7932552584,1040570.1199039074,813776.2862475918,522423.34911445447,585225.4753389072,2.9992519550350563e-06,0.0,0.0,0.0,2.9992519550350563e-06,0.0,24.69746984768143,2.135911089487053,0.05852254753389072,0.0
2813,2.413793103448276,2.0689655172413794,2.857142857142857,0,698261.3279015209,1116587.2702657327,550653.3391418813,336269.35090475855,363318.3942240968,4.655075519343472e-06,0.0,0.0,0.0,4.655075519343472e-06,0.0,22.634983206862476,2.432188323972497,0.01947571718985653,0.0
2814,2.413793103448276,2.0689655172413794,3.2142857142857144,0,403303.51473208185,687574.8412641647,273213.29930646956,296323.1344885936,50221.10755667024,2.688690098213879e-06,0.0,0.0,0.0,2.688690098213879e-06,0.0,24.238582540534814,2.7187122331809075,0.001983608115576471,0.0
2815,2.413793103448276,2.0689655172413794,3.5714285714285716,0,455379.70608700457,584147.0349539939,175202.839668688,93416.03251932065,26308.53483682577,3.035864707246697e-06,0.0,0.0,0.0,3.035864707246697e-06,0.0,24.039919790059542,3.0050403770930814,0.0009262632821586036,0.0
2816,2.413793103448276,2.0689655172413794,3.928571428571429,0,211370.01032927877,392409.06787622435,151792.46531246236,236674.51651613344,-3793.651255704285,1.4091334021951918e-06,0.0,0.0,0.0,1.4091334021951918e-06,0.0,23.568701192483633,3.2971994419065758,-0.00012861724843301052,0.0
2817,2.413793103448276,2.0689655172413794,4.285714285714286,0,181433.3429224752,452273.7855537873,312921.4681857581,247121.58966339243,-62900.359432001205,1.209555619483168e-06,0.0,0.0,0.0,1.209555619483168e-06,0.0,23.604219317981205,3.595368039057418,-0.002107579881839038,0.0
2818,2.413793103448276,2.0689655172413794,4.642857142857143,0,445440.36828452174,571771.1492536841,75546.57003759067,206449.65807080953,-26864.90242659806,2.969602455230145e-06,0.0,0.0,0.0,2.969602455230145e-06,0.0,23.627385392085053,3.897045858259488,-0.0008969125105799212,0.0
2819,2.413793103448276,2.0689655172413794,5.0,0,263720.6762259981,418763.82092472486,211960.46364806072,121783.0276241364,72654.3331896613,1.758137841506654e-06,0.0,0.0,0.0,1.758137841506654e-06,0.0,23.84738590185927,4.200117586064643,0.00242297536525727,0.0
2820,2.7586206896551726,2.0689655172413794,0.0,0,199231.05646333928,370373.2964296157,200567.08002969337,151055.15739807178,20814.638253886038,1.3282070430889286e-06,0.0,0.0,0.0,1.3282070430889286e-06,0.0,24.938784457786817,-0.04987818479782313,0.0006941548220427978,0.0
2821,2.7586206896551726,2.0689655172413794,0.35714285714285715,0,172325.37643863197,419830.3275497972,236078.555117834,261829.55977777636,-76957.50789858047,1.148835842924213e-06,0.0,0.0,0.0,1.148835842924213e-06,0.0,24.362053455432708,0.25421091693544345,-0.0025693058743050325,0.0
2822,2.7586206896551726,2.0689655172413794,0.7142857142857143,0,190940.0255301832,341114.1438063786,120966.21768831059,241492.994670029,44452.71369005876,1.2729335035345547e-06,0.0,0.0,0.0,1.2729335035345547e-06,0.0,24.672438567935153,0.559744061028809,0.0014894612035977345,0.0
2823,2.7586206896551726,2.0689655172413794,1.0714285714285714,0,260841.89600289988,560205.6020548869,296019.15812837775,302842.12486523495,-43464.36251444636,1.738945973352666e-06,0.0,0.0,0.0,1.738945973352666e-06,0.0,23.79893279166294,0.868912640961903,-0.0014735847695797632,0.0
2824,2.7586206896551726,2.0689655172413794,1.4285714285714286,0,314168.87493834994,456461.0137475363,196226.07490843048,107459.06695331044,44899.755122697876,2.0944591662556662e-06,0.0,0.0,0.0,2.0944591662556662e-06,0.0,24.079835697338652,1.1843068939701935,0.001580817586612725,0.0
2825,2.7586206896551726,2.0689655172413794,1.7857142857142858,0,448224.0565150779,596690.4398254532,584741.5081666559,142611.38563191856,148040.842151365,2.988160376767186e-06,0.0,0.0,0.0,2.988160376767186e-06,0.0,23.43364378295642,1.5057417846223378,0.005847242926629174,0.0
2826,2.7586206896551726,2.0689655172413794,2.142857142857143,0,332663.687975351,778808.6917711236,538286.8623793757,399169.54651821754,362191.95258692565,2.2177579198356735e-06,0.0,0.0,0.0,2.2177579198356735e-06,0.0,23.834953607340257,1.8269738690217785,0.01941533417841205,0.0
2827,2.7586206896551726,2.0689655172413794,2.5,0,727582.3927418533,1341701.6894058795,749140.0366625359,529640.7218873056,525164.3923965263,4.850549284945689e-06,0.0,0.0,0.0,4.850549284945689e-06,0.0,23.702661045392105,2.138101836967185,0.05251643923965263,0.0
2828,2.7586206896551726,2.0689655172413794,2.857142857142857,0,652845.8436900155,1097280.332537306,655275.155187768,347428.74554592796,285808.0245233881,4.352305624600103e-06,0.0,0.0,0.0,4.352305624600103e-06,0.0,24.227965312213243,2.4341167261646355,0.015320766426088938,0.0
2829,2.7586206896551726,2.0689655172413794,3.2142857142857144,0,327883.0450668381,568362.1117498709,472629.8552552841,203267.68630615284,106197.61368970622,2.185886967112254e-06,0.0,0.0,0.0,2.185886967112254e-06,0.0,23.634953371447658,2.720027498908052,0.004194540077238453,0.0
2830,2.7586206896551726,2.0689655172413794,3.5714285714285716,0,192693.38787831986,491389.5225731429,311677.0323500447,287918.54525056295,-44490.438100065105,1.2846225858554658e-06,0.0,0.0,0.0,1.2846225858554658e-06,0.0,23.574682966554946,3.005735465398765,-0.001566406471315779,0.0
2831,2.7586206896551726,2.0689655172413794,3.928571428571429,0,107669.77474354662,264744.864058571,233007.22928283026,144773.5860971996,-21818.546463814382,7.177984982903108e-07,0.0,0.0,0.0,7.177984982903108e-07,0.0,24.196025758366016,3.2974840695333323,-0.00073972044920155,0.0
2832,2.7586206896551726,2.0689655172413794,4.285714285714286,0,287488.3185066399,381612.5086043351,282847.3892478484,57760.23898226307,18879.570995288614,1.916588790044266e-06,0.0,0.0,0.0,1.916588790044266e-06,0.0,23.9758266815123,3.595458346743095,0.0006325910434651417,0.0
2833,2.7586206896551726,2.0689655172413794,4.642857142857143,0,294990.16894075513,400044.3326524229,290978.4665907367,66051.78283078836,-23886.840308134444,1.966601126271701e-06,0.0,0.0,0.0,1.966601126271701e-06,0.0,23.65705300186793,3.897068059792587,-0.0007974868313453809,0.0
2834,2.7586206896551726,2.0689655172413794,5.0,0,310823.0648647997,491989.3835848597,200605.1211912542,164824.42694593113,52107.87145883765,2.0721537657653313e-06,0.0,0.0,0.0,2.0721537657653313e-06,0.0,23.588732831797167,4.200121815202177,0.0017377640580799147,0.0
2835,3.1034482758620694,2.0689655172413794,0.0,0,69138.37148912447,304157.9809108958,282379.98147325584,359785.17070665036,-37328.75583122202,4.609224765941632e-07,0.0,0.0,0.0,4.609224765941632e-07,0.0,23.652104189521054,-0.04987434892611723,-0.0012448900406070366,0.0
2836,3.1034482758620694,2.0689655172413794,0.35714285714285715,0,236777.9883376043,267709.6986111106,337490.0690065602,73663.5592733697,-118263.63593805353,1.5785199222506953e-06,0.0,0.0,0.0,1.5785199222506953e-06,0.0,24.41458120692916,0.25423105395675066,-0.003948353615254185,0.0
2837,3.1034482758620694,2.0689655172413794,0.7142857142857143,0,178362.1968852161,296197.26371693827,303508.95063103305,121603.34503228382,-28074.24312081683,1.1890813125681075e-06,0.0,0.0,0.0,1.1890813125681075e-06,0.0,24.22077288086588,0.5598259710384721,-0.0009406736389679336,0.0
2838,3.1034482758620694,2.0689655172413794,1.0714285714285714,0,56171.29144370481,272362.5481371473,329530.6641379285,327480.9021927293,11766.50633068591,3.744752762913654e-07,0.0,0.0,0.0,3.744752762913654e-07,0.0,23.639155113301133,0.8691708011780938,0.00039892324463057825,0.0
2839,3.1034482758620694,2.0689655172413794,1.4285714285714286,0,361385.66777427826,547475.9593248691,317247.45016535785,130955.4572148032,42725.20788539941,2.409237785161855e-06,0.0,0.0,0.0,2.409237785161855e-06,0.0,23.663783131625134,1.1849373462889363,0.0015042567566873127,0.0
2840,3.1034482758620694,2.0689655172413794,1.7857142857142858,0,500015.6541293258,810485.5478291888,317312.1799277532,303897.56336452346,39912.54824494635,3.3334376941955057e-06,0.0,0.0,0.0,3.3334376941955057e-06,0.0,23.452546757280366,1.50693474430913,0.0015764458106121112,0.0
2841,3.1034482758620694,2.0689655172413794,2.142857142857143,0,418299.63937042904,975559.5854980514,493326.1827370558,710719.5360487301,320379.4300761092,2.788664262469527e-06,0.0,0.0,0.0,2.788664262469527e-06,0.0,23.83431914168146,1.8287229498559139,0.01717396991951111,0.0
2842,3.1034482758620694,2.0689655172413794,2.5,0,967352.9957495257,1342275.7155139004,824160.0663525602,226223.75503953928,619121.3321447171,6.449019971663505e-06,0.0,0.0,0.0,6.449019971663505e-06,0.0,24.09716026708291,2.140088867704627,0.061912133214471705,0.0
2843,3.1034482758620694,2.0689655172413794,2.857142857142857,0,578514.0729901842,941405.7184217275,814662.4624530565,310028.2428024076,505502.8838446894,3.856760486601228e-06,0.0,0.0,0.0,3.856760486601228e-06,0.0,23.600947336406634,2.435865806998771,0.027097530323068632,0.0
2844,3.1034482758620694,2.0689655172413794,3.2142857142857144,0,526177.5152376986,607048.4178713125,777969.3661079548,187580.87768251114,88622.798359599,3.507850101584657e-06,0.0,0.0,0.0,3.507850101584657e-06,0.0,25.13880965316136,2.7212204585948445,0.0035003788367835263,0.0
2845,3.1034482758620694,2.0689655172413794,3.5714285714285716,0,353837.65824032255,403217.27409058344,387221.4686739104,41652.98575459814,-15857.242598774734,2.3589177216021504e-06,0.0,0.0,0.0,2.3589177216021504e-06,0.0,24.361778956846216,3.006365917717508,-0.0005582972091234281,0.0
2846,3.1034482758620694,2.0689655172413794,3.928571428571429,0,152018.29856695083,348655.0408995298,173194.4634945968,265369.1229890017,76508.80700424021,1.0134553237796722e-06,0.0,0.0,0.0,1.0134553237796722e-06,0.0,24.03853483392648,3.297742229749523,0.002593900064741395,0.0
2847,3.1034482758620694,2.0689655172413794,4.285714285714286,0,129158.59758804034,249120.18185934535,197201.16466359296,102081.13299565994,409.4464464186001,8.610573172536023e-07,0.0,0.0,0.0,8.610573172536023e-07,0.0,24.10189378422373,3.595540256752758,1.3719175867273297e-05,0.0
2848,3.1034482758620694,2.0689655172413794,4.642857142857143,0,317953.4467524496,378674.25782574754,415666.76656306384,80835.15213367443,-74641.95603491788,2.1196896450163306e-06,0.0,0.0,0.0,2.1196896450163306e-06,0.0,23.36839004916199,3.8970881968138937,-0.0024919987840935527,0.0
2849,3.1034482758620694,2.0689655172413794,5.0,0,212029.0868905395,356693.6372541428,236297.47270067723,111874.5747009336,-49869.51446974936,1.41352724593693e-06,0.0,0.0,0.0,1.41352724593693e-06,0.0,23.46931332495612,4.200125651073883,-0.0016631162895971378,0.0
2850,3.4482758620689657,2.0689655172413794,0.0,0,180741.9699132295,405034.7514380383,250091.6439052584,206475.89545056983,19677.205039461307,1.2049464660881966e-06,0.0,0.0,0.0,1.2049464660881966e-06,0.0,24.713890192102955,-0.049870977046245824,0.0006562221546135592,0.0
2851,3.4482758620689657,2.0689655172413794,0.35714285714285715,0,196857.8403871935,359152.8025276174,179070.22141440623,148983.6329977587,-62657.57605187668,1.31238560258129e-06,0.0,0.0,0.0,1.31238560258129e-06,0.0,24.874728415759883,0.25424875517879925,-0.0020918878822318333,0.0
2852,3.4482758620689657,2.0689655172413794,0.7142857142857143,0,265125.8009864068,342174.7128529671,358289.0516620082,85473.62192885438,17620.200530436116,1.7675053399093786e-06,0.0,0.0,0.0,1.7675053399093786e-06,0.0,22.954218152392524,0.5598979731110191,0.0005903937670191339,0.0
2853,3.4482758620689657,2.0689655172413794,1.0714285714285714,0,120914.48629970488,300895.68111177266,291532.8795555212,175571.97242557842,-28187.385162067287,8.060965753313658e-07,0.0,0.0,0.0,8.060965753313658e-07,0.0,24.30184081455392,0.8693977340119609,-0.0009556450173471511,0.0
2854,3.4482758620689657,2.0689655172413794,1.4285714285714286,0,195161.2807074348,429565.3636894195,230816.5405365177,238201.25454379193,55193.75349641981,1.301075204716232e-06,0.0,0.0,0.0,1.301075204716232e-06,0.0,24.7622028510684,1.185491538307449,0.001943245702785592,0.0
2855,3.4482758620689657,2.0689655172413794,1.7857142857142858,0,427891.86150409497,696153.1072816132,304044.82114875194,239753.49354034587,74057.53349827055,2.8526124100273e-06,0.0,0.0,0.0,2.8526124100273e-06,0.0,23.90524741588782,1.5079834021015954,0.002925087311166534,0.0
2856,3.4482758620689657,2.0689655172413794,2.142857142857143,0,371557.3435017704,693215.1047066993,684325.4504074408,317292.7007843631,191840.62047456088,2.4770489566784695e-06,0.0,0.0,0.0,2.4770489566784695e-06,0.0,24.84052509747105,1.8302604596868617,0.01028363476577687,0.0
2857,3.4482758620689657,2.0689655172413794,2.5,0,394314.76883382583,1075957.6681259265,749569.6284473037,637832.2521410807,706828.3189272986,2.628765125558839e-06,0.0,0.0,0.0,2.628765125558839e-06,0.0,24.469261983106573,2.1418355447212565,0.07068283189272986,0.0
2858,3.4482758620689657,2.0689655172413794,2.857142857142857,0,550524.087951056,940612.7241135614,778674.6698476048,327282.14563623676,461513.67128993594,3.670160586340373e-06,0.0,0.0,0.0,3.670160586340373e-06,0.0,24.315778164266984,2.4374033168297187,0.024739484386664887,0.0
2859,3.4482758620689657,2.0689655172413794,3.2142857142857144,0,71858.18326184525,519477.04254094313,490971.27990951197,437739.6102206212,-13555.267970309455,4.790545550789683e-07,0.0,0.0,0.0,4.790545550789683e-07,0.0,23.972728915384202,2.72226911638731,-0.0005353991750257287,0.0
2860,3.4482758620689657,2.0689655172413794,3.5714285714285716,0,235042.923318923,373668.5432279608,274019.1612539625,105217.0553782366,-28671.64159476643,1.5669528221261534e-06,0.0,0.0,0.0,1.5669528221261534e-06,0.0,24.14584775828179,3.0069201097360208,-0.0010094628611270761,0.0
2861,3.4482758620689657,2.0689655172413794,3.928571428571429,0,253937.0610305968,381192.0066519956,215439.31186418037,88843.55110812429,18539.699017793933,1.6929137402039787e-06,0.0,0.0,0.0,1.6929137402039787e-06,0.0,23.88082066464245,3.29796916258339,0.0006285567422306879,0.0
2862,3.4482758620689657,2.0689655172413794,4.285714285714286,0,180254.51356520655,273509.30585298256,236264.90208773565,77541.87439888834,24116.09282837826,1.201696757101377e-06,0.0,0.0,0.0,1.201696757101377e-06,0.0,24.257491110938275,3.5956122588253048,0.0008080493105703014,0.0
2863,3.4482758620689657,2.0689655172413794,4.642857142857143,0,223277.77253312152,377232.007859442,207961.3925826071,124181.86177083434,82965.67528453226,1.4885184835541434e-06,0.0,0.0,0.0,1.4885184835541434e-06,0.0,24.24039936244439,3.8971058980359423,0.0027698947470486445,0.0
2864,3.4482758620689657,2.0689655172413794,5.0,0,130263.4808856204,289368.1007771727,237563.48475130383,141171.9426684644,31403.50483001628,8.68423205904136e-07,0.0,0.0,0.0,8.68423205904136e-07,0.0,23.901588440707364,4.200129022953754,0.0010472867239347912,0.0
2865,3.793103448275862,2.0689655172413794,0.0,0,322574.2060953836,418881.5520848801,242950.31821194463,46591.70271468739,82934.88551807519,2.1504947073025576e-06,0.0,0.0,0.0,2.1504947073025576e-06,0.0,23.12082881250418,-0.04986814590960637,0.002765825184936432,0.0
2866,3.793103448275862,2.0689655172413794,0.35714285714285715,0,346040.8527884605,507069.6518060677,179812.10811310462,144893.2864949429,670.7281176924268,2.3069390185897367e-06,0.0,0.0,0.0,2.3069390185897367e-06,0.0,24.001586812564003,0.2542636176828669,2.2392950862179584e-05,0.0
2867,3.793103448275862,2.0689655172413794,0.7142857142857143,0,108812.86647615043,286949.403140969,286355.75737195933,177840.9283101664,13302.130628010522,7.254191098410029e-07,0.0,0.0,0.0,7.254191098410029e-07,0.0,23.594879098689272,0.5599584283210141,0.0004457097407765625,0.0
2868,3.793103448275862,2.0689655172413794,1.0714285714285714,0,309321.452977073,395262.8542537409,223519.55418626705,38175.5327824969,-20059.507139898826,2.0621430198471532e-06,0.0,0.0,0.0,2.0621430198471532e-06,0.0,23.548114459112366,0.8695882739733939,-0.0006800832336332252,0.0
2869,3.793103448275862,2.0689655172413794,1.4285714285714286,0,201675.72624443882,354678.7549233706,220622.56201192347,122742.19472855184,-16471.401093153436,1.344504841629592e-06,0.0,0.0,0.0,1.344504841629592e-06,0.0,23.768286388061725,1.1859568553972437,-0.000579920323686711,0.0
2870,3.793103448275862,2.0689655172413794,1.7857142857142858,0,383143.85595553246,718242.2833168576,374329.71752987796,305262.50638837524,71365.09013664763,2.5542923730368832e-06,0.0,0.0,0.0,2.5542923730368832e-06,0.0,24.531461514516653,1.5088638882433667,0.0028187425337874482,0.0
2871,3.793103448275862,2.0689655172413794,2.142857142857143,0,498154.2597219761,657894.5194694578,659218.6023444043,160403.62095519775,280888.9603490539,3.3210283981465074e-06,0.0,0.0,0.0,3.3210283981465074e-06,0.0,23.567189574266177,1.8315514014113343,0.015057079521651619,0.0
2872,3.793103448275862,2.0689655172413794,2.5,0,681480.8839912524,1135950.0130071382,742649.0025769891,349043.688980028,332241.6066792897,4.5432058932750156e-06,0.0,0.0,0.0,4.5432058932750156e-06,0.0,23.683783949905568,2.143302109808879,0.03322416066792897,0.0
2873,3.793103448275862,2.0689655172413794,2.857142857142857,0,167883.9675625389,726994.8601205461,690901.8869697755,543999.8981615037,273464.321473764,1.119226450416926e-06,0.0,0.0,0.0,1.119226450416926e-06,0.0,24.4856118234784,2.4386942585541913,0.014659081046290172,0.0
2874,3.793103448275862,2.0689655172413794,3.2142857142857144,0,103488.26967836339,569867.9767561676,522943.5736153035,451230.16248254926,126627.3509102098,6.899217978557559e-07,0.0,0.0,0.0,6.899217978557559e-07,0.0,23.754136445306173,2.7231496025290816,0.0050014635905034095,0.0
2875,3.793103448275862,2.0689655172413794,3.5714285714285716,0,172413.63042488167,329423.3538904031,398808.162555359,202512.01073791934,8238.078482729261,1.1494242028325445e-06,0.0,0.0,0.0,1.1494242028325445e-06,0.0,23.57809465434859,3.0073854268258153,0.0002900438835313583,0.0
2876,3.793103448275862,2.0689655172413794,3.928571428571429,0,246910.31159909215,415842.5058874418,270366.07634034345,130755.14864180287,3028.9431955941127,1.6460687439939477e-06,0.0,0.0,0.0,1.6460687439939477e-06,0.0,24.550847737568652,3.2981597025448233,0.0001026911313715053,0.0
2877,3.793103448275862,2.0689655172413794,4.285714285714286,0,162350.4014166078,288597.6844870652,168499.04701066928,103889.26741517714,-26457.73539409466,1.082336009444052e-06,0.0,0.0,0.0,1.082336009444052e-06,0.0,24.086431628418243,3.5956727140352998,-0.0008865098918217814,0.0
2878,3.793103448275862,2.0689655172413794,4.642857142857143,0,172522.74260171753,383660.21682485635,223265.78344859355,201143.32450564616,11504.063615081359,1.1501516173447834e-06,0.0,0.0,0.0,1.1501516173447834e-06,0.0,24.18856921905828,3.89712076054001,0.0003840750439003305,0.0
2879,3.793103448275862,2.0689655172413794,5.0,0,132818.24319332687,321675.49194162,172426.22725014834,216486.52635020402,57298.21210282524,8.854549546221792e-07,0.0,0.0,0.0,8.854549546221792e-07,0.0,24.04870022592056,4.200131854090394,0.0019108585861770365,0.0
2880,4.137931034482759,2.0689655172413794,0.0,0,284803.9084186198,330795.5004023171,351875.18619446416,57117.11484409211,47420.40197279652,1.8986927227907984e-06,0.0,0.0,0.0,1.8986927227907984e-06,0.0,24.338745677408053,-0.049865933438872974,0.0015814399602394709,0.0
2881,4.137931034482759,2.0689655172413794,0.35714285714285715,0,164231.2863709554,348619.7810333228,371621.44602828496,197101.8784766592,12388.853967582494,1.094875242473036e-06,0.0,0.0,0.0,1.094875242473036e-06,0.0,24.474562719032043,0.2542752324014279,0.0004136146835311445,0.0
2882,4.137931034482759,2.0689655172413794,0.7142857142857143,0,190386.66326534303,287936.86699715146,281967.4767296695,94635.7082188088,-28995.783025752968,1.2692444217689536e-06,0.0,0.0,0.0,1.2692444217689536e-06,0.0,24.07506781728825,0.560005672731945,-0.0009715513474817444,0.0
2883,4.137931034482759,2.0689655172413794,1.0714285714285714,0,260233.27100373333,364697.53955667565,305068.5645620999,79824.93251969402,62071.45533034687,1.7348884733582222e-06,0.0,0.0,0.0,1.7348884733582222e-06,0.0,23.39222276432877,0.8697371767435181,0.002104426383109805,0.0
2884,4.137931034482759,2.0689655172413794,1.4285714285714286,0,331868.31960425543,531184.577175765,305105.8340847352,150184.60591690164,48192.26219336471,2.2124554640283695e-06,0.0,0.0,0.0,2.2124554640283695e-06,0.0,24.29477152667116,1.186320490422335,0.0016967392228696163,0.0
2885,4.137931034482759,2.0689655172413794,1.7857142857142858,0,127771.10423059975,491935.17836826306,450471.7206752821,348581.9125333073,-24904.74334495701,8.518073615373317e-07,0.0,0.0,0.0,8.518073615373317e-07,0.0,23.980762579657352,1.5095519687099506,-0.0009836750605243174,0.0
2886,4.137931034482759,2.0689655172413794,2.142857142857143,0,704537.5001974207,1065472.4932771255,328446.62271083146,398684.95503317006,173914.21222858553,4.696916667982805e-06,0.0,0.0,0.0,4.696916667982805e-06,0.0,24.584142957833087,1.8325602438473103,0.009322687941231611,0.0
2887,4.137931034482759,2.0689655172413794,2.5,0,767029.4968995147,1319934.4681953539,695924.409962843,463601.56496973726,441248.04691862286,5.113529979330098e-06,0.0,0.0,0.0,5.113529979330098e-06,0.0,23.712429999955756,2.144448198022984,0.044124804691862286,0.0
2888,4.137931034482759,2.0689655172413794,2.857142857142857,0,295862.6365252541,722279.4726087801,452105.51060356695,406114.54600682994,282944.2901439676,1.9724175768350273e-06,0.0,0.0,0.0,1.9724175768350273e-06,0.0,24.007772974052976,2.439703100990167,0.015167255671425461,0.0
2889,4.137931034482759,2.0689655172413794,3.2142857142857144,0,141326.50128394662,413056.01539765723,440602.57357881765,287530.80090542685,113906.75330861917,9.421766752263108e-07,0.0,0.0,0.0,9.421766752263108e-07,0.0,23.428771742536586,2.7238376829956654,0.0044990318070341805,0.0
2890,4.137931034482759,2.0689655172413794,3.5714285714285716,0,240966.50631693748,431267.3158176236,279845.10924940964,153397.00872349826,40819.048680720196,1.6064433754462499e-06,0.0,0.0,0.0,1.6064433754462499e-06,0.0,24.56601780433701,3.0077490618509066,0.0014371452549562635,0.0
2891,4.137931034482759,2.0689655172413794,3.928571428571429,0,173067.23365400764,311657.4102572094,381248.10109991167,184217.99005886528,12148.572264050259,1.1537815576933843e-06,0.0,0.0,0.0,1.1537815576933843e-06,0.0,24.791849796384383,3.2983086053149475,0.000411876535736455,0.0
2892,4.137931034482759,2.0689655172413794,4.285714285714286,0,325957.2670976075,466645.18061512994,300060.7197346601,91059.68473996676,-4766.403272913995,2.173048447317383e-06,0.0,0.0,0.0,2.173048447317383e-06,0.0,23.939910888650136,3.5957199584462307,-0.00015970617238817388,0.0
2893,4.137931034482759,2.0689655172413794,4.642857142857143,0,139864.72098368118,340970.6159126053,256297.26086430193,179533.3196474456,80295.70156448676,9.324314732245412e-07,0.0,0.0,0.0,9.324314732245412e-07,0.0,24.091603725928785,3.8971323752585714,0.0026807549171545494,0.0
2894,4.137931034482759,2.0689655172413794,5.0,0,81109.11442478503,284230.006067827,218908.14778122643,193444.38711665053,1150.6527584640987,5.407274294985669e-07,0.0,0.0,0.0,5.407274294985669e-07,0.0,23.788539926335257,4.2001340665611275,3.83735307355428e-05,0.0
2895,4.482758620689656,2.0689655172413794,0.0,0,142499.62819151243,255752.38690408418,343585.42652572185,179169.272284598,-2887.0524875001784,9.499975212767495e-07,0.0,0.0,0.0,9.499975212767495e-07,0.0,23.792994698872853,-0.04986441114716161,-9.628134686966034e-05,0.0
2896,4.482758620689656,2.0689655172413794,0.35714285714285715,0,202084.31494976586,404329.23266746255,230387.95920099472,182650.0387176815,-16849.879497701364,1.3472287663317724e-06,0.0,0.0,0.0,1.3472287663317724e-06,0.0,24.501137066981197,0.25428322391495545,-0.0005625506277026235,0.0
2897,4.482758620689656,2.0689655172413794,0.7142857142857143,0,116147.95547811549,294982.69721117907,255209.86047355476,164173.158370898,73669.90794661689,7.743197031874366e-07,0.0,0.0,0.0,7.743197031874366e-07,0.0,23.907015763018666,0.560038179275007,0.0024684312981243612,0.0
2898,4.482758620689656,2.0689655172413794,1.0714285714285714,0,117750.99595961197,346110.9926592404,243071.59810145182,217763.83006777812,24954.218867018393,7.850066397307465e-07,0.0,0.0,0.0,7.850066397307465e-07,0.0,24.401401414757927,0.8698396293768288,0.0008460300515618105,0.0
2899,4.482758620689656,2.0689655172413794,1.4285714285714286,0,430545.7534107619,474942.32861710526,246876.60353932114,-21659.697032980366,-36235.41533963661,2.8703050227384125e-06,0.0,0.0,0.0,2.8703050227384125e-06,0.0,24.160946291856998,1.1865706897023987,-0.0012757660185580139,0.0
2900,4.482758620689656,2.0689655172413794,1.7857142857142858,0,165288.11993080663,515844.7742373514,403984.1948565573,325990.73506350565,-5688.554950827507,1.1019207995387108e-06,0.0,0.0,0.0,1.1019207995387108e-06,0.0,24.548577337830274,1.5100254028554159,-0.00022468369009248312,0.0
2901,4.482758620689656,2.0689655172413794,2.142857142857143,0,515689.4439054018,838460.2386519113,260307.04785108377,672833.1006443067,176995.9062840794,3.437929626036012e-06,0.0,0.0,0.0,3.437929626036012e-06,0.0,23.981831862106212,1.8332543784431614,0.009487882445128491,0.0
2902,4.482758620689656,2.0689655172413794,2.5,0,668168.6421346596,992396.4112603525,388778.11926897615,274434.5859363497,564881.1829688943,4.454457614231064e-06,0.0,0.0,0.0,4.454457614231064e-06,0.0,24.72542070123486,2.1452367646523585,0.056488118296889434,0.0
2903,4.482758620689656,2.0689655172413794,2.857142857142857,0,650516.9995660154,961883.966041251,651537.2975292098,214312.0533500866,192360.14250226563,4.336779997106769e-06,0.0,0.0,0.0,4.336779997106769e-06,0.0,25.125226115251365,2.4403972355860186,0.010311483793644249,0.0
2904,4.482758620689656,2.0689655172413794,3.2142857142857144,0,239050.96684529993,638645.0940574046,578953.4762839732,375404.66692646797,-6524.717772913311,1.5936731123019996e-06,0.0,0.0,0.0,1.5936731123019996e-06,0.0,23.342060732376016,2.7243111171411303,-0.00025771002982346404,0.0
2905,4.482758620689656,2.0689655172413794,3.5714285714285716,0,266324.3150194439,381169.49337614165,306874.349345363,85586.60169515324,47609.08991207103,1.7754954334629594e-06,0.0,0.0,0.0,1.7754954334629594e-06,0.0,24.15088584410248,3.0079992611309705,0.0016762070619307681,0.0
2906,4.482758620689656,2.0689655172413794,3.928571428571429,0,223541.12696086086,347471.07263832504,190740.1962099066,91490.29239697961,30790.284797137963,1.4902741797390724e-06,0.0,0.0,0.0,1.4902741797390724e-06,0.0,24.15531430691118,3.298411057948258,0.0010438918714844923,0.0
2907,4.482758620689656,2.0689655172413794,4.285714285714286,0,167616.97069903382,308264.12803812017,137016.8786944784,144530.10994456444,49672.30084912659,1.117446471326892e-06,0.0,0.0,0.0,1.117446471326892e-06,0.0,23.8485837681693,3.595752464989293,0.0016643520466277986,0.0
2908,4.482758620689656,2.0689655172413794,4.642857142857143,0,184695.9499050948,233863.1361630104,284464.14701183885,79741.66080705078,-48809.70606777943,1.231306332700632e-06,0.0,0.0,0.0,1.231306332700632e-06,0.0,24.414928984945725,3.8971403667720987,-0.0016295624422807083,0.0
2909,4.482758620689656,2.0689655172413794,5.0,0,156273.50370950464,349000.684692664,194680.22166905756,190844.7497097547,-33267.1137041002,1.0418233580633644e-06,0.0,0.0,0.0,1.0418233580633644e-06,0.0,24.776208589786474,4.200135588852839,-0.0011094368833835429,0.0
2910,4.827586206896552,2.0689655172413794,0.0,0,320628.5894968267,448926.2679790733,269871.657428274,78761.69284612102,-20470.930972936712,2.1375239299788446e-06,0.0,0.0,0.0,2.1375239299788446e-06,0.0,23.174104337997782,-0.04986363467145917,-0.0006826924048952093,0.0
2911,4.827586206896552,2.0689655172413794,0.35714285714285715,0,107762.11940727265,268169.0327278857,253418.41641377105,153791.4401657157,53424.48198296305,7.184141293818177e-07,0.0,0.0,0.0,7.184141293818177e-07,0.0,23.14100672080743,0.2542873001481987,0.0017836315018337837,0.0
2912,4.827586206896552,2.0689655172413794,0.7142857142857143,0,119658.5199700065,276259.4208489859,260007.25976814795,149305.47385223306,2059.4359575317258,7.9772346646671e-07,0.0,0.0,0.0,7.9772346646671e-07,0.0,24.999297984070935,0.5600547598953108,6.900478520670495e-05,0.0
2913,4.827586206896552,2.0689655172413794,1.0714285714285714,0,36521.459601085255,278040.1860565171,237931.34039828292,246704.03524066578,61557.85260549392,2.4347639734056835e-07,0.0,0.0,0.0,2.4347639734056835e-07,0.0,24.05551702696188,0.8698918874163507,0.002087013562371748,0.0
2914,4.827586206896552,2.0689655172413794,1.4285714285714286,0,178907.27746782926,447944.3812966437,303891.8316703873,247682.14763974168,29466.43658755696,1.1927151831188617e-06,0.0,0.0,0.0,1.1927151831188617e-06,0.0,24.224782010637075,1.1866983089098648,0.0010374457732592593,0.0
2915,4.827586206896552,2.0689655172413794,1.7857142857142858,0,386260.0038752798,610723.6567812918,378927.1692724236,164826.04654618626,52735.55690037048,2.5750666925018653e-06,0.0,0.0,0.0,2.5750666925018653e-06,0.0,23.65055292547875,1.5102668875248213,0.0020829225745167,0.0
2916,4.827586206896552,2.0689655172413794,2.142857142857143,0,590668.3963838288,804036.5386319878,475748.45615144074,122148.0086112173,360830.96806205914,3.937789309225526e-06,0.0,0.0,0.0,3.937789309225526e-06,0.0,24.2116890495411,1.8336084358448246,0.019342378473092812,0.0
2917,4.827586206896552,2.0689655172413794,2.5,0,277274.03620507143,797639.5060082205,495644.97897231934,554553.3159913523,394778.5875243308,1.8484935747004763e-06,0.0,0.0,0.0,1.8484935747004763e-06,0.0,24.878695755325435,2.145638989024265,0.03947785875243308,0.0
2918,4.827586206896552,2.0689655172413794,2.857142857142857,0,642168.5110335023,845706.6788574556,185170.01883507147,223635.52648527198,142604.68249287797,4.281123406890016e-06,0.0,0.0,0.0,4.281123406890016e-06,0.0,24.447205077284213,2.440751292987682,0.0076443376122253374,0.0
2919,4.827586206896552,2.0689655172413794,3.2142857142857144,0,192322.60697479523,385073.3482647136,372016.20919142495,186554.88708531336,73566.41028672499,1.2821507131653015e-06,0.0,0.0,0.0,1.2821507131653015e-06,0.0,24.300099950800654,2.724552601810536,0.00290568917290225,0.0
2920,4.827586206896552,2.0689655172413794,3.5714285714285716,0,324156.70560933265,402468.7034975973,392762.02418712777,73567.67433653021,5481.425459382802,2.1610447040622176e-06,0.0,0.0,0.0,2.1610447040622176e-06,0.0,23.323463662689285,3.0081268803384367,0.00019298844152311736,0.0
2921,4.827586206896552,2.0689655172413794,3.928571428571429,0,186189.54289048965,395352.8957312471,284827.9771642244,180388.440018185,65314.81992311114,1.2412636192699311e-06,0.0,0.0,0.0,1.2412636192699311e-06,0.0,24.58454372260756,3.29846331598778,0.0022143871047125476,0.0
2922,4.827586206896552,2.0689655172413794,4.285714285714286,0,155863.04396999898,245008.00437242188,243629.52455643087,88460.29237952009,-45057.009554349715,1.0390869597999931e-06,0.0,0.0,0.0,1.0390869597999931e-06,0.0,24.222725808967343,3.5957690456095968,-0.0015097091293291445,0.0
2923,4.827586206896552,2.0689655172413794,4.642857142857143,0,84834.5994760602,225900.8195714621,180200.09580594325,128013.85226345467,12132.379413638095,5.65563996507068e-07,0.0,0.0,0.0,5.65563996507068e-07,0.0,23.918668957687984,3.897144443005342,0.00040505201568946317,0.0
2924,4.827586206896552,2.0689655172413794,5.0,0,259807.68344291789,428554.8923498989,292936.38141778595,129000.63263263379,22643.654237989384,1.7320512229527858e-06,0.0,0.0,0.0,1.7320512229527858e-06,0.0,24.548656351999824,4.200136365328541,0.00075515133082054,0.0
2925,5.172413793103448,2.0689655172413794,0.0,0,122374.52573206185,280912.2827843214,216414.20263996112,139780.17336058491,10972.5440470375,8.15830171547079e-07,0.0,0.0,0.0,8.15830171547079e-07,0.0,23.737186038683067,-0.04986363467145917,0.0003659272992124217,0.0
2926,5.172413793103448,2.0689655172413794,0.35714285714285715,0,197452.69618310186,392869.16270189866,324935.15992699267,170417.95592786526,35181.402956680984,1.3163513078873457e-06,0.0,0.0,0.0,1.3163513078873457e-06,0.0,24.446235475832054,0.2542873001481987,0.0011745674691287689,0.0
2927,5.172413793103448,2.0689655172413794,0.7142857142857143,0,179023.84602431452,311267.78589980956,161794.47228043948,112866.93123127957,-20304.741429872858,1.1934923068287634e-06,0.0,0.0,0.0,1.1934923068287634e-06,0.0,24.779026641447516,0.5600547598953108,-0.0006803437202899644,0.0
2928,5.172413793103448,2.0689655172413794,1.0714285714285714,0,206085.59115191415,320159.6753343537,181984.42341276834,83286.5592448293,27748.699186635888,1.373903941012761e-06,0.0,0.0,0.0,1.373903941012761e-06,0.0,24.252425799770236,0.8698918874163507,0.0009407721206882136,0.0
2929,5.172413793103448,2.0689655172413794,1.4285714285714286,0,352999.4257371831,418229.2355534611,204002.40376413518,10801.412783417107,26424.765524207036,2.353329504914554e-06,0.0,0.0,0.0,2.353329504914554e-06,0.0,23.9680561397333,1.1866983089098648,0.000930355498568566,0.0
2930,5.172413793103448,2.0689655172413794,1.7857142857142858,0,226609.21096217135,453426.6997496037,222293.76910624755,231629.77376782114,122236.87354263457,1.5107280730811422e-06,0.0,0.0,0.0,1.5107280730811422e-06,0.0,23.8987125674182,1.5102668875248213,0.004828050717683954,0.0
2931,5.172413793103448,2.0689655172413794,2.142857142857143,0,488852.9669705025,837704.0253297546,418314.50148511323,300806.6598375861,266078.00929685833,3.25901977980335e-06,0.0,0.0,0.0,3.25901977980335e-06,0.0,24.38086584121934,1.8336084358448246,0.014263137077252703,0.0
2932,5.172413793103448,2.0689655172413794,2.5,0,567520.3530548712,886952.3374821206,691972.2332803187,247644.58508377048,440142.8859426117,3.783469020365808e-06,0.0,0.0,0.0,3.783469020365808e-06,0.0,23.978243755933903,2.145638989024265,0.04401428859426117,0.0
2933,5.172413793103448,2.0689655172413794,2.857142857142857,0,228958.08066264304,600553.1747042548,455012.5130127653,336640.90825430024,256497.8477518663,1.5263872044176204e-06,0.0,0.0,0.0,1.5263872044176204e-06,0.0,25.382237853180282,2.440751292987682,0.013749591603504077,0.0
2934,5.172413793103448,2.0689655172413794,3.2142857142857144,0,544700.9539132292,587987.4173705418,-39259.0001279764,314620.61178199365,-533.7997775532858,3.631339692754861e-06,0.0,0.0,0.0,3.631339692754861e-06,0.0,23.496169633646467,2.724552601810536,-2.108375586207037e-05,0.0
2935,5.172413793103448,2.0689655172413794,3.5714285714285716,0,119198.60121026121,364264.95458221674,351774.48459726025,239312.94787831057,-16890.862957034104,7.946573414017414e-07,0.0,0.0,0.0,7.946573414017414e-07,0.0,24.143581567377076,3.0081268803384367,-0.0005946886156189025,0.0
2936,5.172413793103448,2.0689655172413794,3.928571428571429,0,256963.23604300202,320485.91939714306,120168.36140463571,30762.476901516657,-10848.609503890833,1.71308824028668e-06,0.0,0.0,0.0,1.71308824028668e-06,0.0,24.34948319009361,3.29846331598778,-0.0003678035248012295,0.0
2937,5.172413793103448,2.0689655172413794,4.285714285714286,0,148694.24372730392,243428.44484169155,262658.77445713227,105284.94176560892,-29265.70435242198,9.912949581820262e-07,0.0,0.0,0.0,9.912949581820262e-07,0.0,24.29469102413752,3.5957690456095968,-0.0009805955049858347,0.0
2938,5.172413793103448,2.0689655172413794,4.642857142857143,0,216510.7165772486,422030.6313763392,226094.70516951848,189586.92693308662,248.90286269775984,1.4434047771816573e-06,0.0,0.0,0.0,1.4434047771816573e-06,0.0,23.9422905362857,3.897144443005342,8.309879110215957e-06,0.0
2939,5.172413793103448,2.0689655172413794,5.0,0,138444.54514870333,376196.62136792263,359594.9381708623,230199.8097205211,-37737.26525794448,9.229636343246888e-07,0.0,0.0,0.0,9.229636343246888e-07,0.0,24.843533370262186,4.200136365328541,-0.0012585135677109195,0.0
2940,5.517241379310345,2.0689655172413794,0.0,0,267548.9191879311,376117.67403565295,283591.7137370958,74586.92435455028,-2308.119668093188,1.783659461252874e-06,0.0,0.0,0.0,1.783659461252874e-06,0.0,24.483048297531745,-0.04986441114716161,-7.697430903751514e-05,0.0
2941,5.517241379310345,2.0689655172413794,0.35714285714285715,0,97371.96207290118,296111.4322645351,188936.0689586237,213089.4148264639,-15618.15483594559,6.491464138193412e-07,0.0,0.0,0.0,6.491464138193412e-07,0.0,24.52425016992352,0.25428322391495545,-0.0005214282278823733,0.0
2942,5.517241379310345,2.0689655172413794,0.7142857142857143,0,153091.1122037298,206967.0705598364,177044.66148644692,41123.87335268232,-3831.142580260968,1.0206074146915321e-06,0.0,0.0,0.0,1.0206074146915321e-06,0.0,23.825128711430665,0.560038179275007,-0.00012836872634001143,0.0
2943,5.517241379310345,2.0689655172413794,1.0714285714285714,0,214822.7950518973,453271.29225832084,326135.4501929155,205241.4740201256,13030.710092683252,1.4321519670126487e-06,0.0,0.0,0.0,1.4321519670126487e-06,0.0,23.962457728069694,0.8698396293768288,0.0004417839079776029,0.0
2944,5.517241379310345,2.0689655172413794,1.4285714285714286,0,233273.30423354093,374168.4052990592,153346.83868429746,130173.14962910947,-11080.999046575616,1.5551553615569395e-06,0.0,0.0,0.0,1.5551553615569395e-06,0.0,24.412686071798806,1.1865706897023987,-0.0003901366081440008,0.0
2945,5.517241379310345,2.0689655172413794,1.7857142857142858,0,68817.43909605581,461357.5106735095,400549.27966838464,386652.04975955037,14944.009711365623,4.587829273070387e-07,0.0,0.0,0.0,4.587829273070387e-07,0.0,23.623043474830006,1.5100254028554159,0.0005902509997269332,0.0
2946,5.517241379310345,2.0689655172413794,2.142857142857143,0,540672.0879895657,870962.0802847681,541678.7543739475,246966.87680873892,250596.2089901171,3.6044805865971045e-06,0.0,0.0,0.0,3.6044805865971045e-06,0.0,24.510814045307143,1.8332543784431614,0.013433233694552108,0.0
2947,5.517241379310345,2.0689655172413794,2.5,0,747912.694406228,1166743.0645889514,597222.6290716927,319747.7949168381,642587.5008537527,4.986084629374853e-06,0.0,0.0,0.0,4.986084629374853e-06,0.0,24.132290663071505,2.1452367646523585,0.06425875008537528,0.0
2948,5.517241379310345,2.0689655172413794,2.857142857142857,0,438634.8081783429,800238.6983424908,619602.6400730599,300129.92286848364,405825.4096934694,2.924232054522286e-06,0.0,0.0,0.0,2.924232054522286e-06,0.0,24.719798583607766,2.4403972355860186,0.021754309810068685,0.0
2949,5.517241379310345,2.0689655172413794,3.2142857142857144,0,547673.0496412735,681376.4751293479,400406.0197239331,50241.19729383127,29218.37362291217,3.6511536642751565e-06,0.0,0.0,0.0,3.6511536642751565e-06,0.0,23.97842586088914,2.7243111171411303,0.001154052665544137,0.0
2950,5.517241379310345,2.0689655172413794,3.5714285714285716,0,388244.61304701783,460844.56822514563,299810.3986583945,17994.933518376154,-1092.1970302191357,2.5882974203134524e-06,0.0,0.0,0.0,2.5882974203134524e-06,0.0,25.104059204421546,3.0079992611309705,-3.845375701266978e-05,0.0
2951,5.517241379310345,2.0689655172413794,3.928571428571429,0,84411.59568541092,255786.69667415827,237230.37477725412,163640.78159660517,-55347.26791217545,5.627439712360728e-07,0.0,0.0,0.0,5.627439712360728e-07,0.0,24.406956902046943,3.298411057948258,-0.0018764543252216004,0.0
2952,5.517241379310345,2.0689655172413794,4.285714285714286,0,75135.9493364531,273749.0230148329,247898.61872162647,189100.54479206057,-5751.898841391047,5.009063289096873e-07,0.0,0.0,0.0,5.009063289096873e-07,0.0,24.466656236605694,3.595752464989293,-0.00019272682048175315,0.0
2953,5.517241379310345,2.0689655172413794,4.642857142857143,0,188084.10438687666,375774.64751677105,226653.3135698534,164474.26010907843,-45778.754943979904,1.2538940292458443e-06,0.0,0.0,0.0,1.2538940292458443e-06,0.0,23.86488945322626,3.8971403667720987,-0.0015283710089851765,0.0
2954,5.517241379310345,2.0689655172413794,5.0,0,118559.72311614138,144249.55665581755,179135.11532181254,47046.549791514386,-15398.016602251328,7.903981541076092e-07,0.0,0.0,0.0,7.903981541076092e-07,0.0,24.342580128839494,4.200135588852839,-0.0005135139676209497,0.0
2955,5.862068965517242,2.0689655172413794,0.0,0,128342.13897520246,302327.7098700971,218399.54639657668,154586.73004731006,33575.56549726556,8.556142598346831e-07,0.0,0.0,0.0,8.556142598346831e-07,0.0,23.852474806061345,-0.049865933438872974,0.0011197235526487898,0.0
2956,5.862068965517242,2.0689655172413794,0.35714285714285715,0,141596.8466543955,222505.38510953874,173657.79718277854,62951.64684153211,-46814.886745985044,9.439789776959699e-07,0.0,0.0,0.0,9.439789776959699e-07,0.0,23.361651222380505,0.2542752324014279,-0.001562963339196212,0.0
2957,5.862068965517242,2.0689655172413794,0.7142857142857143,0,123725.54431756421,282896.21933426964,170085.1834555905,150574.54399308265,-28201.4999763647,8.248369621170947e-07,0.0,0.0,0.0,8.248369621170947e-07,0.0,24.038734065278923,0.560005672731945,-0.0009449375889834932,0.0
2958,5.862068965517242,2.0689655172413794,1.0714285714285714,0,100118.89633025033,302907.997173366,203854.24173988364,201756.91434622815,-28694.566764110274,6.674593088683355e-07,0.0,0.0,0.0,6.674593088683355e-07,0.0,24.722704630755832,0.8697371767435181,-0.0009728401409138019,0.0
2959,5.862068965517242,2.0689655172413794,1.4285714285714286,0,147769.5951121223,347561.49424685334,253128.00442977366,177269.2024562208,-57773.48240987377,9.851306340808153e-07,0.0,0.0,0.0,9.851306340808153e-07,0.0,24.113970687595817,1.186320490422335,-0.002034072051925741,0.0
2960,5.862068965517242,2.0689655172413794,1.7857142857142858,0,101642.04166343047,477065.5205689757,379189.11084930814,372035.77491374785,102759.20190897897,6.776136110895365e-07,0.0,0.0,0.0,6.776136110895365e-07,0.0,24.003693304540874,1.5095519687099506,0.004058731413416214,0.0
2961,5.862068965517242,2.0689655172413794,2.142857142857143,0,373776.737694112,620228.3444892451,701835.5488467825,293997.55074719095,321714.4312282569,2.4918449179607465e-06,0.0,0.0,0.0,2.4918449179607465e-06,0.0,24.001791915730806,1.8325602438473103,0.01724553278365645,0.0
2962,5.862068965517242,2.0689655172413794,2.5,0,937121.7486778375,1363474.0330438965,561240.549007617,333458.8495717591,708563.9515017465,6.2474783245189166e-06,0.0,0.0,0.0,6.2474783245189166e-06,0.0,25.281026909460554,2.144448198022984,0.07085639515017465,0.0
2963,5.862068965517242,2.0689655172413794,2.857142857142857,0,671872.1227420327,1091353.1545373667,587490.8385908914,328536.2713332552,220599.31207716448,4.479147484946885e-06,0.0,0.0,0.0,4.479147484946885e-06,0.0,24.469181389808263,2.439703100990167,0.01182524717325971,0.0
2964,5.862068965517242,2.0689655172413794,3.2142857142857144,0,329988.5051858725,411657.7369204908,388070.5168677971,70508.47438086774,-38548.48563229832,2.1999233679058167e-06,0.0,0.0,0.0,2.1999233679058167e-06,0.0,23.374702197053303,2.7238376829956654,-0.0015225687497458236,0.0
2965,5.862068965517242,2.0689655172413794,3.5714285714285716,0,335478.8213097109,492850.2316024613,216497.71221225077,119582.49329240195,39947.664791597825,2.2365254753980727e-06,0.0,0.0,0.0,2.2365254753980727e-06,0.0,23.902867225337253,3.0077490618509066,0.001406465823123031,0.0
2966,5.862068965517242,2.0689655172413794,3.928571428571429,0,165047.85025669707,296423.1789887095,230264.46221307342,108559.90341209575,-11418.337692111767,1.1003190017113138e-06,0.0,0.0,0.0,1.1003190017113138e-06,0.0,23.978766279437348,3.2983086053149475,-0.0003871191832486207,0.0
2967,5.862068965517242,2.0689655172413794,4.285714285714286,0,196817.80742898866,320779.2644736398,281600.091866417,107318.60336381974,-14586.963497476429,1.3121187161932578e-06,0.0,0.0,0.0,1.3121187161932578e-06,0.0,23.82330623277844,3.5957199584462307,-0.000488760176921355,0.0
2968,5.862068965517242,2.0689655172413794,4.642857142857143,0,144160.86432628316,307760.20714779146,229820.31162822343,141407.43355147587,46070.82814036499,9.610724288418878e-07,0.0,0.0,0.0,9.610724288418878e-07,0.0,24.220822957467178,3.8971323752585714,0.0015381221742670384,0.0
2969,5.862068965517242,2.0689655172413794,5.0,0,221497.8438423739,270521.8570421562,232272.81592169916,32390.366348909254,5290.526647806699,1.4766522922824926e-06,0.0,0.0,0.0,1.4766522922824926e-06,0.0,23.906432401337405,4.2001340665611275,0.00017643566700157774,0.0
2970,6.206896551724139,2.0689655172413794,0.0,0,277508.63868426793,370173.71784994076,172884.27964140003,52854.119706228965,27967.72955401272,1.850057591228453e-06,0.0,0.0,0.0,1.850057591228453e-06,0.0,23.83796920555711,-0.04986814590960637,0.0009327058243677267,0.0
2971,6.206896551724139,2.0689655172413794,0.35714285714285715,0,135231.34992868986,317160.9140510049,338382.1045818072,193794.78071073623,-19262.910896263948,9.015423328579324e-07,0.0,0.0,0.0,9.015423328579324e-07,0.0,24.17584022255703,0.2542636176828669,-0.0006431121728527062,0.0
2972,6.206896551724139,2.0689655172413794,0.7142857142857143,0,246322.2082291349,280778.98898352904,177006.90119307095,-449.91094516009053,-22501.21510355939,1.6421480548608995e-06,0.0,0.0,0.0,1.6421480548608995e-06,0.0,23.333454633095887,0.5599584283210141,-0.000753940179315851,0.0
2973,6.206896551724139,2.0689655172413794,1.0714285714285714,0,103618.0436804157,236321.80599552015,117170.39689998208,167317.14291208395,-11477.893773681497,6.907869578694381e-07,0.0,0.0,0.0,6.907869578694381e-07,0.0,23.033015018493916,0.8695882739733939,-0.0003891383301924608,0.0
2974,6.206896551724139,2.0689655172413794,1.4285714285714286,0,194420.18882097755,305174.6086046873,324034.64509160566,120871.73318016701,29580.528936048504,1.2961345921398503e-06,0.0,0.0,0.0,1.2961345921398503e-06,0.0,24.734696408224657,1.1859568553972437,0.0010414627036523208,0.0
2975,6.206896551724139,2.0689655172413794,1.7857142857142858,0,129026.12009213722,357550.054652006,360377.89155700395,229961.0965092148,58778.72641151778,8.601741339475815e-07,0.0,0.0,0.0,8.601741339475815e-07,0.0,24.536634676034843,1.5088638882433667,0.0023216126526395186,0.0
2976,6.206896551724139,2.0689655172413794,2.142857142857143,0,262512.31283744064,790563.4093531648,504246.89425329235,561208.54933503,334347.5994598536,1.7500820855829375e-06,0.0,0.0,0.0,1.7500820855829375e-06,0.0,24.307201335898725,1.8315514014113343,0.01792273497215533,0.0
2977,6.206896551724139,2.0689655172413794,2.5,0,311693.1595443509,705841.5868389705,548300.7236056483,346824.33005650144,293852.1757299601,2.0779543969623395e-06,0.0,0.0,0.0,2.0779543969623395e-06,0.0,24.279824235298143,2.143302109808879,0.02938521757299601,0.0
2978,6.206896551724139,2.0689655172413794,2.857142857142857,0,392682.28167635284,746749.3391796269,847264.8888164924,414094.79694173194,149023.85019150938,2.6178818778423524e-06,0.0,0.0,0.0,2.6178818778423524e-06,0.0,24.037598640149536,2.4386942585541913,0.007988437709220966,0.0
2979,6.206896551724139,2.0689655172413794,3.2142857142857144,0,399341.90898105694,678144.6976115729,410349.79015592445,219149.75708286572,-58568.20237113899,2.662279393207046e-06,0.0,0.0,0.0,2.662279393207046e-06,0.0,25.64494290050652,2.7231496025290816,-0.002313297479690612,0.0
2980,6.206896551724139,2.0689655172413794,3.5714285714285716,0,277307.3743475507,460711.6996765077,300964.28582686273,140504.9889969048,-9423.139945389843,1.8487158289836712e-06,0.0,0.0,0.0,1.8487158289836712e-06,0.0,24.238171891100773,3.0073854268258153,-0.0003317671846110966,0.0
2981,6.206896551724139,2.0689655172413794,3.928571428571429,0,178276.7203658796,317686.2971563034,234224.56738407258,112988.58358008058,-44485.302740916486,1.188511469105864e-06,0.0,0.0,0.0,1.188511469105864e-06,0.0,25.450477746739605,3.2981597025448233,-0.0015081979993925242,0.0
2982,6.206896551724139,2.0689655172413794,4.285714285714286,0,118922.31080508471,304953.9218011812,234014.09365290817,167659.78863383838,52444.36305564012,7.928154053672314e-07,0.0,0.0,0.0,7.928154053672314e-07,0.0,25.182568049691497,3.5956727140352998,0.0017572345450810887,0.0
2983,6.206896551724139,2.0689655172413794,4.642857142857143,0,304986.4737636292,425687.78837270447,303099.2297254359,78481.31423156722,-661.5502743742671,2.033243158424195e-06,0.0,0.0,0.0,2.033243158424195e-06,0.0,24.386724525231195,3.89712076054001,-2.2086539085152252e-05,0.0
2984,6.206896551724139,2.0689655172413794,5.0,0,249291.76143874243,341525.6094344747,200998.9787220113,53694.87494871646,6702.402359995173,1.6619450762582827e-06,0.0,0.0,0.0,1.6619450762582827e-06,0.0,24.055639683827895,4.200131854090394,0.00022352081552957408,0.0
2985,6.551724137931035,2.0689655172413794,0.0,0,161296.09853842054,288344.15174120397,126087.48018078855,128026.10195521466,-33628.22828152858,1.0753073235894702e-06,0.0,0.0,0.0,1.0753073235894702e-06,0.0,24.06044985701237,-0.049870977046245824,-0.0011214798226926157,0.0
2986,6.551724137931035,2.0689655172413794,0.35714285714285715,0,117687.4977532494,220611.74491557985,269627.6004564981,135354.32498187982,-34597.66447177104,7.84583318354996e-07,0.0,0.0,0.0,7.84583318354996e-07,0.0,23.856765446929266,0.25424875517879925,-0.0011550787569902003,0.0
2987,6.551724137931035,2.0689655172413794,0.7142857142857143,0,289719.7023759548,334011.4024456016,247492.6377887485,10888.868797640132,48033.945798030145,1.9314646825063652e-06,0.0,0.0,0.0,1.9314646825063652e-06,0.0,24.29241482855152,0.5598979731110191,0.001609456268985493,0.0
2988,6.551724137931035,2.0689655172413794,1.0714285714285714,0,213021.89032664648,371898.8965662901,230181.70950742532,126926.82013725617,57061.56579384614,1.4201459355109765e-06,0.0,0.0,0.0,1.4201459355109765e-06,0.0,24.40354614078864,0.8693977340119609,0.0019345746588193416,0.0
2989,6.551724137931035,2.0689655172413794,1.4285714285714286,0,253101.66990600902,323869.0922213717,294391.40558308404,57319.29838170038,20074.198279073193,1.68734446604006e-06,0.0,0.0,0.0,1.68734446604006e-06,0.0,23.459289094249336,1.185491538307449,0.0007067665645389611,0.0
2990,6.551724137931035,2.0689655172413794,1.7857142857142858,0,260419.54936660372,561947.8422725077,332340.03962839796,278981.7144665822,-51954.06051971256,1.7361303291106915e-06,0.0,0.0,0.0,1.7361303291106915e-06,0.0,25.383351623999356,1.5079834021015954,-0.00205205542246878,0.0
2991,6.551724137931035,2.0689655172413794,2.142857142857143,0,629515.0161772263,729550.3764671405,553987.5345013831,30890.55352255105,263260.05437139975,4.196766774514842e-06,0.0,0.0,0.0,4.196766774514842e-06,0.0,23.690362069565335,1.8302604596868617,0.014112080334587086,0.0
2992,6.551724137931035,2.0689655172413794,2.5,0,234169.13258576885,891644.8328212417,623618.6189332741,726702.0611905456,563138.5497795106,1.5611275505717923e-06,0.0,0.0,0.0,1.5611275505717923e-06,0.0,22.74242815513441,2.1418355447212565,0.056313854977951064,0.0
2993,6.551724137931035,2.0689655172413794,2.857142857142857,0,173605.0573124039,395295.8776740242,457659.7392741753,261487.57391707835,278799.4839150102,1.1573670487493593e-06,0.0,0.0,0.0,1.1573670487493593e-06,0.0,24.049424175990815,2.4374033168297187,0.014945072938028978,0.0
2994,6.551724137931035,2.0689655172413794,3.2142857142857144,0,382280.22082656005,507466.7810604511,498009.74361642724,120545.78390997736,-56649.25452011787,2.5485348055104002e-06,0.0,0.0,0.0,2.5485348055104002e-06,0.0,23.5208375748103,2.72226911638731,-0.002237503840007173,0.0
2995,6.551724137931035,2.0689655172413794,3.5714285714285716,0,302464.03402499633,442568.6796632618,154785.01931005326,127300.31811798972,73221.17539827676,2.0164268934999755e-06,0.0,0.0,0.0,2.0164268934999755e-06,0.0,24.073078751043326,3.0069201097360208,0.0025779499568704084,0.0
2996,6.551724137931035,2.0689655172413794,3.928571428571429,0,182867.09685927062,278707.5538278513,373912.2576882567,163084.8360356696,-26446.958861041734,1.219113979061804e-06,0.0,0.0,0.0,1.219113979061804e-06,0.0,24.139990231335894,3.29796916258339,-0.0008966388444413625,0.0
2997,6.551724137931035,2.0689655172413794,4.285714285714286,0,118639.29615359755,312873.7643401977,271064.7490908036,178990.1114066076,-41520.48517115915,7.909286410239837e-07,0.0,0.0,0.0,7.909286410239837e-07,0.0,24.331903270109486,3.5956122588253048,-0.0013912120697105374,0.0
2998,6.551724137931035,2.0689655172413794,4.642857142857143,0,155564.45765408225,261973.10193135758,106295.67651041063,106521.85868658268,-952.9098057928537,1.0370963843605483e-06,0.0,0.0,0.0,1.0370963843605483e-06,0.0,24.61692486846323,3.8971058980359423,-3.181387792511415e-05,0.0
2999,6.551724137931035,2.0689655172413794,5.0,0,257233.25304774437,330819.3453107656,202167.8838550959,34641.18830165341,36543.06689600405,1.714888353651629e-06,0.0,0.0,0.0,1.714888353651629e-06,0.0,23.61499489614922,4.200129022953754,0.0012186878190572385,0.0
3000,6.8965517241379315,2.0689655172413794,0.0,0,216985.51929922457,296282.29199250037,206345.90538736794,48789.284509391626,15887.784113770429,1.446570128661497e-06,0.0,0.0,0.0,1.446570128661497e-06,0.0,23.820871112241758,-0.04987434892611723,0.0005298473996822738,0.0
3001,6.8965517241379315,2.0689655172413794,0.35714285714285715,0,105084.37498537947,251567.85188118267,241106.08124485708,141643.8942877612,-40752.555137748954,7.005624999025298e-07,0.0,0.0,0.0,7.005624999025298e-07,0.0,24.346547311928077,0.25423105395675066,-0.0013605661379568854,0.0
3002,6.8965517241379315,2.0689655172413794,0.7142857142857143,0,224187.79739563123,393560.03234683466,156031.95236921718,185658.5876520636,-46004.16770175771,1.494585315970875e-06,0.0,0.0,0.0,1.494585315970875e-06,0.0,23.683302183251424,0.5598259710384721,-0.0015414452191452137,0.0
3003,6.8965517241379315,2.0689655172413794,1.0714285714285714,0,168320.8443336018,379625.0684540644,226152.93271997376,199609.6013726102,-69957.3885540606,1.122138962224012e-06,0.0,0.0,0.0,1.122138962224012e-06,0.0,23.078045695157332,0.8691708011780938,-0.002371785442811307,0.0
3004,6.8965517241379315,2.0689655172413794,1.4285714285714286,0,143690.06794631938,327033.33347093663,251418.23558215346,161325.0286457834,-6172.382633759056,9.57933786308796e-07,0.0,0.0,0.0,9.57933786308796e-07,0.0,24.331175346740146,1.1849373462889363,-0.00021731546179005077,0.0
3005,6.8965517241379315,2.0689655172413794,1.7857142857142858,0,281280.6072166405,586004.9957074951,294440.1181852789,316282.16142195254,30925.594151887693,1.8752040481109367e-06,0.0,0.0,0.0,1.8752040481109367e-06,0.0,23.74358674809117,1.50693474430913,0.0012214836056629562,0.0
3006,6.8965517241379315,2.0689655172413794,2.142857142857143,0,399436.85867454135,874481.0961665193,414269.4426513713,617847.3681646792,338386.58999762085,2.662912391163609e-06,0.0,0.0,0.0,2.662912391163609e-06,0.0,23.715042048110845,1.8287229498559139,0.018139245445328737,0.0
3007,6.8965517241379315,2.0689655172413794,2.5,0,394569.2196082804,1048422.4454419343,821078.8082137362,592813.4659032327,472386.4397749746,2.630461464055203e-06,0.0,0.0,0.0,2.630461464055203e-06,0.0,24.095716114814877,2.140088867704627,0.04723864397749746,0.0
3008,6.8965517241379315,2.0689655172413794,2.857142857142857,0,213502.82067883987,522050.86532189586,284799.9167167168,461455.08149993746,374695.85027717834,1.4233521378589324e-06,0.0,0.0,0.0,1.4233521378589324e-06,0.0,24.04248714876003,2.435865806998771,0.02008560680720732,0.0
3009,6.8965517241379315,2.0689655172413794,3.2142857142857144,0,446119.93651793327,640239.5367360367,423999.0333710689,127208.14506464876,91029.93238110453,2.974132910119555e-06,0.0,0.0,0.0,2.974132910119555e-06,0.0,24.543762680242832,2.7212204585948445,0.003595454608956624,0.0
3010,6.8965517241379315,2.0689655172413794,3.5714285714285716,0,104618.46175831741,329653.1014502619,319772.311028419,220444.78199532264,-22440.998389796092,6.974564117221161e-07,0.0,0.0,0.0,6.974564117221161e-07,0.0,23.425360168887075,3.006365917717508,-0.0007900961780035188,0.0
3011,6.8965517241379315,2.0689655172413794,3.928571428571429,0,122166.96806952862,297234.7944824901,210108.24758878446,157590.86894019504,12728.490249643346,8.144464537968575e-07,0.0,0.0,0.0,8.144464537968575e-07,0.0,25.1856993248229,3.297742229749523,0.0004315376618116693,0.0
3012,6.8965517241379315,2.0689655172413794,4.285714285714286,0,286076.6846652204,474684.6519652766,220775.461020559,164734.25988984507,41301.302571195694,1.907177897768136e-06,0.0,0.0,0.0,1.907177897768136e-06,0.0,23.352286984148275,3.595540256752758,0.001383867996603427,0.0
3013,6.8965517241379315,2.0689655172413794,4.642857142857143,0,112017.80080470529,328456.1026459126,288907.95428633894,202028.63813970675,-29758.283777681445,7.467853386980353e-07,0.0,0.0,0.0,7.467853386980353e-07,0.0,23.87021776538446,3.8970881968138937,-0.0009935110349466425,0.0
3014,6.8965517241379315,2.0689655172413794,5.0,0,128313.46968796781,285765.1469710736,173127.83882123025,146085.98598230837,-6606.624412300489,8.554231312531187e-07,0.0,0.0,0.0,8.554231312531187e-07,0.0,23.634565357897703,4.200125651073883,-0.00022032668246674196,0.0
3015,7.241379310344828,2.0689655172413794,0.0,0,59662.5075726968,174905.89550909598,181392.2985232835,118751.62449575958,-7284.492851985186,3.977500504846453e-07,0.0,0.0,0.0,3.977500504846453e-07,0.0,23.973536892232744,-0.04987818479782313,-0.00024293315971502707,0.0
3016,7.241379310344828,2.0689655172413794,0.35714285714285715,0,298800.51948204543,399980.8200976293,188074.06283530558,58223.71988289022,-11195.924536459965,1.9920034632136362e-06,0.0,0.0,0.0,1.9920034632136362e-06,0.0,23.959888699330094,0.25421091693544345,-0.00037378750254896234,0.0
3017,7.241379310344828,2.0689655172413794,0.7142857142857143,0,163762.18139989735,229509.71940834326,292968.26159195596,106973.59540195893,25182.708831536987,1.0917478759993157e-06,0.0,0.0,0.0,1.0917478759993157e-06,0.0,24.03842005028012,0.559744061028809,0.0008437880321007416,0.0
3018,7.241379310344828,2.0689655172413794,1.0714285714285714,0,148015.9066428835,258565.88567637693,310047.475107942,143165.10933134612,28709.063307108725,9.867727109525567e-07,0.0,0.0,0.0,9.867727109525567e-07,0.0,24.090636411600585,0.868912640961903,0.0009733316213759156,0.0
3019,7.241379310344828,2.0689655172413794,1.4285714285714286,0,186633.98373467205,351011.53395440767,158197.1576619659,171242.44740195246,20013.19033463329,1.244226558231147e-06,0.0,0.0,0.0,1.244226558231147e-06,0.0,24.617904705838974,1.1843068939701935,0.000704618614483774,0.0
3020,7.241379310344828,2.0689655172413794,1.7857142857142858,0,389641.69003214984,691053.8466633725,485326.55065078667,241667.67937785242,76053.16758752265,2.597611266880999e-06,0.0,0.0,0.0,2.597611266880999e-06,0.0,24.047761905839778,1.5057417846223378,0.003003909865422126,0.0
3021,7.241379310344828,2.0689655172413794,2.142857142857143,0,388906.67384004884,921233.1437907148,689166.1330534755,472247.57302387344,256061.35148643036,2.592711158933659e-06,0.0,0.0,0.0,2.592711158933659e-06,0.0,24.66835611334495,1.8269738690217785,0.01372619317954535,0.0
3022,7.241379310344828,2.0689655172413794,2.5,0,392506.2681457597,909129.5118434218,948826.519641875,537980.2136866802,572695.5690391387,2.6167084543050647e-06,0.0,0.0,0.0,2.6167084543050647e-06,0.0,23.103712257259783,2.138101836967185,0.057269556903913874,0.0
3023,7.241379310344828,2.0689655172413794,2.857142857142857,0,467629.76869276667,847041.6260609207,619944.8307482168,309231.6525616987,198380.0632467593,3.117531791285111e-06,0.0,0.0,0.0,3.117531791285111e-06,0.0,22.89147589850561,2.4341167261646355,0.010634182219567582,0.0
3024,7.241379310344828,2.0689655172413794,3.2142857142857144,0,311560.56211112574,473842.7784060533,372186.5763102281,124151.002257619,190195.03942843585,2.0770704140741717e-06,0.0,0.0,0.0,2.0770704140741717e-06,0.0,24.051898323941135,2.720027498908052,0.007512228266310385,0.0
3025,7.241379310344828,2.0689655172413794,3.5714285714285716,0,191371.92631939708,386424.0442079808,349249.8768723886,179192.3869490639,55485.14274617519,1.275812842129314e-06,0.0,0.0,0.0,1.275812842129314e-06,0.0,24.156613491333623,3.005735465398765,0.0019535048511774796,0.0
3026,7.241379310344828,2.0689655172413794,3.928571428571429,0,55102.98604772322,328230.1401314015,271656.86987000273,274725.69600936363,31149.894774601184,3.673532403181548e-07,0.0,0.0,0.0,3.673532403181548e-07,0.0,23.730921032721874,3.2974840695333323,0.0010560838318658874,0.0
3027,7.241379310344828,2.0689655172413794,4.285714285714286,0,222357.9518872664,374820.59997512214,360762.15166970296,145766.9879932086,12825.556758077642,1.4823863459151093e-06,0.0,0.0,0.0,1.4823863459151093e-06,0.0,23.997516428620653,3.595458346743095,0.00042974135030072514,0.0
3028,7.241379310344828,2.0689655172413794,4.642857142857143,0,234373.83469742484,373528.15362962196,279102.26152622135,106670.24959769956,12806.848190832638,1.5624922313161656e-06,0.0,0.0,0.0,1.5624922313161656e-06,0.0,24.544984586765516,3.897068059792587,0.0004275698523320559,0.0
3029,7.241379310344828,2.0689655172413794,5.0,0,161918.31677952447,343839.08794322115,228656.3115529365,158704.61947328033,-52887.889076932726,1.0794554451968298e-06,0.0,0.0,0.0,1.0794554451968298e-06,0.0,24.347228186010987,4.200121815202177,-0.0017637771448448477,0.0
3030,7.586206896551724,2.0689655172413794,0.0,0,139470.89377537038,295438.9525545155,148169.82819204236,165359.8692252219,-40089.55782028379,9.298059585024691e-07,0.0,0.0,0.0,9.298059585024691e-07,0.0,23.71819176424159,-0.049882413935357584,-0.0013369610144110032,0.0
3031,7.586206896551724,2.0689655172413794,0.35714285714285715,0,191402.7952000292,365851.8571865161,185995.2846412888,164686.25705476225,-36126.550011745545,1.2760186346668614e-06,0.0,0.0,0.0,1.2760186346668614e-06,0.0,23.986843641412143,0.2541887154023444,-0.0012061221796043178,0.0
3032,7.586206896551724,2.0689655172413794,0.7142857142857143,0,157599.8631360047,313723.5616669735,131934.6771256556,215596.0043408942,1869.3640877707567,1.0506657542400312e-06,0.0,0.0,0.0,1.0506657542400312e-06,0.0,24.272085665325072,0.5596537533431323,6.263611494107935e-05,0.0
3033,7.586206896551724,2.0689655172413794,1.0714285714285714,0,87809.1155854797,258023.86087218227,216328.19084221896,157135.13564808032,-9058.68649855922,5.853941039031979e-07,0.0,0.0,0.0,5.853941039031979e-07,0.0,23.28260468642778,0.8686280133351466,-0.0003071192509090164,0.0
3034,7.586206896551724,2.0689655172413794,1.4285714285714286,0,91464.7505357772,351786.1815183096,338726.7567078348,254493.65096441275,35855.362559201894,6.09765003571848e-07,0.0,0.0,0.0,6.09765003571848e-07,0.0,23.499621512061474,1.18361180566451,0.0012623852302327664,0.0
3035,7.586206896551724,2.0689655172413794,1.7857142857142858,0,271562.5195059798,557405.6859494786,383294.9695115984,244495.73774717847,4813.726846263577,1.810416796706532e-06,0.0,0.0,0.0,1.810416796706532e-06,0.0,24.368525457856887,1.504426518895193,0.00019013016842852465,0.0
3036,7.586206896551724,2.0689655172413794,2.142857142857143,0,338675.09515471995,959962.9207101094,734438.2598762062,570515.226396053,389674.15711268695,2.257833967698133e-06,0.0,0.0,0.0,2.257833967698133e-06,0.0,23.046750514812633,1.8250454668296399,0.02088852037433965,0.0
3037,7.586206896551724,2.0689655172413794,2.5,0,268491.7449608394,920484.7519550674,733405.7443695171,612845.0361055998,472965.44434536103,1.7899449664055959e-06,0.0,0.0,0.0,1.7899449664055959e-06,0.0,23.37114445008289,2.135911089487053,0.04729654443453611,0.0
3038,7.586206896551724,2.0689655172413794,2.857142857142857,0,129294.03603251351,615718.41201602,503013.20281981025,474571.3523008154,272356.9192606307,8.619602402167567e-07,0.0,0.0,0.0,8.619602402167567e-07,0.0,23.314369690036322,2.432188323972497,0.01459971864498796,0.0
3039,7.586206896551724,2.0689655172413794,3.2142857142857144,0,218399.15858495256,554359.6436082844,393303.57905952726,305772.3940185048,106822.01321304112,1.4559943905663505e-06,0.0,0.0,0.0,1.4559943905663505e-06,0.0,24.384706677917436,2.7187122331809075,0.0042192022964149525,0.0
3040,7.586206896551724,2.0689655172413794,3.5714285714285716,0,77866.42352466124,391332.5640721465,303984.3836881579,329194.95714507275,24120.49771490555,5.191094901644083e-07,0.0,0.0,0.0,5.191094901644083e-07,0.0,23.38810472954364,3.0050403770930814,0.0008492275042787276,0.0
3041,7.586206896551724,2.0689655172413794,3.928571428571429,0,124579.64164223184,341511.1288484657,239659.50727308533,202609.34123439385,-40996.01900611737,8.305309442815456e-07,0.0,0.0,0.0,8.305309442815456e-07,0.0,24.33120392968006,3.2971994419065758,-0.0013898998104651384,0.0
3042,7.586206896551724,2.0689655172413794,4.285714285714286,0,264109.7209800484,378400.82399782777,233353.36191510555,73552.16957612852,34012.07679555418,1.7607314732003227e-06,0.0,0.0,0.0,1.7607314732003227e-06,0.0,23.76333291656878,3.595368039057418,0.0011396305115134973,0.0
3043,7.586206896551724,2.0689655172413794,4.642857142857143,0,226539.5402459756,383507.9061574934,174008.0132746154,143102.1103898828,2835.0127071189904,1.5102636016398374e-06,0.0,0.0,0.0,1.5102636016398374e-06,0.0,24.83407998800336,3.897045858259488,9.464982691135967e-05,0.0
3044,7.586206896551724,2.0689655172413794,5.0,0,147331.0317548527,280668.2348862913,195382.9638810165,110545.20940104897,-68234.01200953401,9.822068783656847e-07,0.0,0.0,0.0,9.822068783656847e-07,0.0,24.01362525585515,4.200117586064643,-0.002275560491900516,0.0
3045,7.931034482758621,2.0689655172413794,0.0,0,101882.10358155676,286484.3386798512,376314.51148399164,265612.8909682689,-27534.56521575574,6.792140238770451e-07,0.0,0.0,0.0,6.792140238770451e-07,0.0,24.349154079186103,-0.049886974009061495,-0.0009182600717934813,0.0
3046,7.931034482758621,2.0689655172413794,0.35714285714285715,0,83631.66773601259,258823.61837788302,309065.7124174266,212522.99614946335,-13387.121561819371,5.575444515734172e-07,0.0,0.0,0.0,5.575444515734172e-07,0.0,24.050597603774914,0.25416477656695613,-0.0004469428780639156,0.0
3047,7.931034482758621,2.0689655172413794,0.7142857142857143,0,208853.27860632673,373679.60676522716,132858.19032056307,264380.8750008069,-38333.03053518867,1.392355190708845e-06,0.0,0.0,0.0,1.392355190708845e-06,0.0,23.599737108006476,0.5595563789495683,-0.0012844111654596122,0.0
3048,7.931034482758621,2.0689655172413794,1.0714285714285714,0,355552.70571803703,435653.4957664345,76542.51881457372,83769.23366889701,45570.318190697886,2.3703513714535803e-06,0.0,0.0,0.0,2.3703513714535803e-06,0.0,23.823615325541084,0.8683211131821946,0.0015449835899099323,0.0
3049,7.931034482758621,2.0689655172413794,1.4285714285714286,0,110483.98335539963,367797.2326626046,280754.8938610871,243502.09455875683,-9776.394940268814,7.365598890359976e-07,0.0,0.0,0.0,7.365598890359976e-07,0.0,23.838811855201907,1.182862325686897,-0.0003442044842564384,0.0
3050,7.931034482758621,2.0689655172413794,1.7857142857142858,0,444576.2345552683,535145.9508776801,494087.4062515455,71464.70094719456,85106.48165785591,2.963841563701789e-06,0.0,0.0,0.0,2.963841563701789e-06,0.0,23.608432592312088,1.5030083317099465,0.0033614931234677865,0.0
3051,7.931034482758621,2.0689655172413794,2.142857142857143,0,877595.6343345976,1077492.7934759096,496536.1315405667,67958.7517890668,331422.88799233426,5.8506375622306505e-06,0.0,0.0,0.0,5.8506375622306505e-06,0.0,24.28804633536462,1.822966164358321,0.017765955534865943,0.0
3052,7.931034482758621,2.0689655172413794,2.5,0,689186.145241807,1079353.9865162105,886462.4628540191,314273.6549329072,634778.688926911,4.594574301612046e-06,0.0,0.0,0.0,4.594574301612046e-06,0.0,25.104130567878773,2.1335489128269955,0.06347786889269111,0.0
3053,7.931034482758621,2.0689655172413794,2.857142857142857,0,316687.55249077897,905783.4779539002,593108.2585986933,585230.5787826573,453593.63342817023,2.1112503499385263e-06,0.0,0.0,0.0,2.1112503499385263e-06,0.0,23.91148871004397,2.430109021501178,0.024314930001362933,0.0
3054,7.931034482758621,2.0689655172413794,3.2142857142857144,0,292170.0893457953,428367.31419163616,375270.18755750376,113289.92655067479,97224.9718996547,1.9478005956386353e-06,0.0,0.0,0.0,1.9478005956386353e-06,0.0,24.216602621200085,2.717294045995661,0.003840143172454482,0.0
3055,7.931034482758621,2.0689655172413794,3.5714285714285716,0,253462.46744560258,445817.92825081066,334133.352942893,155693.46216167783,73337.53866238885,1.689749782970684e-06,0.0,0.0,0.0,1.689749782970684e-06,0.0,24.127433631041832,3.0042908971154687,0.0025820468410035487,0.0
3056,7.931034482758621,2.0689655172413794,3.928571428571429,0,68273.07780682151,275009.37446720107,200513.22024307674,215423.98758923565,23936.984596984872,4.5515385204547677e-07,0.0,0.0,0.0,4.5515385204547677e-07,0.0,22.562739569779627,3.296892541753624,0.0008115424658548358,0.0
3057,7.931034482758621,2.0689655172413794,4.285714285714286,0,58651.02601000033,253497.9020669098,210700.32574513942,186643.4382674158,4316.9477150935545,3.910068400666689e-07,0.0,0.0,0.0,3.910068400666689e-07,0.0,24.11828544884523,3.5952706646638544,0.00014464642551236865,0.0
3058,7.931034482758621,2.0689655172413794,4.642857142857143,0,30182.86689443155,304147.9432243571,272573.7230834715,275581.67352434,10505.67469515867,2.0121911262954367e-07,0.0,0.0,0.0,2.0121911262954367e-07,0.0,24.097997521977895,3.897021919424099,0.00035074279878424694,0.0
3059,7.931034482758621,2.0689655172413794,5.0,0,137492.6945637034,288467.75443426624,226672.73246802774,130920.04604296327,-85783.71128575588,9.166179637580227e-07,0.0,0.0,0.0,9.166179637580227e-07,0.0,23.257678337006368,4.200113025990938,-0.002860831695243001,0.0
3060,8.275862068965518,2.0689655172413794,0.0,0,241724.2787174254,322900.8265322533,365498.5387367927,105307.02241310898,-15378.585228379643,1.6114951914495026e-06,0.0,0.0,0.0,1.6114951914495026e-06,0.0,22.849829234546338,-0.049891811683883444,-0.0005128659437779493,0.0
3061,8.275862068965518,2.0689655172413794,0.35714285714285715,0,204207.78011204686,240548.59050171945,283454.2248107065,61202.634336509414,-4852.218384469746,1.3613852007469792e-06,0.0,0.0,0.0,1.3613852007469792e-06,0.0,23.96239307804458,0.25413938042015144,-0.00016199632159423074,0.0
3062,8.275862068965518,2.0689655172413794,0.7142857142857143,0,255075.22652003434,404033.0209078872,279951.0906246451,110656.52646491713,14855.703330961816,1.7005015101335623e-06,0.0,0.0,0.0,1.7005015101335623e-06,0.0,24.576196767717207,0.5594530767481931,0.0004977647465552516,0.0
3063,8.275862068965518,2.0689655172413794,1.0714285714285714,0,316506.1294000173,428054.9663882419,241037.41636923348,62618.890549184594,-667.1446857607071,2.110040862666782e-06,0.0,0.0,0.0,2.110040862666782e-06,0.0,23.573622697674903,0.8679955300361334,-2.261839795110998e-05,0.0
3064,8.275862068965518,2.0689655172413794,1.4285714285714286,0,299729.99521845835,247814.44433305625,355142.16387476906,16524.55259827158,18654.15998657053,1.9981999681230558e-06,0.0,0.0,0.0,1.9981999681230558e-06,0.0,23.59719071884002,1.1820672200257434,0.0006567702672247047,0.0
3065,8.275862068965518,2.0689655172413794,1.7857142857142858,0,291003.9093009812,695227.7155760768,369495.1459740221,460898.188098932,-15688.68733490089,1.9400260620065416e-06,0.0,0.0,0.0,1.9400260620065416e-06,0.0,24.92191298188792,1.5015038103174514,-0.0006196639029741569,0.0
3066,8.275862068965518,2.0689655172413794,2.142857142857143,0,339217.8202587516,721817.5191776282,651678.0480701191,353012.7532095225,188684.1049110312,2.261452135058344e-06,0.0,0.0,0.0,2.261452135058344e-06,0.0,24.22048750112446,1.8207602813253114,0.010114429447802336,0.0
3067,8.275862068965518,2.0689655172413794,2.5,0,579571.9263925423,1187348.082094515,523778.77898970206,930799.4115957721,464933.5377021373,3.863812842616949e-06,0.0,0.0,0.0,3.863812842616949e-06,0.0,23.170094933414465,2.1310429352276485,0.046493353770213734,0.0
3068,8.275862068965518,2.0689655172413794,2.857142857142857,0,618684.0171179562,849673.2412814411,782114.9817411487,199982.73459646117,460264.50985777477,4.124560114119708e-06,0.0,0.0,0.0,4.124560114119708e-06,0.0,23.425460625221003,2.4279031384681686,0.024672522968900167,0.0
3069,8.275862068965518,2.0689655172413794,3.2142857142857144,0,352853.1849874081,584790.3023162736,440804.89149416046,182711.96974379613,-12473.82011860775,2.352354566582721e-06,0.0,0.0,0.0,2.352354566582721e-06,0.0,24.876336714709982,2.715789524603166,-0.0004926846902289209,0.0
3070,8.275862068965518,2.0689655172413794,3.5714285714285716,0,321995.31869974174,390873.3097043941,445069.8831820687,99415.42583589956,-26907.28922964842,2.1466354579982784e-06,0.0,0.0,0.0,2.1466354579982784e-06,0.0,23.45991657612735,3.003495791454315,-0.000947344053571479,0.0
3071,8.275862068965518,2.0689655172413794,3.928571428571429,0,328402.0678406863,433953.8008166633,411611.7348938623,94951.19184440223,3896.6486597961134,2.1893471189379085e-06,0.0,0.0,0.0,2.1893471189379085e-06,0.0,23.529550402116055,3.2965669586075625,0.00013210919901495048,0.0
3072,8.275862068965518,2.0689655172413794,4.285714285714286,0,82635.74356930736,254971.88317563516,289071.1423992503,194842.52273475516,-53954.65990881197,5.509049571287157e-07,0.0,0.0,0.0,5.509049571287157e-07,0.0,24.136220600805018,3.595167362462479,-0.0018078395224149764,0.0
3073,8.275862068965518,2.0689655172413794,4.642857142857143,0,181448.55052010072,379025.3240408113,241184.39153014557,173453.8992111306,-29480.180275773524,1.2096570034673382e-06,0.0,0.0,0.0,1.2096570034673382e-06,0.0,23.673877063714016,3.8969965232772945,-0.0009842262623412396,0.0
3074,8.275862068965518,2.0689655172413794,5.0,0,229625.67684080062,412297.9296803511,172582.4182154986,194306.04819671682,22866.79527887016,1.5308378456053374e-06,0.0,0.0,0.0,1.5308378456053374e-06,0.0,24.032084817972883,4.200108188316117,0.0007625929412695769,0.0
3075,8.620689655172415,2.0689655172413794,0.0,0,145086.3518579554,402647.7191690178,310261.88729217043,235423.0179559498,-15427.421108291031,9.672423457197025e-07,0.0,0.0,0.0,9.672423457197025e-07,0.0,23.81297708963764,-0.049896882170131655,-0.0005144945890186546,0.0
3076,8.620689655172415,2.0689655172413794,0.35714285714285715,0,278323.2024691837,516039.4727337735,261396.85909828404,218919.28628672333,59302.50708622702,1.8554880164612247e-06,0.0,0.0,0.0,1.8554880164612247e-06,0.0,23.60120301238995,0.25411276209257255,0.001979875440073462,0.0
3077,8.620689655172415,2.0689655172413794,0.7142857142857143,0,232139.07822368862,316000.13062515476,285395.7376314654,70076.85966706384,-60019.394854168226,1.5475938548245908e-06,0.0,0.0,0.0,1.5475938548245908e-06,0.0,24.28318234062437,0.5593448031641346,-0.0020110484305188637,0.0
3078,8.620689655172415,2.0689655172413794,1.0714285714285714,0,303297.59841292596,433783.8681359096,380809.354232695,107488.8246600242,-12349.289128224505,2.0219839894195063e-06,0.0,0.0,0.0,2.0219839894195063e-06,0.0,23.045603974544044,0.8676542783138678,-0.0004186814972482377,0.0
3079,8.620689655172415,2.0689655172413794,1.4285714285714286,0,215025.855885195,414118.8623737925,226405.25218836925,179518.25062328557,-13203.912373487594,1.4335057059013e-06,0.0,0.0,0.0,1.4335057059013e-06,0.0,23.746726799631066,1.1812338501798707,-0.0004648795262928011,0.0
3080,8.620689655172415,2.0689655172413794,1.7857142857142858,0,416128.1728077593,755585.9724812405,312214.48046790104,694302.677380794,63300.77678488936,2.7741878187183954e-06,0.0,0.0,0.0,2.7741878187183954e-06,0.0,23.40259513116846,1.4999268843537292,0.0025002223300454505,0.0
3081,8.620689655172415,2.0689655172413794,2.142857142857143,0,362710.34728977963,896582.7568243983,586114.1717269713,497902.90715505497,228517.9707912855,2.4180689819318644e-06,0.0,0.0,0.0,2.4180689819318644e-06,0.0,24.51843488913396,1.8184482409349,0.012249727629220575,0.0
3082,8.620689655172415,2.0689655172413794,2.5,0,501525.82398959243,974599.5320338538,913123.8490521279,445169.6939861107,548305.465355682,3.3435054932639496e-06,0.0,0.0,0.0,3.3435054932639496e-06,0.0,23.614955729438023,2.1284163583237716,0.054830546535568195,0.0
3083,8.620689655172415,2.0689655172413794,2.857142857142857,0,570386.3263730573,1132524.7157950054,728224.6730367241,480100.70240367803,409537.2970663293,3.8025755091537155e-06,0.0,0.0,0.0,3.8025755091537155e-06,0.0,24.66821758331173,2.425591098077757,0.02195328588687538,0.0
3084,8.620689655172415,2.0689655172413794,3.2142857142857144,0,329355.6079113588,546492.963068926,315683.14408385474,169324.348953844,47514.43723394047,2.195704052742392e-06,0.0,0.0,0.0,2.195704052742392e-06,0.0,23.500777289751596,2.7142125986394436,0.0018767014088237712,0.0
3085,8.620689655172415,2.0689655172413794,3.5714285714285716,0,148743.45446350324,303552.3989215829,360186.2465214971,191444.714033253,-39941.466448582025,9.916230297566882e-07,0.0,0.0,0.0,9.916230297566882e-07,0.0,23.770959279863686,3.0026624216084423,-0.0014062475936556216,0.0
3086,8.620689655172415,2.0689655172413794,3.928571428571429,0,141362.45604486283,326442.8392327549,167387.2372049614,215145.0747829663,75963.24208780822,9.424163736324189e-07,0.0,0.0,0.0,9.424163736324189e-07,0.0,24.265174738903216,3.296225706885297,0.0025754036206395393,0.0
3087,8.620689655172415,2.0689655172413794,4.285714285714286,0,237207.37472415002,397135.764411318,188160.13454054654,139304.45201481043,1740.044904785257,1.5813824981610003e-06,0.0,0.0,0.0,1.5813824981610003e-06,0.0,23.248074055623363,3.59505908887842,5.830306325652192e-05,0.0
3088,8.620689655172415,2.0689655172413794,4.642857142857143,0,315611.1625160059,450331.72634749004,238447.70166146435,87603.27361705441,21605.69098658033,2.1040744167733727e-06,0.0,0.0,0.0,2.1040744167733727e-06,0.0,24.48514156891445,3.896969904949716,0.0007213283055292918,0.0
3089,8.620689655172415,2.0689655172413794,5.0,0,198633.66743620738,360017.8709357596,207550.4906052772,135390.76012617903,26912.409190523333,1.324224449574716e-06,0.0,0.0,0.0,1.324224449574716e-06,0.0,23.748385438873825,4.200103117829869,0.0008975115677978653,0.0
3090,8.965517241379311,2.0689655172413794,0.0,0,298627.8967380723,467562.67311321886,324860.7815272871,124355.61038787189,-2618.1293489300774,1.9908526449204817e-06,0.0,0.0,0.0,1.9908526449204817e-06,0.0,23.796878970931274,-0.04990214827301091,-8.73129328563893e-05,0.0
3091,8.965517241379311,2.0689655172413794,0.35714285714285715,0,227512.53989582649,269557.6786834464,280257.11627776216,47583.625436798764,-29227.256509264647,1.5167502659721765e-06,0.0,0.0,0.0,1.5167502659721765e-06,0.0,23.868843682232455,0.25408511684423896,-0.0009757821412049494,0.0
3092,8.965517241379311,2.0689655172413794,0.7142857142857143,0,262589.07033227244,338353.6144488516,390986.3216352353,106067.24481848297,7400.7455062029685,1.7505938022151495e-06,0.0,0.0,0.0,1.7505938022151495e-06,0.0,23.56254083991091,0.5592323524434646,0.00024797413687827947,0.0
3093,8.965517241379311,2.0689655172413794,1.0714285714285714,0,275675.30944909604,360425.34762304084,248841.2475202773,46449.9950653831,-26534.223813801786,1.837835396327307e-06,0.0,0.0,0.0,1.837835396327307e-06,0.0,23.200404097942798,0.8672998612837834,-0.0008995974132058892,0.0
3094,8.965517241379311,2.0689655172413794,1.4285714285714286,0,321166.0952447038,434322.47683648625,300290.93717006576,67849.99808574865,22103.936941756074,2.1411073016313587e-06,0.0,0.0,0.0,2.1411073016313587e-06,0.0,23.657153795546165,1.180368329373777,0.000778229016069679,0.0
3095,8.965517241379311,2.0689655172413794,1.7857142857142858,0,515910.41775191133,647457.9257620386,599865.8405432075,109400.46693189947,56615.01662837065,3.4394027850127422e-06,0.0,0.0,0.0,3.4394027850127422e-06,0.0,22.609121282984155,1.4982891214348637,0.002236151528932524,0.0
3096,8.965517241379311,2.0689655172413794,2.142857142857143,0,479339.6511518598,1073766.919834268,643228.5614917191,557260.2219785445,452931.179521811,3.195597674345732e-06,0.0,0.0,0.0,3.195597674345732e-06,0.0,22.964167682162678,1.8160470032703258,0.024279419096501866,0.0
3097,8.965517241379311,2.0689655172413794,2.5,0,297583.9284684303,1011280.1457800298,1108699.055233817,774615.5275021567,513777.30035440996,1.983892856456202e-06,0.0,0.0,0.0,1.983892856456202e-06,0.0,23.55419126619005,2.125688449496293,0.051377730035440994,0.0
3098,8.965517241379311,2.0689655172413794,2.857142857142857,0,798913.7947169299,969637.2066693217,762427.6137035604,87532.96264249606,423600.89450317645,5.326091964779533e-06,0.0,0.0,0.0,5.326091964779533e-06,0.0,24.40265353902729,2.4231898604131827,0.022707166369411818,0.0
3099,8.965517241379311,2.0689655172413794,3.2142857142857144,0,425312.05825987685,631002.1433218755,146097.305811392,455935.3374261425,106155.36451157242,2.8354137217325125e-06,0.0,0.0,0.0,2.8354137217325125e-06,0.0,24.392250331620883,2.7125748357205786,0.004192871340392534,0.0
3100,8.965517241379311,2.0689655172413794,3.5714285714285716,0,314818.5293522517,362194.0665488624,415842.53000122565,77646.9954862114,-5037.306859150455,2.098790195681678e-06,0.0,0.0,0.0,2.098790195681678e-06,0.0,24.12818033614795,3.001796900802349,-0.0001773520423518843,0.0
3101,8.965517241379311,2.0689655172413794,3.928571428571429,0,148896.8395355867,373805.8922688488,337574.8600757731,210137.11082469157,28175.229620715665,9.926455969039115e-07,0.0,0.0,0.0,9.926455969039115e-07,0.0,22.873653047214606,3.2958712898552127,0.0009552329045364365,0.0
3102,8.965517241379311,2.0689655172413794,4.285714285714286,0,179754.50875573274,360600.2537927905,330527.0043073362,167705.86799631003,15557.313467797821,1.1983633917048848e-06,0.0,0.0,0.0,1.1983633917048848e-06,0.0,23.79829836163138,3.5949466381577504,0.0005212733468660091,0.0
3103,8.965517241379311,2.0689655172413794,4.642857142857143,0,212389.4056024915,357867.17687386606,117614.92395206781,195098.33899964503,24690.39992547626,1.4159293706832766e-06,0.0,0.0,0.0,1.4159293706832766e-06,0.0,23.222349178898874,3.8969422597013823,0.0008243144989968787,0.0
3104,8.965517241379311,2.0689655172413794,5.0,0,269103.68655168876,372363.01383867516,209945.9676932569,61737.13863941621,22330.86473352019,1.7940245770112583e-06,0.0,0.0,0.0,1.7940245770112583e-06,0.0,23.623781635460933,4.200097851726989,0.0007447200016682723,0.0
3105,9.310344827586208,2.0689655172413794,0.0,0,332353.26600622945,397634.03380962583,228074.17210354903,14700.143736406075,1963.2436687074457,2.21568844004153e-06,0.0,0.0,0.0,2.21568844004153e-06,0.0,23.987969234537424,-0.04990757928494666,6.547291588043025e-05,0.0
3106,9.310344827586208,2.0689655172413794,0.35714285714285715,0,229395.49837888838,357910.0213781618,208340.80692465106,93800.07976026276,-23358.23307932703,1.5293033225259226e-06,0.0,0.0,0.0,1.5293033225259226e-06,0.0,23.84439358349629,0.2540566058794688,-0.0007798387331251935,0.0
3107,9.310344827586208,2.0689655172413794,0.7142857142857143,0,271037.29265590117,493078.0174933097,412050.7434973709,190768.37276827253,-23881.35781118237,1.8069152843726744e-06,0.0,0.0,0.0,1.8069152843726744e-06,0.0,24.161777416687347,0.5591163803061661,-0.0008001841281727346,0.0
3108,9.310344827586208,2.0689655172413794,1.0714285714285714,0,34013.20937828008,310215.8045870179,282495.5683622376,320451.1173681084,-8432.085400791017,2.2675472918853388e-07,0.0,0.0,0.0,2.2675472918853388e-07,0.0,22.82031112374838,0.8669343456140839,-0.0002858754138697342,0.0
3109,9.310344827586208,2.0689655172413794,1.4285714285714286,0,280995.2809408004,402714.33896896645,325956.2578212434,91316.0762789891,45590.595393642616,1.8733018729386691e-06,0.0,0.0,0.0,1.8733018729386691e-06,0.0,23.018244151456578,1.179475704611917,0.0016051404909774676,0.0
3110,9.310344827586208,2.0689655172413794,1.7857142857142858,0,694557.7214781601,1048862.8799430237,546275.1898579763,256306.95531597402,113623.92763481617,4.6303848098544005e-06,0.0,0.0,0.0,4.6303848098544005e-06,0.0,24.287609298389246,1.4966000716452545,0.004487860900434482,0.0
3111,9.310344827586208,2.0689655172413794,2.142857142857143,0,552547.9565246156,791383.2447008508,812814.268251585,249862.5953262037,477145.09516157076,3.6836530434974375e-06,0.0,0.0,0.0,3.6836530434974375e-06,0.0,24.300019435872752,1.8135705703718683,0.025577408354838536,0.0
3112,9.310344827586208,2.0689655172413794,2.5,0,708764.1287376351,856946.6214283892,38803.788878668485,465994.78974751424,808037.1537443807,4.725094191584234e-06,0.0,0.0,0.0,4.725094191584234e-06,0.0,23.5357700582029,2.122875115662652,0.08080371537443806,0.0
3113,9.310344827586208,2.0689655172413794,2.857142857142857,0,980038.2612182384,1145421.2294148847,569994.92777753,13825.135298006177,355004.80316249304,6.533588408121589e-06,0.0,0.0,0.0,6.533588408121589e-06,0.0,23.53691271859501,2.4207134275147255,0.019030066347724806,0.0
3114,9.310344827586208,2.0689655172413794,3.2142857142857144,0,165653.63669942901,394050.7483034636,281389.3083679164,471591.8973578383,203288.15588895575,1.1043575779961935e-06,0.0,0.0,0.0,1.1043575779961935e-06,0.0,24.13973660793557,2.710885785930969,0.008029373612815706,0.0
3115,9.310344827586208,2.0689655172413794,3.5714285714285716,0,228397.24134555913,448424.8921728145,367071.3292259376,190489.0528878593,1022.0618638046944,1.5226482756370608e-06,0.0,0.0,0.0,1.5226482756370608e-06,0.0,23.82413195939012,3.000904276040489,3.598445836716535e-05,0.0
3116,9.310344827586208,2.0689655172413794,3.928571428571429,0,331199.04110485275,578706.8577359393,260052.5481993796,236247.57009877235,-19739.661196181038,2.207993607365685e-06,0.0,0.0,0.0,2.207993607365685e-06,0.0,23.86596915744775,3.295505774185513,-0.0006692394047120546,0.0
3117,9.310344827586208,2.0689655172413794,4.285714285714286,0,135063.94619156217,271591.52266093716,276333.35876690294,138960.93774600743,13106.606629852144,9.004263079437477e-07,0.0,0.0,0.0,9.004263079437477e-07,0.0,23.105128343414954,3.594830666020452,0.00043915838799167393,0.0
3118,9.310344827586208,2.0689655172413794,4.642857142857143,0,108364.4365223605,236483.13491899578,111382.4222476355,171650.26469573152,18951.074313861194,7.224295768157367e-07,0.0,0.0,0.0,7.224295768157367e-07,0.0,24.146951366782908,3.896913748736612,0.0006327011865192288,0.0
3119,9.310344827586208,2.0689655172413794,5.0,0,27059.758811515956,274258.1234123068,249919.8024055392,245119.42712075057,-29047.327942389824,1.8039839207677305e-07,0.0,0.0,0.0,1.8039839207677305e-07,0.0,23.477175334354783,4.200092420715054,-0.000968709737480254,0.0
3120,9.655172413793103,2.0689655172413794,0.0,0,277073.4604535032,492735.5163920251,385537.46368002414,178078.76536819316,-6626.713144637045,1.8471564030233546e-06,0.0,0.0,0.0,1.8471564030233546e-06,0.0,22.732092649222142,-0.049913149907751274,-0.00022099662879249872,0.0
3121,9.655172413793103,2.0689655172413794,0.35714285714285715,0,293349.12118992646,511751.1705245086,410205.40575955843,181121.09215338607,-18673.128302140078,1.955660807932843e-06,0.0,0.0,0.0,1.955660807932843e-06,0.0,23.04233276553424,0.2540273620051394,-0.0006234216718863505,0.0
3122,9.655172413793103,2.0689655172413794,0.7142857142857143,0,264510.597534873,376139.31319618697,353629.36831509165,101093.07290481923,5937.985910872043,1.76340398356582e-06,0.0,0.0,0.0,1.76340398356582e-06,0.0,23.13919989491469,0.5589974269618576,0.00019896197346736541,0.0
3123,9.655172413793103,2.0689655172413794,1.0714285714285714,0,338108.86051619047,490786.8304005854,186923.35468101906,126563.21174392593,34640.847206400176,2.2540590701079363e-06,0.0,0.0,0.0,2.2540590701079363e-06,0.0,24.181482501009217,0.8665594339126985,0.0011744385951070748,0.0
3124,9.655172413793103,2.0689655172413794,1.4285714285714286,0,481723.0960961919,641302.2147274861,477635.8315286914,99070.14436048151,-7035.448923047161,3.211487307307946e-06,0.0,0.0,0.0,3.211487307307946e-06,0.0,23.098893824895903,1.1785601338282001,-0.0002477020499750164,0.0
3125,9.655172413793103,2.0689655172413794,1.7857142857142858,0,688496.8198732608,975739.5760020177,607236.7487480765,181420.85403523594,116881.66214932568,4.589978799155072e-06,0.0,0.0,0.0,4.589978799155072e-06,0.0,23.644289371245574,1.4948676027448986,0.004616533264222612,0.0
3126,9.655172413793103,2.0689655172413794,2.142857142857143,0,306955.5288733453,1012494.645453335,720513.1603056294,692487.2199030496,253755.20870818567,2.0463701924889687e-06,0.0,0.0,0.0,2.0463701924889687e-06,0.0,22.40155253292297,1.811030477707467,0.013602572175867732,0.0
3127,9.655172413793103,2.0689655172413794,2.5,0,506684.10812934645,676281.6683131438,369642.5597820236,954480.5125780068,834508.7760759206,3.377894054195643e-06,0.0,0.0,0.0,3.377894054195643e-06,0.0,23.929816514276737,2.1199894616084696,0.08345087760759205,0.0
3128,9.655172413793103,2.0689655172413794,2.857142857142857,0,760713.5043836272,890121.1936570005,948582.0534863028,160324.75866327912,353373.6072620446,5.071423362557515e-06,0.0,0.0,0.0,5.071423362557515e-06,0.0,23.070356424082497,2.418173334850324,0.018942625935834206,0.0
3129,9.655172413793103,2.0689655172413794,3.2142857142857144,0,283537.0878731382,657436.3327502166,418026.1650170622,344326.5982439331,41841.352291693096,1.890247252487588e-06,0.0,0.0,0.0,1.890247252487588e-06,0.0,23.66629493928807,2.709153317030613,0.0016526287453704947,0.0
3130,9.655172413793103,2.0689655172413794,3.5714285714285716,0,273358.80410969246,475795.2372924387,385986.87107732974,168830.22383702226,26395.69321166345,1.8223920273979497e-06,0.0,0.0,0.0,1.8223920273979497e-06,0.0,23.670834888890816,2.9999887052567717,0.000929331929000607,0.0
3131,9.655172413793103,2.0689655172413794,3.928571428571429,0,115522.11592539109,415563.42859158426,308156.8289177118,293353.004834928,19832.403255991423,7.701474395026073e-07,0.0,0.0,0.0,7.701474395026073e-07,0.0,23.79684782474782,3.2951308624841276,0.0006723836654104744,0.0
3132,9.655172413793103,2.0689655172413794,4.285714285714286,0,299127.8139208397,512891.88965695904,422323.32704025,178946.12726701316,-4701.032245837908,1.9941854261389314e-06,0.0,0.0,0.0,1.9941854261389314e-06,0.0,23.65124187085919,3.5947117126761436,-0.00015751580872785711,0.0
3133,9.655172413793103,2.0689655172413794,4.642857142857143,0,316259.9885339084,524255.2077452806,281964.95545235573,166483.8878240355,-37131.40363105187,2.1083999235593893e-06,0.0,0.0,0.0,2.1083999235593893e-06,0.0,24.447088284833907,3.8968845048622827,-0.0012396702553853429,0.0
3134,9.655172413793103,2.0689655172413794,5.0,0,261135.28220223123,403347.37953409145,291119.46887255897,104859.11107949344,-20031.047426192927,1.7409018813482081e-06,0.0,0.0,0.0,1.7409018813482081e-06,0.0,23.598926888687405,4.200086850092249,-0.0006680225710318955,0.0
3135,10.0,2.0689655172413794,0.0,0,466027.90156774776,546976.9530504973,455504.21595827193,41994.9434621633,4271.176452147968,3.1068526771183182e-06,0.0,0.0,0.0,3.1068526771183182e-06,0.0,24.468330309255,-0.04991883929012872,0.00014244099243476547,0.0
3136,10.0,2.0689655172413794,0.35714285714285715,0,229407.8186361474,480627.14695289044,254931.29218044892,247679.33153467262,21971.48715241881,1.5293854575743159e-06,0.0,0.0,0.0,1.5293854575743159e-06,0.0,23.667666660147823,0.25399749468346045,0.0007335407882791963,0.0
3137,10.0,2.0689655172413794,0.7142857142857143,0,218244.54589547042,455779.09334982233,388266.5294837467,211755.78570116762,-37024.2777142737,1.4549636393031361e-06,0.0,0.0,0.0,1.4549636393031361e-06,0.0,23.49089172095905,0.5588759376626208,-0.0012405592520434042,0.0
3138,10.0,2.0689655172413794,1.0714285714285714,0,293895.7007892112,547642.218420232,306097.33226224524,220431.56686089095,-29379.19115257535,1.9593046719280747e-06,0.0,0.0,0.0,1.9593046719280747e-06,0.0,23.804025129448547,0.8661765295047404,-0.000996051158247593,0.0
3139,10.0,2.0689655172413794,1.4285714285714286,0,351735.52065249754,546524.7169292907,269095.9625581318,150919.62139302053,20937.76658649445,2.3449034710166503e-06,0.0,0.0,0.0,2.3449034710166503e-06,0.0,23.461366024528104,1.1776250440788345,0.0007371708276330998,0.0
3140,10.0,2.0689655172413794,1.7857142857142858,0,710997.1590310708,1089352.3966415504,540393.9006314744,286195.186740974,74869.06508310097,4.739981060207138e-06,0.0,0.0,0.0,4.739981060207138e-06,0.0,23.592319067986114,1.4930981995063628,0.002957140778643327,0.0
3141,10.0,2.0689655172413794,2.142857142857143,0,277849.797647321,814464.9923564178,958560.1351525126,638262.7854673798,447996.99307116336,1.8523319843154734e-06,0.0,0.0,0.0,1.8523319843154734e-06,0.0,23.546121216399584,1.808436233051387,0.024014921560999814,0.0
3142,10.0,2.0689655172413794,2.5,0,462029.3454386309,1206732.4538152511,1305987.1521339067,802396.7045924481,424532.9395633232,3.0801956362575395e-06,0.0,0.0,0.0,3.0801956362575395e-06,0.0,23.50096616382371,2.1170422885725118,0.04245329395633232,0.0
3143,10.0,2.0689655172413794,2.857142857142857,0,938388.3221700136,1114468.8326555605,1137614.2189618035,187867.30877615008,397526.0575287885,6.25592214780009e-06,0.0,0.0,0.0,6.25592214780009e-06,0.0,24.441204816768096,2.4155790901942438,0.021309422245365174,0.0
3144,10.0,2.0689655172413794,3.2142857142857144,0,545260.5779322673,839563.5241697343,494718.7378537667,210938.70570029833,147141.87462702056,3.6350705195484488e-06,0.0,0.0,0.0,3.6350705195484488e-06,0.0,24.522865702187445,2.707383913792077,0.005811735958270956,0.0
3145,10.0,2.0689655172413794,3.5714285714285716,0,537298.3454675006,675359.8398423506,270743.7227324941,65738.80534223982,-26407.681283302725,3.5819889697833376e-06,0.0,0.0,0.0,3.5819889697833376e-06,0.0,23.554929979787946,2.999053615507406,-0.0009297540015581333,0.0
3146,10.0,2.0689655172413794,3.928571428571429,0,225944.50563013862,461327.1879688998,294959.76667036745,204096.55700127457,22851.923991155636,1.506296704200924e-06,0.0,0.0,0.0,1.506296704200924e-06,0.0,24.02587839987299,3.2947479580761696,0.0007747553443989647,0.0
3147,10.0,2.0689655172413794,4.285714285714286,0,98314.81754766156,321980.65029435523,208650.12636352982,259575.38757951412,-54384.07070682206,6.554321169844104e-07,0.0,0.0,0.0,6.554321169844104e-07,0.0,24.001358288194126,3.5945902233769065,-0.0018222276366817777,0.0
3148,10.0,2.0689655172413794,4.642857142857143,0,323294.93970953836,524122.48421954777,294477.9816337477,154413.65056915212,-70097.40380057722,2.1552995980635893e-06,0.0,0.0,0.0,2.1552995980635893e-06,0.0,23.951995116622456,3.8968546375406037,-0.0023402742146445867,0.0
3149,10.0,2.0689655172413794,5.0,0,344908.50731844816,516165.8796919896,283273.0317432031,119929.23170795095,18737.16127172449,2.2993900487896544e-06,0.0,0.0,0.0,2.2993900487896544e-06,0.0,23.682879276962822,4.200081160709871,0.0006248722985004478,0.0
3150,0.0,2.413793103448276,0.0,0,199316.7561373905,274286.6247088816,379166.2614432045,149307.82616679827,-2442.497713813397,1.32877837424927e-06,0.0,0.0,0.0,1.32877837424927e-06,0.0,23.723342142881947,-0.04991562469392928,-8.145573058688824e-05,0.0
3151,0.0,2.413793103448276,0.35714285714285715,0,305900.0225662079,448200.6607971897,116088.46470282787,386312.41148483503,-15065.879610008844,2.0393334837747193e-06,0.0,0.0,0.0,2.0393334837747193e-06,0.0,23.68198297651907,0.25401437021974665,-0.0005029899491363616,0.0
3152,0.0,2.413793103448276,0.7142857142857143,0,51012.9542980168,306869.4307384897,248960.84019624835,287256.86240995437,38095.06143044936,3.4008636198677867e-07,0.0,0.0,0.0,3.4008636198677867e-07,0.0,23.04183565032608,0.558944581148625,0.001276437619645617,0.0
3153,0.0,2.413793103448276,1.0714285714285714,0,146777.72208338213,401964.33437845996,257244.04496202065,253212.25244252564,-14159.490440576874,9.785181472225476e-07,0.0,0.0,0.0,9.785181472225476e-07,0.0,23.373190512632295,0.8663928768993978,-0.00048005327240930565,0.0
3154,0.0,2.413793103448276,1.4285714285714286,0,229949.87852876802,441463.9040216404,505028.3129608597,249982.53987211562,-27309.76203358732,1.532999190191787e-06,0.0,0.0,0.0,1.532999190191787e-06,0.0,22.812183469070412,1.1781533854268094,-0.0009615141995970263,0.0
3155,0.0,2.413793103448276,1.7857142857142858,0,561667.7141207467,896642.9198743923,368296.102150298,306727.50998048275,24120.36337369323,3.744451427471645e-06,0.0,0.0,0.0,3.744451427471645e-06,0.0,23.703538072359507,1.4940979419297968,0.000952694013861044,0.0
3156,0.0,2.413793103448276,2.142857142857143,0,809396.3144490375,1170117.9568629463,852212.9027481782,250031.62010460047,322355.09905749204,5.3959754296602505e-06,0.0,0.0,0.0,5.3959754296602505e-06,0.0,23.635638000489244,1.8099020246713888,0.017279875843774477,0.0
3157,0.0,2.413793103448276,2.5,0,705411.8512804296,999435.6050766037,907269.1023150367,252470.85033493847,839047.0429534578,4.702745675202864e-06,0.0,0.0,0.0,4.702745675202864e-06,0.0,23.774447806014447,2.11870749062995,0.08390470429534579,0.0
3158,0.0,2.413793103448276,2.857142857142857,0,903940.3020233223,1344654.9009041768,1038904.0594459999,327490.53148215974,395561.0317600784,6.026268680155482e-06,0.0,0.0,0.0,6.026268680155482e-06,0.0,23.042126636161864,2.417044881814246,0.021204086851532696,0.0
3159,0.0,2.413793103448276,3.2142857142857144,0,435615.9261874564,550431.5821311334,632179.6015631191,161480.99839374298,169464.43145275448,2.904106174583043e-06,0.0,0.0,0.0,2.904106174583043e-06,0.0,23.91650050128067,2.7083836562155112,0.006693421110872925,0.0
3160,0.0,2.413793103448276,3.5714285714285716,0,368524.7205104908,574308.7888445962,390181.5577466489,150005.28751505032,-152281.88112184292,2.4568314700699386e-06,0.0,0.0,0.0,2.4568314700699386e-06,0.0,23.674648132463314,2.9995819568553808,-0.005361496407765107,0.0
3161,0.0,2.413793103448276,3.928571428571429,0,183926.80835927525,388116.03238301416,273085.0263509095,175988.2026537887,43079.00944977623,1.2261787223951683e-06,0.0,0.0,0.0,1.2261787223951683e-06,0.0,24.560204706057043,3.294964305470827,0.0014605200339168382,0.0
3162,0.0,2.413793103448276,4.285714285714286,0,255343.6602207025,417064.86455591343,148280.57151231958,177712.54618451846,16188.676371664615,1.7022910681380166e-06,0.0,0.0,0.0,1.7022910681380166e-06,0.0,23.851485926562827,3.5946588668629107,0.0005424281982268765,0.0
3163,0.0,2.413793103448276,4.642857142857143,0,321610.21079681686,493779.23774033505,336145.0014922426,123763.36728270927,-4073.7841468766783,2.144068071978779e-06,0.0,0.0,0.0,2.144068071978779e-06,0.0,23.15431047389402,3.89687151307689,-0.00013600749069232832,0.0
3164,0.0,2.413793103448276,5.0,0,235069.6593414133,495222.2773528149,361497.1708724215,223796.91794909863,-57913.83475138124,1.5671310622760887e-06,0.0,0.0,0.0,1.5671310622760887e-06,0.0,22.782801718603555,4.200084375306071,-0.0019313892062551503,0.0
3165,0.3448275862068966,2.413793103448276,0.0,0,381295.88189201884,540550.488811327,164215.92736595098,154479.76460141788,-70794.68778829707,2.541972545946792e-06,0.0,0.0,0.0,2.541972545946792e-06,0.0,23.587556874038455,-0.04990975756115692,-0.002360957385079033,0.0
3166,0.3448275862068966,2.413793103448276,0.35714285714285715,0,228448.91933647875,419572.2505653558,193356.66825239503,188953.64507627444,32040.82819765841,1.522992795576525e-06,0.0,0.0,0.0,1.522992795576525e-06,0.0,22.968602223387286,0.2540451706705197,0.0010697161375642803,0.0
3167,0.3448275862068966,2.413793103448276,0.7142857142857143,0,302975.63980014215,454181.10209284205,321163.3173910586,107450.97566594745,10368.684166840416,2.0198375986676144e-06,0.0,0.0,0.0,2.0198375986676144e-06,0.0,23.120690064077355,0.5590698660744319,0.00034741979773263387,0.0
3168,0.3448275862068966,2.413793103448276,1.0714285714285714,0,143972.3177425244,402301.22304833645,338536.2713554297,237458.03316252722,10124.310212723663,9.598154516168294e-07,0.0,0.0,0.0,9.598154516168294e-07,0.0,23.009704992159897,0.8667877441893026,0.00034324739784258345,0.0
3169,0.3448275862068966,2.413793103448276,1.4285714285714286,0,340242.2616138373,531022.7686981928,257145.12054599627,150141.1809047316,1190.1915383156484,2.268281744092249e-06,0.0,0.0,0.0,2.268281744092249e-06,0.0,23.206854129148752,1.179117689695645,4.1903919299014166e-05,0.0
3170,0.3448275862068966,2.413793103448276,1.7857142857142858,0,330467.623968085,798479.6007620337,429507.4238164649,529711.2486085228,139686.5621571843,2.2031174931205666e-06,0.0,0.0,0.0,2.2031174931205666e-06,0.0,24.230254776752485,1.4959226257073368,0.005517269765890826,0.0
3171,0.3448275862068966,2.413793103448276,2.142857142857143,0,692460.4123686178,1066061.0995436753,361794.4999921699,386043.91747903073,346430.6803444323,4.616402749124119e-06,0.0,0.0,0.0,4.616402749124119e-06,0.0,23.0232164445353,1.8125773199550328,0.01857044967592853,0.0
3172,0.3448275862068966,2.413793103448276,2.5,0,660522.9954386684,817924.7874949869,1248098.755190818,487573.0528410981,695232.31739071,4.403486636257789e-06,0.0,0.0,0.0,4.403486636257789e-06,0.0,23.29927894399709,2.1217467406500674,0.069523231739071,0.0
3173,0.3448275862068966,2.413793103448276,2.857142857142857,0,642532.809301674,1159533.4566335005,478501.9524738588,564075.595859091,390937.113531822,4.28355206201116e-06,0.0,0.0,0.0,4.28355206201116e-06,0.0,22.801077371198893,2.4197201770978896,0.02095622127369741,0.0
3174,0.3448275862068966,2.413793103448276,3.2142857142857144,0,324587.70543599006,787481.1827618218,593376.2190790847,412760.5071612588,61631.65839425933,2.163918036239934e-06,0.0,0.0,0.0,2.163918036239934e-06,0.0,22.66788884574148,2.710208339993051,0.002434296329075128,0.0
3175,0.3448275862068966,2.413793103448276,3.5714285714285716,0,125271.35211071631,442672.85209838324,355078.80301869486,299184.4358337972,74922.94592962277,8.351423474047754e-07,0.0,0.0,0.0,8.351423474047754e-07,0.0,23.38611720959341,3.0005462611242164,0.0026378654013306194,0.0
3176,0.3448275862068966,2.413793103448276,3.928571428571429,0,92173.38111878216,327643.48425243306,422347.3103690314,332932.0976776067,-55025.718168769155,6.144892074585477e-07,0.0,0.0,0.0,6.144892074585477e-07,0.0,23.634304028001313,3.295359172760732,-0.0018655527318900912,0.0
3177,0.3448275862068966,2.413793103448276,4.285714285714286,0,324496.33446842554,554272.9039713466,231756.97883390335,227831.77153354106,-83640.23353617926,2.16330889645617e-06,0.0,0.0,0.0,2.16330889645617e-06,0.0,22.960119516751128,3.594784151788718,-0.0028025034372615486,0.0
3178,0.3448275862068966,2.413793103448276,4.642857142857143,0,263239.16549960064,468519.11651258904,303838.93825707596,164920.83562636795,-62027.24561143469,1.7549277699973376e-06,0.0,0.0,0.0,1.7549277699973376e-06,0.0,22.780314239057667,3.896902313527663,-0.0020708436495428645,0.0
3179,0.3448275862068966,2.413793103448276,5.0,0,268532.2365528245,406964.67836276686,153676.18234163432,125422.83383896653,29158.092326729962,1.7902149103521634e-06,0.0,0.0,0.0,1.7902149103521634e-06,0.0,22.609100227584825,4.2000902424388435,0.0009724036585833965,0.0
3180,0.6896551724137931,2.413793103448276,0.0,0,176743.83054167125,315319.2292904461,127457.0814195906,152328.45884138875,-4112.923308574564,1.1782922036111417e-06,0.0,0.0,0.0,1.1782922036111417e-06,0.0,23.636524246016418,-0.0499039923898561,-0.0001371633517006345,0.0
3181,0.6896551724137931,2.413793103448276,0.35714285714285715,0,53645.351753177434,341116.78416116285,334434.2295991648,284443.23369481595,-65261.583999560105,3.5763567835451623e-07,0.0,0.0,0.0,3.5763567835451623e-07,0.0,24.036009730937636,0.2540754358582593,-0.0021788253766935454,0.0
3182,0.6896551724137931,2.413793103448276,0.7142857142857143,0,428061.7752496415,516200.9083896841,140461.48710353547,50209.28401355429,4087.148965447203,2.8537451683309432e-06,0.0,0.0,0.0,2.8537451683309432e-06,0.0,22.859128572192706,0.5591929737467328,0.0001369466408688486,0.0
3183,0.6896551724137931,2.413793103448276,1.0714285714285714,0,289294.42066503735,433522.2168011788,276077.01785133826,99653.5438239343,-13398.7412880652,1.9286294711002492e-06,0.0,0.0,0.0,1.9286294711002492e-06,0.0,23.25413186045195,0.8671757493113467,-0.00045426137532950106,0.0
3184,0.6896551724137931,2.413793103448276,1.4285714285714286,0,264749.20620255027,436308.89116189233,442377.0830553005,174645.94335812482,33595.04095813121,1.7649947080170018e-06,0.0,0.0,0.0,1.7649947080170018e-06,0.0,24.123881340284647,1.1800652358841561,0.0011828044813264802,0.0
3185,0.6896551724137931,2.413793103448276,1.7857142857142858,0,543385.0440868748,773940.9570682463,596527.8991175701,164023.5674148739,129767.68675880811,3.6225669605791654e-06,0.0,0.0,0.0,3.6225669605791654e-06,0.0,23.48070451910394,1.4977155993718982,0.0051254990006720565,0.0
3186,0.6896551724137931,2.413793103448276,2.142857142857143,0,467729.74588591175,871101.8177488011,590102.6533654855,331164.23361139913,654509.1444495996,3.1181983059060785e-06,0.0,0.0,0.0,3.1181983059060785e-06,0.0,23.54202085520378,1.8152061228454521,0.03508502514082157,0.0
3187,0.6896551724137931,2.413793103448276,2.5,0,978175.048856781,1591904.9844814667,468081.0428430357,932058.1508392453,561728.6822230929,6.52116699237854e-06,0.0,0.0,0.0,6.52116699237854e-06,0.0,23.787101731463267,2.1247331733202994,0.05617286822230929,0.0
3188,0.6896551724137931,2.413793103448276,2.857142857142857,0,838266.8888105939,1322136.3000050366,834450.6760693729,354198.58677698026,198633.64853753426,5.5884459254039595e-06,0.0,0.0,0.0,5.5884459254039595e-06,0.0,23.380099840816857,2.422348979988309,0.010647775683276427,0.0
3189,0.6896551724137931,2.413793103448276,3.2142857142857144,0,321934.3458210447,636806.1527403891,680187.3375468072,338762.04633407335,115359.15133355388,2.146228972140298e-06,0.0,0.0,0.0,2.146228972140298e-06,0.0,23.21756705616887,2.7120013136576127,0.004556397895706294,0.0
3190,0.6896551724137931,2.413793103448276,3.5714285714285716,0,345434.79977283574,428652.06402303965,278270.5889345783,33517.175326200784,54541.5155254924,2.3028986651522382e-06,0.0,0.0,0.0,2.3028986651522382e-06,0.0,23.76482300208898,3.0014938073127277,0.0019202818970302815,0.0
3191,0.6896551724137931,2.413793103448276,3.928571428571429,0,140427.18402113602,200984.84246583015,227549.76896067578,75737.44423079645,-53551.928074008705,9.361812268075735e-07,0.0,0.0,0.0,9.361812268075735e-07,0.0,22.925261125486188,3.295747177882776,-0.0018155864028895291,0.0
3192,0.6896551724137931,2.413793103448276,4.285714285714286,0,46334.32802696398,288169.00472336315,243669.3823699039,240195.5145424566,-52196.3240994517,3.0889552017975984e-07,0.0,0.0,0.0,3.0889552017975984e-07,0.0,22.81451604203362,3.5949072594610185,-0.0017489235923505212,0.0
3193,0.6896551724137931,2.413793103448276,4.642857142857143,0,33259.54631476888,298854.22675495263,332415.6332851883,299466.3983969314,14057.486551162576,2.2173030876512586e-07,0.0,0.0,0.0,2.2173030876512586e-07,0.0,23.279336528734127,3.8969325787154023,0.000469323705511158,0.0
3194,0.6896551724137931,2.413793103448276,5.0,0,223103.02174389365,419165.9446221756,385970.8048863469,181325.2498109189,69973.33738898861,1.4873534782926244e-06,0.0,0.0,0.0,1.4873534782926244e-06,0.0,23.98612148095523,4.200096007610144,0.0023335658765977216,0.0
3195,1.0344827586206897,2.413793103448276,0.0,0,215278.1156504791,367100.3885822438,177542.3000245854,133053.74083873135,-34426.562064198995,1.4351874376698606e-06,0.0,0.0,0.0,1.4351874376698606e-06,0.0,24.22856976473104,-0.04989834847740244,-0.0011481037417865195,0.0
3196,1.0344827586206897,2.413793103448276,0.35714285714285715,0,115444.19762177154,287111.98928850534,157255.82737916432,196099.51309135515,3420.0531757043477,7.696279841451436e-07,0.0,0.0,0.0,7.696279841451436e-07,0.0,23.414618448252945,0.2541050644783095,0.00011418200711947493,0.0
3197,1.0344827586206897,2.413793103448276,0.7142857142857143,0,469440.60581308196,371897.2507738497,460257.2745059784,-47084.54714225769,-74831.46102380555,3.1296040387538798e-06,0.0,0.0,0.0,3.1296040387538798e-06,0.0,24.071952192390622,0.5593134920953795,-0.0025073510422923976,0.0
3198,1.0344827586206897,2.413793103448276,1.0714285714285714,0,234580.77059498488,447010.9498907693,269787.854391516,180995.57256245564,-7801.975357603009,1.5638718039665659e-06,0.0,0.0,0.0,1.5638718039665659e-06,0.0,24.35239332102228,0.8675555935217135,-0.0002645126120457691,0.0
3199,1.0344827586206897,2.413793103448276,1.4285714285714286,0,376877.38533561095,521597.10245859716,354116.2982784044,90007.30946667166,568.6063687031492,2.5125159022374064e-06,0.0,0.0,0.0,2.5125159022374064e-06,0.0,23.685152829629683,1.1809928523338182,2.0019328503008723e-05,0.0
3200,1.0344827586206897,2.413793103448276,1.7857142857142858,0,40481.471016343756,419060.7797229955,379556.9368579491,377667.8256252464,170371.1513032344,2.698764734422917e-07,0.0,0.0,0.0,2.698764734422917e-07,0.0,23.989223420748903,1.4994708614216261,0.006729234276720309,0.0
3201,1.0344827586206897,2.413793103448276,2.142857142857143,0,938387.9099679615,975625.6470590314,799039.4275853721,-38510.240849686066,306895.3571301909,6.25591939978641e-06,0.0,0.0,0.0,6.25591939978641e-06,0.0,24.60902694951859,1.8177796341250487,0.016451154902608556,0.0
3202,1.0344827586206897,2.413793103448276,2.5,0,651514.2614429836,852203.7859885464,1050936.9362085983,323199.70287501457,760671.2496549091,4.343428409619891e-06,0.0,0.0,0.0,4.343428409619891e-06,0.0,23.328086434596596,2.1276567923526004,0.07606712496549091,0.0
3203,1.0344827586206897,2.413793103448276,2.857142857142857,0,684292.2686051432,1181894.352424086,760956.3004346228,392318.88011463726,300378.4075547286,4.561948457367621e-06,0.0,0.0,0.0,4.561948457367621e-06,0.0,23.56440223561927,2.424922491267906,0.01610181319877516,0.0
3204,1.0344827586206897,2.413793103448276,3.2142857142857144,0,581231.0621136801,781822.9436385751,708388.549324892,167364.37712635024,77294.93235103526,3.8748737474245335e-06,0.0,0.0,0.0,3.8748737474245335e-06,0.0,24.49020589030248,2.713756575707341,0.0030529564671873495,0.0
3205,1.0344827586206897,2.413793103448276,3.5714285714285716,0,204551.83931549502,387054.86496200174,299422.74412751675,153286.4065185965,103936.57499175613,1.3636789287699667e-06,0.0,0.0,0.0,1.3636789287699667e-06,0.0,23.224571622172316,3.00242142376239,0.003659368858254653,0.0
3206,1.0344827586206897,2.413793103448276,3.928571428571429,0,97299.47520814356,343779.8821600546,262840.7564929764,235828.23779395726,73056.45898008144,6.486631680542904e-07,0.0,0.0,0.0,6.486631680542904e-07,0.0,23.777180422142298,3.2961270220931427,0.0024768541178234287,0.0
3207,1.0344827586206897,2.413793103448276,4.285714285714286,0,178895.513748127,357703.1117644415,294076.7121485023,155691.8925991923,77262.88404320863,1.1926367583208467e-06,0.0,0.0,0.0,1.1926367583208467e-06,0.0,23.390013241188342,3.5950277778096655,0.0025888198651450563,0.0
3208,1.0344827586206897,2.413793103448276,4.642857142857143,0,197826.1890407204,215821.71241960587,311489.0632433884,84014.02410881677,15616.771423568733,1.3188412602714693e-06,0.0,0.0,0.0,1.3188412602714693e-06,0.0,24.390742845819005,3.8969622073354526,0.0005213820412315383,0.0
3209,1.0344827586206897,2.413793103448276,5.0,0,166106.23991621652,419112.95218033314,292811.1510020891,230953.3550799197,-8257.519237074708,1.107374932774777e-06,0.0,0.0,0.0,1.107374932774777e-06,0.0,23.12122582024707,4.200101651522598,-0.00027538296494085954,0.0
3210,1.3793103448275863,2.413793103448276,0.0,0,189439.40122434756,359056.786583592,168287.42541320264,170975.96333204638,10820.936874085697,1.2629293414956505e-06,0.0,0.0,0.0,1.2629293414956505e-06,0.0,23.6951484652325,-0.04989284972978898,0.00036087129733157605,0.0
3211,1.3793103448275863,2.413793103448276,0.35714285714285715,0,243175.42256498968,453561.604686376,289641.50510759326,174163.11675683229,17703.181972606966,1.6211694837665978e-06,0.0,0.0,0.0,1.6211694837665978e-06,0.0,23.209974345648952,0.2541339310323407,0.0005910390120227507,0.0
3212,1.3793103448275863,2.413793103448276,0.7142857142857143,0,190401.0343017312,297354.9742113414,238231.0408767473,84405.91900329164,14840.893482278509,1.2693402286782082e-06,0.0,0.0,0.0,1.2693402286782082e-06,0.0,23.00491127854836,0.5594309106392427,0.0004972685182440006,0.0
3213,1.3793103448275863,2.413793103448276,1.0714285714285714,0,344256.14468749537,343985.9543507659,229201.34386885777,-42998.011968688785,-27677.376322322703,2.2950409645833025e-06,0.0,0.0,0.0,2.2950409645833025e-06,0.0,22.793873419574297,0.867925667909364,-0.0009383540411284415,0.0
3214,1.3793103448275863,2.413793103448276,1.4285714285714286,0,220761.3552741585,318773.9091513745,322333.26323370315,99813.75238049054,-28554.353350461293,1.47174236849439e-06,0.0,0.0,0.0,1.47174236849439e-06,0.0,23.665325538880953,1.181896609927627,-0.0010053334105589425,0.0
3215,1.3793103448275863,2.413793103448276,1.7857142857142858,0,340053.9245920474,522286.0620092895,331808.74140192044,129683.20685166492,29874.765299373976,2.2670261639469826e-06,0.0,0.0,0.0,2.2670261639469826e-06,0.0,23.994220244273603,1.5011809770703337,0.0011799784947377138,0.0
3216,1.3793103448275863,2.413793103448276,2.142857142857143,0,410362.5895130781,739405.6960754809,457935.27487747127,268551.93652043765,468848.9376759267,2.735750596753854e-06,0.0,0.0,0.0,2.735750596753854e-06,0.0,23.76628985058941,1.8202869531387795,0.025132692041209628,0.0
3217,1.3793103448275863,2.413793103448276,2.5,0,1134840.184124151,1366284.0263691272,201555.35956370577,263902.7768529249,791727.8271483837,7.56560122749434e-06,0.0,0.0,0.0,7.56560122749434e-06,0.0,23.879168622002314,2.1305052141359866,0.07917278271483837,0.0
3218,1.3793103448275863,2.413793103448276,2.857142857142857,0,539327.3902673102,833083.9950945555,1016191.428475366,409149.8023505429,673464.5061897743,3.5955159351154015e-06,0.0,0.0,0.0,3.5955159351154015e-06,0.0,23.549397839273833,2.4274298102816365,0.036101129115605084,0.0
3219,1.3793103448275863,2.413793103448276,3.2142857142857144,0,254035.83284619648,669789.8288043268,530131.6256555584,376564.4557977549,96662.16072681925,1.6935722189746433e-06,0.0,0.0,0.0,1.6935722189746433e-06,0.0,24.263523519739465,2.715466691356048,0.0038179135390535514,0.0
3220,1.3793103448275863,2.413793103448276,3.5714285714285716,0,129094.26321811244,421497.85408769053,308714.7915164316,280694.74543489586,-30236.48729006115,8.606284214540829e-07,0.0,0.0,0.0,8.606284214540829e-07,0.0,24.13996850726538,3.0033251813561983,-0.0010645574955788035,0.0
3221,1.3793103448275863,2.413793103448276,3.928571428571429,0,70318.37616068547,292921.151529836,222429.3005285216,222777.54368948718,-18549.57886413032,4.687891744045698e-07,0.0,0.0,0.0,4.687891744045698e-07,0.0,23.84356711634967,3.296497096480793,-0.0006288917014994967,0.0
3222,1.3793103448275863,2.413793103448276,4.285714285714286,0,304100.34085783846,368242.0795331261,47554.937215610946,84016.16550815175,-5996.597210993752,2.027335605718923e-06,0.0,0.0,0.0,2.027335605718923e-06,0.0,23.888256608441026,3.5951451963535286,-0.00020092584137051286,0.0
3223,1.3793103448275863,2.413793103448276,4.642857142857143,0,246387.5946389515,425370.8236162137,210552.09819780852,156417.24652847892,57215.8372651265,1.6425839642596766e-06,0.0,0.0,0.0,1.6425839642596766e-06,0.0,23.557385087339995,3.8969910738894837,0.0019102098132167025,0.0
3224,1.3793103448275863,2.413793103448276,5.0,0,43449.10120464339,288044.20328741014,320221.20586622634,270796.46642261907,27835.62558041287,2.896606746976226e-07,0.0,0.0,0.0,2.896606746976226e-07,0.0,24.767722081421013,4.200107150270211,0.0009283002416635339,0.0
3225,1.7241379310344829,2.413793103448276,0.0,0,358320.35429192096,428574.23504613864,327726.7153672641,30636.720614380192,-49681.20666037708,2.38880236194614e-06,0.0,0.0,0.0,2.38880236194614e-06,0.0,24.211620153711173,-0.049887525873688505,-0.0016568363450547587,0.0
3226,1.7241379310344829,2.413793103448276,0.35714285714285715,0,58891.36390057664,306252.40724506316,305663.03387111984,247068.568574558,-2097.2185860535137,3.926090926705109e-07,0.0,0.0,0.0,3.926090926705109e-07,0.0,23.760845728736673,0.2541618794654353,-7.001780826829996e-05,0.0
3227,1.7241379310344829,2.413793103448276,0.7142857142857143,0,234825.78537596474,334378.3279183301,270817.49655383365,74314.83135922586,-54458.86931391521,1.565505235839765e-06,0.0,0.0,0.0,1.565505235839765e-06,0.0,23.730672295544856,0.5595445946042105,-0.001824733886899148,0.0
3228,1.7241379310344829,2.413793103448276,1.0714285714285714,0,224348.25809638939,421804.70111344045,366373.6745070231,174936.97614467927,22837.444507555672,1.4956550539759292e-06,0.0,0.0,0.0,1.4956550539759292e-06,0.0,23.626867833644766,0.8682839718223316,0.000774264442306539,0.0
3229,1.7241379310344829,2.413793103448276,1.4285714285714286,0,148754.69677974156,384347.35744102503,281085.06691124407,213843.86749521145,-25751.64570333165,9.916979785316104e-07,0.0,0.0,0.0,9.916979785316104e-07,0.0,23.67711954246994,1.1827716228791898,-0.0009066564906824516,0.0
3230,1.7241379310344829,2.413793103448276,1.7857142857142858,0,336518.45973998995,639571.4135341203,582136.4125196645,278031.75445023255,28066.64474882048,2.2434563982665996e-06,0.0,0.0,0.0,2.2434563982665996e-06,0.0,23.954389320525763,1.502836701294994,0.0011085622561776355,0.0
3231,1.7241379310344829,2.413793103448276,2.142857142857143,0,263081.69724887924,881324.9568093005,586022.2117468109,795392.2686148892,178028.95319257944,1.7538779816591948e-06,0.0,0.0,0.0,1.7538779816591948e-06,0.0,22.982589139248734,1.8227145251179746,0.009543259023230928,0.0
3232,1.7241379310344829,2.413793103448276,2.5,0,680643.463593633,1135267.2934795942,579623.9642759422,376071.6655536716,722280.3526752922,4.53762309062422e-06,0.0,0.0,0.0,4.53762309062422e-06,0.0,23.716105828822567,2.1332630398727237,0.07222803526752922,0.0
3233,1.7241379310344829,2.413793103448276,2.857142857142857,0,413626.7553538213,492693.20557979203,469185.1315396783,67813.73895545222,468404.76852554595,2.757511702358809e-06,0.0,0.0,0.0,2.757511702358809e-06,0.0,23.779846767486845,2.4298573822608316,0.025108882311521294,0.0
3234,1.7241379310344829,2.413793103448276,3.2142857142857144,0,98694.23521289372,402504.1690532037,309211.974029738,299174.94508362876,22879.8020889966,6.579615680859581e-07,0.0,0.0,0.0,6.579615680859581e-07,0.0,23.845973539651332,2.7171224155807083,0.0009036949464984328,0.0
3235,1.7241379310344829,2.413793103448276,3.5714285714285716,0,293155.6076492959,497740.18243580486,368615.9974213009,162188.3873022667,-1609.2952783790079,1.9543707176619726e-06,0.0,0.0,0.0,1.9543707176619726e-06,0.0,23.942170205749733,3.0042001943077614,-5.665960251146902e-05,0.0
3236,1.7241379310344829,2.413793103448276,3.928571428571429,0,258214.51400538054,460433.4476843958,210285.57492987174,194845.21822516763,-18033.08531755766,1.7214300933692036e-06,0.0,0.0,0.0,1.7214300933692036e-06,0.0,23.87553950542072,3.296855400393761,-0.0006113808724021474,0.0
3237,1.7241379310344829,2.413793103448276,4.285714285714286,0,108073.81004205771,302731.84679726674,182620.93300517867,213351.0645316899,-8073.326336512223,7.204920669470514e-07,0.0,0.0,0.0,7.204920669470514e-07,0.0,24.066883608226625,3.595258880318496,-0.00027051006258157844,0.0
3238,1.7241379310344829,2.413793103448276,4.642857142857143,0,189048.14657174918,350946.94558599486,310934.8865701012,145095.60924412488,-30241.46466597838,1.2603209771449945e-06,0.0,0.0,0.0,1.2603209771449945e-06,0.0,23.801584907859453,3.8970190223225787,-0.0010096425278776412,0.0
3239,1.7241379310344829,2.413793103448276,5.0,0,182650.6278304866,390624.23735638504,282413.08801810245,179741.71216186564,-40586.17675519892,1.217670852203244e-06,0.0,0.0,0.0,1.217670852203244e-06,0.0,24.367805252365468,4.200112474126311,-0.0013535229370437317,0.0
3240,2.0689655172413794,2.413793103448276,0.0,0,224529.15225932546,409544.7026661212,321018.97988271597,154246.92113429552,49226.201645848436,1.4968610150621698e-06,0.0,0.0,0.0,1.4968610150621698e-06,0.0,24.212089562966266,-0.049882413935357584,0.0016416622199493301,0.0
3241,2.0689655172413794,2.413793103448276,0.35714285714285715,0,68306.38081769338,213857.97592071767,288705.66492745734,272825.4795416686,-94963.43222025367,4.553758721179559e-07,0.0,0.0,0.0,4.553758721179559e-07,0.0,25.01087785600845,0.2541887154023444,-0.0031704522522898134,0.0
3242,2.0689655172413794,2.413793103448276,0.7142857142857143,0,155566.67969647347,296943.4869601798,198268.98526842764,117612.00982444703,18198.392470469775,1.0371111979764897e-06,0.0,0.0,0.0,1.0371111979764897e-06,0.0,24.243513738386675,0.5596537533431323,0.0006097670378821373,0.0
3243,2.0689655172413794,2.413793103448276,1.0714285714285714,0,220381.73812201904,347085.8106167098,265931.55129619566,97634.0770830133,10773.088898574415,1.469211587480127e-06,0.0,0.0,0.0,1.469211587480127e-06,0.0,23.524795984376713,0.8686280133351466,0.0003652431280222193,0.0
3244,2.0689655172413794,2.413793103448276,1.4285714285714286,0,218949.1314096654,492855.3581863405,313277.6254570759,248947.70459604406,76895.76403041673,1.459660876064436e-06,0.0,0.0,0.0,1.459660876064436e-06,0.0,23.8237212469711,1.18361180566451,0.0027073238101883203,0.0
3245,2.0689655172413794,2.413793103448276,1.7857142857142858,0,720644.4584773881,928250.4758663109,319489.15291110065,132559.65340123474,50568.13091469853,4.804296389849254e-06,0.0,0.0,0.0,4.804296389849254e-06,0.0,23.65319460035812,1.504426518895193,0.0019973146701064122,0.0
3246,2.0689655172413794,2.413793103448276,2.142857142857143,0,436193.16286259185,875235.6676928889,439337.8407749227,438747.7675651246,311826.6735610814,2.9079544190839455e-06,0.0,0.0,0.0,2.9079544190839455e-06,0.0,23.9155658570564,1.8250454668296399,0.016715498590427667,0.0
3247,2.0689655172413794,2.413793103448276,2.5,0,330235.9480930124,775392.3084073361,608414.4356158812,395011.8532519423,535362.5075234011,2.201572987286749e-06,0.0,0.0,0.0,2.201572987286749e-06,0.0,24.465249631685513,2.135911089487053,0.0535362507523401,0.0
3248,2.0689655172413794,2.413793103448276,2.857142857142857,0,655261.0445117996,990834.7405547523,1015469.4407122419,348238.4435655745,378484.29463711055,4.368406963411997e-06,0.0,0.0,0.0,4.368406963411997e-06,0.0,23.759127446048335,2.432188323972497,0.020288686728611015,0.0
3249,2.0689655172413794,2.413793103448276,3.2142857142857144,0,348251.34369687596,782492.7312892906,382179.5467573163,549305.6363919217,21362.620039993002,2.3216756246458396e-06,0.0,0.0,0.0,2.3216756246458396e-06,0.0,23.641530722331485,2.7187122331809075,0.0008437700509390404,0.0
3250,2.0689655172413794,2.413793103448276,3.5714285714285716,0,148411.61477560198,441425.60802491143,409006.03475390753,279484.0957700503,-43342.447762071824,9.894107651706799e-07,0.0,0.0,0.0,9.894107651706799e-07,0.0,24.188666318608426,3.0050403770930814,-0.0015259883596667944,0.0
3251,2.0689655172413794,2.413793103448276,3.928571428571429,0,79340.32644717403,304396.0087313736,225421.06442675975,224695.27968775656,-27167.777160153273,5.289355096478269e-07,0.0,0.0,0.0,5.289355096478269e-07,0.0,23.52762687787227,3.2971994419065758,-0.0009210769543262621,0.0
3252,2.0689655172413794,2.413793103448276,4.285714285714286,0,214499.63758738787,430044.9208262839,316784.1157957859,182655.27985060445,-34165.20338804684,1.429997583915919e-06,0.0,0.0,0.0,1.429997583915919e-06,0.0,23.502829326157617,3.595368039057418,-0.0011447612695668114,0.0
3253,2.0689655172413794,2.413793103448276,4.642857142857143,0,279261.9135282459,407490.8794266698,316758.32018238003,94145.27529012592,-36189.13621915599,1.8617460901883058e-06,0.0,0.0,0.0,1.8617460901883058e-06,0.0,24.135714521389296,3.897045858259488,-0.0012082116847707538,0.0
3254,2.0689655172413794,2.413793103448276,5.0,0,143533.72941692895,285866.0344563221,320299.5183500331,162680.91434095873,3068.3699592974017,9.56891529446193e-07,0.0,0.0,0.0,9.56891529446193e-07,0.0,23.053686470666722,4.200117586064643,0.0001023281681419519,0.0
3255,2.413793103448276,2.413793103448276,0.0,0,170670.87204377874,378732.3129691782,273616.314023961,181808.40118173082,-6845.518092434277,1.1378058136251916e-06,0.0,0.0,0.0,1.1378058136251916e-06,0.0,23.713653650394402,-0.049877559959333934,-0.00022829363332112248,0.0
3256,2.413793103448276,2.413793103448276,0.35714285714285715,0,237955.0855819249,422157.2567470748,343325.7493467786,154790.15333596535,19343.40657743514,1.5863672372128327e-06,0.0,0.0,0.0,1.5863672372128327e-06,0.0,24.387667886302147,0.25421419712491156,0.0006457996042955472,0.0
3257,2.413793103448276,2.413793103448276,0.7142857142857143,0,250624.5298533145,436542.4990645265,273875.19389413926,147923.61826553082,5203.347858741135,1.6708301990220967e-06,0.0,0.0,0.0,1.6708301990220967e-06,0.0,23.047683910536815,0.5597574036352913,0.0001743467185930538,0.0
3258,2.413793103448276,2.413793103448276,1.0714285714285714,0,253140.5935556923,358931.0521414813,379300.3663604301,116590.5057871915,-43517.71904976845,1.6876039570379486e-06,0.0,0.0,0.0,1.6876039570379486e-06,0.0,23.08879050203399,0.8689546935777942,-0.0014753937315260483,0.0
3259,2.413793103448276,2.413793103448276,1.4285714285714286,0,218779.4876171089,392459.3017845843,158954.67248623547,192213.54263714261,-84413.62990111117,1.4585299174473927e-06,0.0,0.0,0.0,1.4585299174473927e-06,0.0,23.256960681303756,1.1844095905420704,-0.002972010656468725,0.0
3260,2.413793103448276,2.413793103448276,1.7857142857142858,0,498506.3365632297,754196.0657008248,466072.70381935517,178570.64225235596,-169.0328999519188,3.3233755770881978e-06,0.0,0.0,0.0,3.3233755770881978e-06,0.0,22.61310322343875,1.5059361099766568,-6.67637669610731e-06,0.0
3261,2.413793103448276,2.413793103448276,2.142857142857143,0,194363.37624953894,680044.6064155601,678875.3997239907,485099.2643803371,406911.4832018787,1.2957558416635929e-06,0.0,0.0,0.0,1.2957558416635929e-06,0.0,24.931756788386412,1.8272587828848277,0.021812528884119,0.0
3262,2.413793103448276,2.413793103448276,2.5,0,997790.9449209521,1148255.4114220454,541231.4138805885,-3329.797380009355,687350.2020880628,6.651939632806347e-06,0.0,0.0,0.0,6.651939632806347e-06,0.0,24.048400804273836,2.1384255113179376,0.06873502020880627,0.0
3263,2.413793103448276,2.413793103448276,2.857142857142857,0,113155.16608387991,651358.4059257772,732036.0792615532,602689.2295818313,426731.5008988915,7.543677738925327e-07,0.0,0.0,0.0,7.543677738925327e-07,0.0,23.657665752221888,2.4344016400276844,0.02287498282397342,0.0
3264,2.413793103448276,2.413793103448276,3.2142857142857144,0,587772.1582614032,734588.369201413,243424.61593529407,83365.3511201243,114529.76029431366,3.9184810550760215e-06,0.0,0.0,0.0,3.9184810550760215e-06,0.0,23.35255097567218,2.7202218242623712,0.004523639024457451,0.0
3265,2.413793103448276,2.413793103448276,3.5714285714285716,0,278909.8455380421,400916.84561592643,240604.469544498,78860.55733880225,51271.067922979135,1.859398970253614e-06,0.0,0.0,0.0,1.859398970253614e-06,0.0,25.102970304665583,3.005838161970642,0.0018051369241452323,0.0
3266,2.413793103448276,2.413793103448276,3.928571428571429,0,319006.1139669999,456058.7627343992,109195.9904321356,175251.57092194722,15013.52297571904,2.1267074264466663e-06,0.0,0.0,0.0,2.1267074264466663e-06,0.0,24.334607610459617,3.2975261221492236,0.0005090077828106212,0.0
3267,2.413793103448276,2.413793103448276,4.285714285714286,0,194946.25562213187,387783.51467765105,357221.73095057765,179361.41640633022,63663.48381942715,1.2996417041475458e-06,0.0,0.0,0.0,1.2996417041475458e-06,0.0,23.94763973610427,3.595471689349577,0.0021331496181776414,0.0
3268,2.413793103448276,2.413793103448276,4.642857142857143,0,49901.66217039032,265853.6576423947,230071.53574962812,287076.6057209907,10335.31623562459,3.3267774780260217e-07,0.0,0.0,0.0,3.3267774780260217e-07,0.0,24.62632745613524,3.897071339982055,0.0003450552056855294,0.0
3269,2.413793103448276,2.413793103448276,5.0,0,267890.1395198604,452150.4697579353,398822.2174512652,161607.20463865745,70351.78647045713,1.785934263465736e-06,0.0,0.0,0.0,1.785934263465736e-06,0.0,24.21568274876242,4.2001224400406665,0.0023461869104871758,0.0
3270,2.7586206896551726,2.413793103448276,0.0,0,274627.73178220727,452410.89563663315,297149.8319735126,135320.7792266157,-21628.331885052692,1.830851545214715e-06,0.0,0.0,0.0,1.830851545214715e-06,0.0,23.771205617064528,-0.04987302082862276,-0.0007212909822224922,0.0
3271,2.7586206896551726,2.413793103448276,0.35714285714285715,0,220869.34374959415,406294.861481022,272698.72331534844,151355.03491519025,-22514.97874822117,1.472462291663961e-06,0.0,0.0,0.0,1.472462291663961e-06,0.0,23.72372410239181,0.2542380260167138,-0.0007516858164624203,0.0
3272,2.7586206896551726,2.413793103448276,0.7142857142857143,0,79495.4121468626,293685.5759456124,201899.40726157636,248789.97901144053,-6660.392358666527,5.299694143124173e-07,0.0,0.0,0.0,5.299694143124173e-07,0.0,23.73646557485177,0.5598543308187114,-0.0002231673883430689,0.0
3273,2.7586206896551726,2.413793103448276,1.0714285714285714,0,151231.84630507845,335094.56228516914,175161.31339069366,315849.33654041676,-1109.029035960649,1.008212308700523e-06,0.0,0.0,0.0,1.008212308700523e-06,0.0,23.528388525829275,0.8692601842343018,-3.7599730028714e-05,0.0
3274,2.7586206896551726,2.413793103448276,1.4285714285714286,0,243461.5638636959,426866.9602745912,333747.5343565929,150589.78505709663,-8111.217174708329,1.6230770924246393e-06,0.0,0.0,0.0,1.6230770924246393e-06,0.0,24.596922592604876,1.185155628392485,-0.00028557738730588546,0.0
3275,2.7586206896551726,2.413793103448276,1.7857142857142858,0,180471.5245799147,510568.51110608445,407439.2441704027,302181.5676495802,94657.6673649885,1.2031434971994313e-06,0.0,0.0,0.0,1.2031434971994313e-06,0.0,23.786879085357267,1.5073477838715843,0.003738741065693423,0.0
3276,2.7586206896551726,2.413793103448276,2.142857142857143,0,819375.3644766132,1178336.1043478884,380444.4033840255,339046.50966044643,323029.92063181085,5.462502429844088e-06,0.0,0.0,0.0,5.462502429844088e-06,0.0,24.727196942152506,1.8293285357700284,0.017316049718656627,0.0
3277,2.7586206896551726,2.413793103448276,2.5,0,663066.966297505,1065750.9704890836,410847.77158677846,394811.1589467117,534791.6283528018,4.4204464419833666e-06,0.0,0.0,0.0,4.4204464419833666e-06,0.0,23.640996358494466,2.140776839239174,0.053479162835280175,0.0
3278,2.7586206896551726,2.413793103448276,2.857142857142857,0,259771.320732352,404376.53458500194,447451.59494819766,682992.9309848496,297173.05052919337,1.7318088048823466e-06,0.0,0.0,0.0,1.7318088048823466e-06,0.0,23.76056436823536,2.4364713929128854,0.015929989729569417,0.0
3279,2.7586206896551726,2.413793103448276,3.2142857142857144,0,505771.37263383914,634525.8818586941,632340.5930144209,127665.40556068775,134941.57031619342,3.371809150892261e-06,0.0,0.0,0.0,3.371809150892261e-06,0.0,23.83860198378544,2.7216334981572987,0.005329854458223371,0.0
3280,2.7586206896551726,2.413793103448276,3.5714285714285716,0,463989.45264619216,385918.9582896484,473976.1102470784,-27732.119702372507,18370.167863166884,3.093263017641281e-06,0.0,0.0,0.0,3.093263017641281e-06,0.0,23.62000586861857,3.0065841998210567,0.0006467715547170495,0.0
3281,2.7586206896551726,2.413793103448276,3.928571428571429,0,161324.50615848717,351591.4435731709,264491.9913516319,165437.85932977355,-59604.31478469608,1.075496707723248e-06,0.0,0.0,0.0,1.075496707723248e-06,0.0,23.78106513586315,3.297831612805731,-0.002020782208384469,0.0
3282,2.7586206896551726,2.413793103448276,4.285714285714286,0,87808.94419607348,320914.9194723618,252840.41112152816,221802.2731319848,52341.48935357407,5.853929613071565e-07,0.0,0.0,0.0,5.853929613071565e-07,0.0,24.354301702933217,3.595568616532997,0.0017537875926820475,0.0
3283,2.7586206896551726,2.413793103448276,4.642857142857143,0,222456.3527099854,401097.96121245,218518.22040886004,153330.27274336517,14971.46124875646,1.4830423513999027e-06,0.0,0.0,0.0,1.4830423513999027e-06,0.0,24.684745140991414,3.897095168873857,0.0004998376946412224,0.0
3284,2.7586206896551726,2.413793103448276,5.0,0,247656.36582606635,422608.72800776176,177167.35279140185,172795.2631339129,22068.303360075966,1.6510424388404423e-06,0.0,0.0,0.0,1.6510424388404423e-06,0.0,24.238016438549263,4.200126979171378,0.0007359637484374741,0.0
3285,3.1034482758620694,2.413793103448276,0.0,0,159885.55816574453,358923.3245868765,331212.92206808156,186993.79933981664,31559.914280886223,1.0659037211049636e-06,0.0,0.0,0.0,1.0659037211049636e-06,0.0,23.488349695828997,-0.049868865832292705,0.0010525028787009769,0.0
3286,3.1034482758620694,2.413793103448276,0.35714285714285715,0,201890.60760931394,316703.4306591398,365145.6141332044,143440.76715018542,33321.43042435266,1.345937384062093e-06,0.0,0.0,0.0,1.345937384062093e-06,0.0,23.788674331410974,0.2542598383337162,0.0011124703653652864,0.0
3287,3.1034482758620694,2.413793103448276,0.7142857142857143,0,162079.7909347461,338027.09471990884,177688.01992759868,174260.93986520777,-31322.76927599504,1.080531939564974e-06,0.0,0.0,0.0,1.080531939564974e-06,0.0,23.8038504902366,0.5599430553162018,-0.0010495208448043803,0.0
3288,3.1034482758620694,2.413793103448276,1.0714285714285714,0,152971.64116694062,352534.9408778402,239993.0198124951,178361.22378918857,-37356.43600276239,1.0198109411129374e-06,0.0,0.0,0.0,1.0198109411129374e-06,0.0,24.948148362999863,0.869539822041058,-0.0012665059822551264,0.0
3289,3.1034482758620694,2.413793103448276,1.4285714285714286,0,303427.84572015336,342591.4730172634,248941.60356189765,3378.5528633357803,102922.68038012747,2.0228523048010225e-06,0.0,0.0,0.0,2.0228523048010225e-06,0.0,24.595407988337886,1.1858385310731494,0.0036236719501389065,0.0
3290,3.1034482758620694,2.413793103448276,1.7857142857142858,0,362108.65616419347,652257.0613275879,360068.38179128827,247141.46657799208,20769.220352269185,2.41405770776129e-06,0.0,0.0,0.0,2.41405770776129e-06,0.0,24.71447057506784,1.5086399916148432,0.0008203322477201195,0.0
3291,3.1034482758620694,2.413793103448276,2.142857142857143,0,813074.7275867204,945789.0347031497,811693.4600017926,74002.59706012066,359454.52564034413,5.420498183911469e-06,0.0,0.0,0.0,5.420498183911469e-06,0.0,23.757624473737387,1.8312231310547464,0.019268594145738036,0.0
3292,3.1034482758620694,2.413793103448276,2.5,0,911009.886255977,1333035.6587268373,445953.594836075,399848.7631222116,754262.3170091568,6.073399241706513e-06,0.0,0.0,0.0,6.073399241706513e-06,0.0,23.48010849960397,2.142929180624589,0.07542623170091567,0.0
3293,3.1034482758620694,2.413793103448276,2.857142857142857,0,712813.6297150031,1083552.2656254028,687072.2455348169,260647.57276283708,288247.2597136974,4.752090864766687e-06,0.0,0.0,0.0,4.752090864766687e-06,0.0,24.408258459993792,2.4383659881976034,0.015451521861214823,0.0
3294,3.1034482758620694,2.413793103448276,3.2142857142857144,0,144917.08291904267,504406.70191852027,494341.8954051229,354719.58676431514,40525.1403929307,9.66113886126951e-07,0.0,0.0,0.0,9.66113886126951e-07,0.0,23.896198469396982,2.7229257059005576,0.0016006416679995447,0.0
3295,3.1034482758620694,2.413793103448276,3.5714285714285716,0,258676.7644335387,475033.0816305925,274056.2722075511,183181.38364315295,42937.03128216119,1.724511762890258e-06,0.0,0.0,0.0,1.724511762890258e-06,0.0,24.276832436155356,3.007267102501721,0.001511714573549387,0.0
3296,3.1034482758620694,2.413793103448276,3.928571428571429,0,124526.00323646782,284371.3679848501,308532.5573666046,173696.50178785875,7700.303522881969,8.301733549097855e-07,0.0,0.0,0.0,8.301733549097855e-07,0.0,24.342008498313135,3.298111250612487,0.00026106560262304125,0.0
3297,3.1034482758620694,2.413793103448276,4.285714285714286,0,229606.59494470657,388286.00760475895,248656.78614049644,123286.99988591796,16880.41990431858,1.5307106329647104e-06,0.0,0.0,0.0,1.5307106329647104e-06,0.0,23.942953049242977,3.5956573410304875,0.0005656062017546599,0.0
3298,3.1034482758620694,2.413793103448276,4.642857142857143,0,106090.52819187258,304655.3248315403,320538.72053682286,207402.02053254622,-2732.531828281316,7.072701879458173e-07,0.0,0.0,0.0,7.072701879458173e-07,0.0,24.647299563650563,3.8971169811908593,-9.122839694056877e-05,0.0
3299,3.1034482758620694,2.413793103448276,5.0,0,210778.41760907532,270174.67556505697,134368.63599585806,27357.159405278147,-17880.29368203871,1.4051894507271689e-06,0.0,0.0,0.0,1.4051894507271689e-06,0.0,23.419779222220267,4.200131134167708,-0.000596296314523329,0.0
3300,3.4482758620689657,2.413793103448276,0.0,0,242278.24807606303,353736.6098127398,211116.2847249338,73995.80737946562,-11152.693815696608,1.6151883205070869e-06,0.0,0.0,0.0,1.6151883205070869e-06,0.0,24.192981206947604,-0.04986517726846455,-0.0003719351783347633,0.0
3301,3.4482758620689657,2.413793103448276,0.35714285714285715,0,69628.56804428501,155823.20210463708,229716.82389178537,220209.71019553905,40003.165632103904,4.6419045362856677e-07,0.0,0.0,0.0,4.6419045362856677e-07,0.0,24.4822629137661,0.25427920203878646,0.0013355469954252196,0.0
3302,3.4482758620689657,2.413793103448276,0.7142857142857143,0,144512.0950125908,218406.5051147111,55646.02429367133,105159.11834456181,-9931.376930877957,9.634139667506055e-07,0.0,0.0,0.0,9.634139667506055e-07,0.0,24.998885890090225,0.5600218197593247,-0.0003327671003391718,0.0
3303,3.4482758620689657,2.413793103448276,1.0714285714285714,0,298035.4452574691,333988.6542236249,167187.77414424333,-10099.772561477032,15067.821413475363,1.986902968383127e-06,0.0,0.0,0.0,1.986902968383127e-06,0.0,24.21989477077029,0.8697880682047247,0.0005108486783457415,0.0
3304,3.4482758620689657,2.413793103448276,1.4285714285714286,0,170582.11085355445,409050.2606411706,216209.64403469258,277878.99575571145,-33927.6400613076,1.1372140723570296e-06,0.0,0.0,0.0,1.1372140723570296e-06,0.0,24.78593682468707,1.186444772312842,-0.001194514534313541,0.0
3305,3.4482758620689657,2.413793103448276,1.7857142857142858,0,169594.7305189843,533873.6969464349,512836.0302436022,354741.59289967176,178334.059515349,1.1306315367932286e-06,0.0,0.0,0.0,1.1306315367932286e-06,0.0,24.757837362802448,1.509787138413932,0.007043749231121055,0.0
3306,3.4482758620689657,2.413793103448276,2.142857142857143,0,114834.80564334757,584280.7854237017,477110.76475929865,463072.01750410366,349356.4203052034,7.655653709556505e-07,0.0,0.0,0.0,7.655653709556505e-07,0.0,25.33509292768522,1.8329050424407223,0.018727284245696814,0.0
3307,3.4482758620689657,2.413793103448276,2.5,0,374774.5383146734,840534.6769994543,539021.8346948542,420941.0206786835,613965.5657681001,2.498496922097823e-06,0.0,0.0,0.0,2.498496922097823e-06,0.0,24.333294381336398,2.1448399039921795,0.06139655657681001,0.0
3308,3.4482758620689657,2.413793103448276,2.857142857142857,0,258451.7294709692,920895.003043181,737487.7953688478,625307.5018615624,401233.0214199611,1.7230115298064614e-06,0.0,0.0,0.0,1.7230115298064614e-06,0.0,25.202201660011767,2.4400478995835795,0.021508134398466227,0.0
3309,3.4482758620689657,2.413793103448276,3.2142857142857144,0,373402.9115396236,643526.5831363174,216987.08065679495,375687.8483559127,33000.26241760177,2.4893527435974903e-06,0.0,0.0,0.0,2.4893527435974903e-06,0.0,24.585929330175713,2.724072852699647,0.001303427812177231,0.0
3310,3.4482758620689657,2.413793103448276,3.5714285714285716,0,249306.64666606564,401109.4128235565,114990.59181386093,285542.1697468115,53096.57783692849,1.6620443111071044e-06,0.0,0.0,0.0,1.6620443111071044e-06,0.0,23.418562801628525,3.0078733437414136,0.0018694089489841423,0.0
3311,3.4482758620689657,2.413793103448276,3.928571428571429,0,225948.8150063347,426398.9980418003,217354.23535694473,186680.1581721937,-52284.84020203863,1.5063254333755648e-06,0.0,0.0,0.0,1.5063254333755648e-06,0.0,24.204734137800568,3.298359496776154,-0.0017726279587334981,0.0
3312,3.4482758620689657,2.413793103448276,4.285714285714286,0,222533.3534086604,362824.79482882854,137959.62527198516,142698.9650466797,-20646.64866271071,1.4835556893910694e-06,0.0,0.0,0.0,1.4835556893910694e-06,0.0,23.736825585760712,3.5957361054736108,-0.0006917998838459664,0.0
3313,3.4482758620689657,2.413793103448276,4.642857142857143,0,163768.84331950455,284955.58186816785,140068.74576999072,107269.17076821915,-26844.393680765304,1.091792288796697e-06,0.0,0.0,0.0,1.091792288796697e-06,0.0,24.96496457993161,3.8971363448959297,-0.0008962278049211546,0.0
3314,3.4482758620689657,2.413793103448276,5.0,0,248407.20399542345,316182.7399746323,272899.6753335152,48978.44330801378,-62995.31995224856,1.6560480266361563e-06,0.0,0.0,0.0,1.6560480266361563e-06,0.0,24.2888598404865,4.200134822731536,-0.0021008534752132053,0.0
3315,3.793103448275862,2.413793103448276,0.0,0,107954.61641771918,238156.50933170915,289721.400345559,165653.67762508482,-17501.40401022452,7.196974427847946e-07,0.0,0.0,0.0,7.196974427847946e-07,0.0,23.524806582116895,-0.04986204889988007,-0.0005836605872287201,0.0
3316,3.793103448275862,2.413793103448276,0.35714285714285715,0,137201.73970141367,323941.0071782499,284010.31652472453,171203.40445166812,-1720.0856027807176,9.146782646760911e-07,0.0,0.0,0.0,9.146782646760911e-07,0.0,24.630704492151256,0.2542956249094329,-5.7426834160952994e-05,0.0
3317,3.793103448275862,2.413793103448276,0.7142857142857143,0,261210.6887250188,406037.9157947293,306169.382033659,109627.01538170468,-36197.99312889,1.7414045915001253e-06,0.0,0.0,0.0,1.7414045915001253e-06,0.0,24.854828557537395,0.5600886219676963,-0.001212873229506267,0.0
3318,3.793103448275862,2.413793103448276,1.0714285714285714,0,186510.66283381294,389112.22643605125,324492.38360844733,178885.37416571143,-42020.40846084144,1.2434044188920862e-06,0.0,0.0,0.0,1.2434044188920862e-06,0.0,23.997201738491643,0.8699986123448872,-0.0014246299804543516,0.0
3319,3.793103448275862,2.413793103448276,1.4285714285714286,0,388865.9934970025,509194.92497441935,109077.45836894722,132653.13133351662,6632.369918476551,2.5924399566466834e-06,0.0,0.0,0.0,2.5924399566466834e-06,0.0,23.980003394137377,1.186958941549767,0.00023351056101303196,0.0
3320,3.793103448275862,2.413793103448276,1.7857142857142858,0,181549.87875418714,535165.749575798,450090.16968934773,326700.36169932305,55450.77245038642,1.2103325250279142e-06,0.0,0.0,0.0,1.2103325250279142e-06,0.0,24.309092290801146,1.5107600639684984,0.0021901667963704994,0.0
3321,3.793103448275862,2.413793103448276,2.142857142857143,0,775049.5290530127,1071258.5977841688,501419.4320973907,188706.7982536734,295905.2789499474,5.1669968603534184e-06,0.0,0.0,0.0,5.1669968603534184e-06,0.0,23.307653411194956,1.8343315159916496,0.015862030713094454,0.0
3322,3.793103448275862,2.413793103448276,2.5,0,664721.3914176204,954707.8908928349,546717.7280269742,187674.13542259327,447280.08239333885,4.431475942784136e-06,0.0,0.0,0.0,4.431475942784136e-06,0.0,24.57258782125358,2.1464604390392297,0.044728008239333886,0.0
3323,3.793103448275862,2.413793103448276,2.857142857142857,0,688934.6080062409,1092441.2450916106,685421.6331552595,297000.5557146545,285034.8108339952,4.592897386708273e-06,0.0,0.0,0.0,4.592897386708273e-06,0.0,25.068118733379215,2.4414743731345068,0.015279318232489758,0.0
3324,3.793103448275862,2.413793103448276,3.2142857142857144,0,322613.8421378644,567184.7301013287,201631.2768980044,322297.651888211,22051.705104492932,2.1507589475857627e-06,0.0,0.0,0.0,2.1507589475857627e-06,0.0,23.90185099663577,2.725045778254213,0.0008709871871744808,0.0
3325,3.793103448275862,2.413793103448276,3.5714285714285716,0,356456.16339793755,453934.5544890626,139101.11292963487,66907.45833127062,8414.126299556056,2.376374422652917e-06,0.0,0.0,0.0,2.376374422652917e-06,0.0,25.153462218653036,3.0083875129783384,0.00029624212412674816,0.0
3326,3.793103448275862,2.413793103448276,3.928571428571429,0,207544.7494935513,443169.1876683372,282909.69671194616,208726.46570682782,-18904.457522425288,1.3836316632903419e-06,0.0,0.0,0.0,1.3836316632903419e-06,0.0,24.734079839309032,3.2985700409163163,-0.000640923254607829,0.0
3327,3.793103448275862,2.413793103448276,4.285714285714286,0,272471.9059855558,319309.30941644916,264915.8487498474,23743.517660385372,-1282.6097775753008,1.8164793732370385e-06,0.0,0.0,0.0,1.8164793732370385e-06,0.0,24.202890936045403,3.595802907681982,-4.2975947798677684e-05,0.0
3328,3.793103448275862,2.413793103448276,4.642857142857143,0,198971.58281996366,345563.8214480274,240825.9018535181,116101.19457274809,-43401.39208727738,1.3264772187997578e-06,0.0,0.0,0.0,1.3264772187997578e-06,0.0,24.563555119872195,3.8971527677665763,-0.0014490002949395747,0.0
3329,3.793103448275862,2.413793103448276,5.0,0,331386.5002008996,416368.6497270915,173468.85185500633,38858.643275887625,-46240.727055495634,2.2092433346726643e-06,0.0,0.0,0.0,2.2092433346726643e-06,0.0,25.04971639374359,4.20013795110012,-0.0015420985591399602,0.0
3330,4.137931034482759,2.413793103448276,0.0,0,340498.7489472422,319096.7388237741,278239.79388742417,-39987.060743338036,18277.102160669558,2.2699916596482815e-06,0.0,0.0,0.0,2.2699916596482815e-06,0.0,24.292022949493422,-0.049859580724213204,0.0006095296225207737,0.0
3331,4.137931034482759,2.413793103448276,0.35714285714285715,0,106390.61479631563,241262.46758824456,274129.01943838625,155183.27966696414,25094.552844441525,7.092707653087708e-07,0.0,0.0,0.0,7.092707653087708e-07,0.0,24.422134413052554,0.25430858199189144,0.0008378075615604877,0.0
3332,4.137931034482759,2.413793103448276,0.7142857142857143,0,308831.93945848587,469907.7598181845,235861.78762774233,119873.98211501453,-12913.224480665393,2.0588795963899058e-06,0.0,0.0,0.0,2.0588795963899058e-06,0.0,23.96284507291793,0.5601413266221331,-0.0004326788013754258,0.0
3333,4.137931034482759,2.413793103448276,1.0714285714285714,0,231110.62576633337,307042.4859485835,157422.5260331077,40862.388056318676,1153.7266112918542,1.5407375051088892e-06,0.0,0.0,0.0,1.5407375051088892e-06,0.0,24.17538026109601,0.8701647244603615,3.9115124766720705e-05,0.0
3334,4.137931034482759,2.413793103448276,1.4285714285714286,0,251449.88980261172,406319.99861143966,242177.19844819116,116836.20028016527,-12760.160559884956,1.6763325986840782e-06,0.0,0.0,0.0,1.6763325986840782e-06,0.0,24.590453388225455,1.1873646034674605,-0.00044925604083909706,0.0
3335,4.137931034482759,2.413793103448276,1.7857142857142858,0,362942.7423154011,694563.0330285095,489424.2449063529,275503.524737534,121322.34179734509,2.419618282102674e-06,0.0,0.0,0.0,2.419618282102674e-06,0.0,24.154612656960445,1.5115276689084567,0.004791929001533797,0.0
3336,4.137931034482759,2.413793103448276,2.142857142857143,0,501711.13374483754,734101.9137999457,806932.8010151052,272786.6991955566,298263.21330650384,3.34474089163225e-06,0.0,0.0,0.0,3.34474089163225e-06,0.0,23.99780419266223,1.8354569547667678,0.015988428009269372,0.0
3337,4.137931034482759,2.413793103448276,2.5,0,377126.1150372222,785207.107112138,624184.260195743,354298.9959965475,518385.1899022601,2.514174100248148e-06,0.0,0.0,0.0,2.514174100248148e-06,0.0,24.829751204441084,2.147738985688204,0.051838518990226005,0.0
3338,4.137931034482759,2.413793103448276,2.857142857142857,0,529552.1023314727,878235.9672553873,543337.807690841,267720.4747042243,396004.01421834936,3.5303473488764844e-06,0.0,0.0,0.0,3.5303473488764844e-06,0.0,24.50024452961922,2.442599811909625,0.02122783296847725,0.0
3339,4.137931034482759,2.413793103448276,3.2142857142857144,0,209678.15308656587,361827.18820141884,376651.2063459078,159954.42896423224,15755.529696254562,1.3978543539104392e-06,0.0,0.0,0.0,1.3978543539104392e-06,0.0,24.023671124714234,2.7258133831941715,0.0006223040090350562,0.0
3340,4.137931034482759,2.413793103448276,3.5714285714285716,0,232554.44429782973,371139.47188024916,297322.5535369687,110635.69413642035,11118.058543340521,1.5503629619855315e-06,0.0,0.0,0.0,1.5503629619855315e-06,0.0,25.14486402640073,3.008793174896032,0.00039144138818293157,0.0
3341,4.137931034482759,2.413793103448276,3.928571428571429,0,228680.50228044434,355489.17880981637,197834.38310234426,93212.8884381293,-35313.50502857033,1.524536681869629e-06,0.0,0.0,0.0,1.524536681869629e-06,0.0,25.330005722944716,3.2987361530317907,-0.001197243906505791,0.0
3342,4.137931034482759,2.413793103448276,4.285714285714286,0,252881.0298055475,311169.55240418745,39853.96350381489,82025.37578928572,21863.525386099845,1.6858735320369833e-06,0.0,0.0,0.0,1.6858735320369833e-06,0.0,24.785232378903544,3.5958556123364187,0.0007325733376712294,0.0
3343,4.137931034482759,2.413793103448276,4.642857142857143,0,214569.56625687424,226667.8822208805,307734.678105656,64442.2366722435,26736.140230702236,1.4304637750458282e-06,0.0,0.0,0.0,1.4304637750458282e-06,0.0,23.6853388159455,3.897165724849035,0.0008926136516987377,0.0
3344,4.137931034482759,2.413793103448276,5.0,0,292949.75255963317,432336.56234455877,347137.67709989403,106231.52896685852,-42245.55722854114,1.9529983503975544e-06,0.0,0.0,0.0,1.9529983503975544e-06,0.0,24.490919609551664,4.200140419275787,-0.0014088622104495097,0.0
3345,4.482758620689656,2.413793103448276,0.0,0,212096.96002554276,332022.2262745626,187859.36310921106,88482.57203968275,-46992.22066683252,1.4139797335036185e-06,0.0,0.0,0.0,1.4139797335036185e-06,0.0,24.54076053788406,-0.04985786884488096,-0.0015671603885929158,0.0
3346,4.482758620689656,2.413793103448276,0.35714285714285715,0,320528.9928165639,418475.9787663371,158338.20977537174,60404.701532744606,9387.76703109676,2.1368599521104262e-06,0.0,0.0,0.0,2.1368599521104262e-06,0.0,23.4587037035404,0.2543175687759217,0.0003134202969694778,0.0
3347,4.482758620689656,2.413793103448276,0.7142857142857143,0,114460.366194664,309414.7747104941,219522.941347026,180559.56682491035,63350.82953958963,7.630691079644267e-07,0.0,0.0,0.0,7.630691079644267e-07,0.0,24.851955002609472,0.560177881560201,0.0021226736228716243,0.0
3348,4.482758620689656,2.413793103448276,1.0714285714285714,0,57181.2264750111,277081.8852186634,222775.56745240075,217404.7267477078,29940.40192398975,3.8120817650007397e-07,0.0,0.0,0.0,3.8120817650007397e-07,0.0,24.365234878070293,0.8702799366395967,0.0010150780482659498,0.0
3349,4.482758620689656,2.413793103448276,1.4285714285714286,0,231284.4691554324,411813.71592769376,351348.0061325749,156302.30207092155,-3385.485384707931,1.541896461036216e-06,0.0,0.0,0.0,1.541896461036216e-06,0.0,24.82667701917997,1.1876459627977942,-0.00011919518983436875,0.0
3350,4.482758620689656,2.413793103448276,1.7857142857142858,0,263900.32318608573,535620.9657849056,397962.9379011725,231353.88971821713,11143.299856094614,1.7593354879072383e-06,0.0,0.0,0.0,1.7593354879072383e-06,0.0,24.117357124613385,1.5120600649812643,0.0004401324682835597,0.0
3351,4.482758620689656,2.413793103448276,2.142857142857143,0,362026.2374713017,634008.5918541736,449082.486105762,216869.16445115677,211944.0899633831,2.413508249808678e-06,0.0,0.0,0.0,2.413508249808678e-06,0.0,24.51696985840429,1.836237537528638,0.011361283165977917,0.0
3352,4.482758620689656,2.413793103448276,2.5,0,765298.4256683098,1262709.9658524746,425781.75994792586,598593.5395823889,633042.240220202,5.1019895044553984e-06,0.0,0.0,0.0,5.1019895044553984e-06,0.0,24.54554931848202,2.1486257611365893,0.06330422402202021,0.0
3353,4.482758620689656,2.413793103448276,2.857142857142857,0,105095.45426848115,726149.9409302926,724143.6010985905,620065.6810969012,389337.28797624126,7.006363617898743e-07,0.0,0.0,0.0,7.006363617898743e-07,0.0,24.378623129606364,2.443380394671495,0.020870462472136767,0.0
3354,4.482758620689656,2.413793103448276,3.2142857142857144,0,220491.45115513404,353750.8917950661,458964.56286930526,205574.15580102627,23634.327311020716,1.4699430077008937e-06,0.0,0.0,0.0,1.4699430077008937e-06,0.0,24.534755763145778,2.7263457792669787,0.0009334968052512549,0.0
3355,4.482758620689656,2.413793103448276,3.5714285714285716,0,332237.31838157144,494578.8761342176,356431.31988278637,115556.59381515069,-4729.495454903844,2.214915455877143e-06,0.0,0.0,0.0,2.214915455877143e-06,0.0,24.225245018713345,3.009074534226366,-0.00016651470749642054,0.0
3356,4.482758620689656,2.413793103448276,3.928571428571429,0,138921.0032522766,302349.80675286666,170272.23987405645,157471.4241887253,1794.4923364868105,9.26140021681844e-07,0.0,0.0,0.0,9.26140021681844e-07,0.0,23.70701463312394,3.298851365211026,6.0839189239130386e-05,0.0
3357,4.482758620689656,2.413793103448276,4.285714285714286,0,186463.00754647396,286711.9354672042,348481.8318782772,138972.1006601352,59173.94193636753,1.2430867169764931e-06,0.0,0.0,0.0,1.2430867169764931e-06,0.0,23.282425093346827,3.595892167274487,0.001982720141512421,0.0
3358,4.482758620689656,2.413793103448276,4.642857142857143,0,105531.88628484885,210476.68763874244,114283.04706742216,97595.0955462371,2119.804907826077,7.03545908565659e-07,0.0,0.0,0.0,7.03545908565659e-07,0.0,23.999328996700577,3.897174711633065,7.077187594530514e-05,0.0
3359,4.482758620689656,2.413793103448276,5.0,0,241941.59125051094,438547.2062817033,273865.12272311526,160769.23837806864,-31909.02146692633,1.612943941670073e-06,0.0,0.0,0.0,1.612943941670073e-06,0.0,24.70814523666047,4.200142131155119,-0.0010641453792164153,0.0
3360,4.827586206896552,2.413793103448276,0.0,0,120221.34074273433,240028.0627962109,102881.7599259953,190065.10955332962,-37410.74758582524,8.014756049515622e-07,0.0,0.0,0.0,8.014756049515622e-07,0.0,23.740021982941595,-0.04985699094702338,-0.0012476244129814857,0.0
3361,4.827586206896552,2.413793103448276,0.35714285714285715,0,217167.463212069,327288.457448804,175319.18934132092,78559.17589152246,-29478.673510373672,1.44778308808046e-06,0.0,0.0,0.0,1.44778308808046e-06,0.0,24.794580996806463,0.25432217744097074,-0.0009841759574223466,0.0
3362,4.827586206896552,2.413793103448276,0.7142857142857143,0,77795.77280955261,383775.7593943747,328500.36235887936,294813.8802546098,41027.037350867,5.186384853970174e-07,0.0,0.0,0.0,5.186384853970174e-07,0.0,24.964506173659835,0.5601966279176162,0.0013746782898056815,0.0
3363,4.827586206896552,2.413793103448276,1.0714285714285714,0,301555.89109467075,362560.5448286018,289646.58305835025,31233.048143531018,17371.629922511987,2.010372607297805e-06,0.0,0.0,0.0,2.010372607297805e-06,0.0,24.510007321589864,0.8703390205501345,0.0005889553601086748,0.0
3364,4.827586206896552,2.413793103448276,1.4285714285714286,0,255303.85307805715,383925.14402234013,229544.71691061533,89237.64269004764,-8540.33112026149,1.7020256871870476e-06,0.0,0.0,0.0,1.7020256871870476e-06,0.0,24.195405012813442,1.1877902514451644,-0.0003006855069367716,0.0
3365,4.827586206896552,2.413793103448276,1.7857142857142858,0,105367.11627123457,367175.11854029354,331867.18360242556,248688.41090660292,-104192.89174188397,7.024474418082304e-07,0.0,0.0,0.0,7.024474418082304e-07,0.0,24.79547198462619,1.5123330920357407,-0.00411535857530349,0.0
3366,4.827586206896552,2.413793103448276,2.142857142857143,0,102241.1060559731,691116.7510125855,593863.2088187292,700451.649712253,240718.63280556822,6.816073737064873e-07,0.0,0.0,0.0,6.816073737064873e-07,0.0,24.866361798325418,1.8366378414060216,0.012903745280671033,0.0
3367,4.827586206896552,2.413793103448276,2.5,0,644843.0329610548,1006766.0986508026,779000.8869592152,278949.62550680654,593251.1610231533,4.298953553073699e-06,0.0,0.0,0.0,4.298953553073699e-06,0.0,24.180034071231468,2.1490805234855643,0.059325116102315334,0.0
3368,4.827586206896552,2.413793103448276,2.857142857142857,0,590213.8655977465,694836.1277523161,783694.6206226932,154089.73104483372,340074.5531401995,3.934759103984976e-06,0.0,0.0,0.0,3.934759103984976e-06,0.0,24.339728792379294,2.4437806985488786,0.018229728870650403,0.0
3369,4.827586206896552,2.413793103448276,3.2142857142857144,0,272143.1106445838,579245.1717886893,338836.24040180014,283785.08720280894,77748.31154779937,1.8142874042972255e-06,0.0,0.0,0.0,1.8142874042972255e-06,0.0,23.895309248629076,2.726618806321455,0.0030708638112880346,0.0
3370,4.827586206896552,2.413793103448276,3.5714285714285716,0,300260.53354954283,441540.79375910404,146737.3413171293,136105.58586832814,-47466.80599605089,2.0017368903302857e-06,0.0,0.0,0.0,2.0017368903302857e-06,0.0,24.44989250851081,3.009218822873736,-0.0016711975709853917,0.0
3371,4.827586206896552,2.413793103448276,3.928571428571429,0,195940.5144999518,398723.93220285454,244548.4620882816,178230.72816436554,6132.501840644486,1.3062700966663452e-06,0.0,0.0,0.0,1.3062700966663452e-06,0.0,23.278048387269145,3.2989104491215637,0.0002079119717628438,0.0
3372,4.827586206896552,2.413793103448276,4.285714285714286,0,104427.40747478971,244950.766964066,197486.77018777674,125221.58013052434,-31667.618333833052,6.961827164985981e-07,0.0,0.0,0.0,6.961827164985981e-07,0.0,24.169993804992924,3.595910913631902,-0.0010610755790401401,0.0
3373,4.827586206896552,2.413793103448276,4.642857142857143,0,362378.6627479636,465632.64002599247,142301.94546439475,73942.85560700939,61.21804934372327,2.415857751653091e-06,0.0,0.0,0.0,2.415857751653091e-06,0.0,23.894383748127705,3.897179320298114,2.0438277964978752e-06,0.0
3374,4.827586206896552,2.413793103448276,5.0,0,113863.01078028922,373089.78616809094,245665.63639089913,281322.4129541858,-24833.096402624433,7.590867385352614e-07,0.0,0.0,0.0,7.590867385352614e-07,0.0,24.281690110358646,4.200143009052977,-0.000828167821312826,0.0
3375,5.172413793103448,2.413793103448276,0.0,0,342168.8379239647,322198.2136415738,211878.41380695693,-61521.68075098111,34500.953935758334,2.2811255861597647e-06,0.0,0.0,0.0,2.2811255861597647e-06,0.0,23.861841056182506,-0.04985699094702338,0.001150584662940845,0.0
3376,5.172413793103448,2.413793103448276,0.35714285714285715,0,146756.35605716906,392619.84115593735,245422.98046384822,246307.99255044182,10878.404443737229,9.783757070477937e-07,0.0,0.0,0.0,9.783757070477937e-07,0.0,23.30763939089429,0.25432217744097074,0.00036318676635415824,0.0
3377,5.172413793103448,2.413793103448276,0.7142857142857143,0,297836.97186807956,476397.0577861426,168528.2275405364,189724.36885375288,-4627.653777528879,1.9855798124538637e-06,0.0,0.0,0.0,1.9855798124538637e-06,0.0,23.94196800454271,0.5601966279176162,-0.00015505714259359666,0.0
3378,5.172413793103448,2.413793103448276,1.0714285714285714,0,169684.271873789,237314.6432741786,265664.2595327538,83590.74216235382,46205.97034592241,1.1312284791585933e-06,0.0,0.0,0.0,1.1312284791585933e-06,0.0,24.035811745245212,0.8703390205501345,0.0015665342875505128,0.0
3379,5.172413793103448,2.413793103448276,1.4285714285714286,0,176473.1113055311,369754.4689087419,169043.37066195084,299879.2461333305,-9555.781941410143,1.1764874087035408e-06,0.0,0.0,0.0,1.1764874087035408e-06,0.0,24.810997850330534,1.1877902514451644,-0.0003364372056270087,0.0
3380,5.172413793103448,2.413793103448276,1.7857142857142858,0,223949.39253349253,290813.4603185775,296437.69707163254,69729.15981612983,-20062.215891977125,1.4929959502232835e-06,0.0,0.0,0.0,1.4929959502232835e-06,0.0,23.96258121486955,1.5123330920357407,-0.0007924073401779753,0.0
3381,5.172413793103448,2.413793103448276,2.142857142857143,0,340430.1060694197,853439.5842817798,535319.1730879418,494398.8543710319,396711.1662986873,2.269534040462798e-06,0.0,0.0,0.0,2.269534040462798e-06,0.0,23.86409038729527,1.8366378414060216,0.0212657399232195,0.0
3382,5.172413793103448,2.413793103448276,2.5,0,1041819.2757883728,1037580.2477841828,1013682.6866020026,-15982.224792265077,582298.8689771855,6.945461838589153e-06,0.0,0.0,0.0,6.945461838589153e-06,0.0,23.696641428137077,2.1490805234855643,0.05822988689771855,0.0
3383,5.172413793103448,2.413793103448276,2.857142857142857,0,626836.3553737773,815339.7922557679,704233.5805247502,140379.41027512727,283753.8471840566,4.178909035825182e-06,0.0,0.0,0.0,4.178909035825182e-06,0.0,24.86859714844949,2.4437806985488786,0.015210652053806546,0.0
3384,5.172413793103448,2.413793103448276,3.2142857142857144,0,401045.3691423993,482047.3720151546,507753.00049818755,94473.15968530871,22719.900157858487,2.673635794282662e-06,0.0,0.0,0.0,2.673635794282662e-06,0.0,24.19054907657859,2.726618806321455,0.0008973792202284776,0.0
3385,5.172413793103448,2.413793103448276,3.5714285714285716,0,246190.43824620356,228484.8592507661,380777.21786896716,96748.83630643487,24644.556679921192,1.6412695883080238e-06,0.0,0.0,0.0,1.6412695883080238e-06,0.0,24.442955957471398,3.009218822873736,0.000867678420682501,0.0
3386,5.172413793103448,2.413793103448276,3.928571428571429,0,298808.025112092,358078.630544903,473314.68527552724,134046.6541129863,27322.826338345785,1.99205350074728e-06,0.0,0.0,0.0,1.99205350074728e-06,0.0,23.5396341922045,3.2989104491215637,0.0009263336311599418,0.0
3387,5.172413793103448,2.413793103448276,4.285714285714286,0,296364.29446144117,417539.67873436544,229071.17486236204,75936.24456699874,-24791.1743508395,1.9757619630762744e-06,0.0,0.0,0.0,1.9757619630762744e-06,0.0,23.438840824930057,3.595910913631902,-0.0008306690260725426,0.0
3388,5.172413793103448,2.413793103448276,4.642857142857143,0,304443.4124700911,284266.8912409772,317240.4012206027,-2347.5779933158146,18225.05606091263,2.0296227498006073e-06,0.0,0.0,0.0,2.0296227498006073e-06,0.0,23.8700589254263,3.897179320298114,0.0006084623173940524,0.0
3389,5.172413793103448,2.413793103448276,5.0,0,170058.55296019497,350675.74066837656,290892.3303879463,158798.32836130445,8077.253109555518,1.1337236864012999e-06,0.0,0.0,0.0,1.1337236864012999e-06,0.0,25.13734348238265,4.200143009052977,0.0002693712053252407,0.0
3390,5.517241379310345,2.413793103448276,0.0,0,136834.2497764866,220963.3642160573,289481.42296321725,131923.6967958979,-26701.48839195421,9.12228331843244e-07,0.0,0.0,0.0,9.12228331843244e-07,0.0,23.700746546165643,-0.04985786884488096,-0.0008904774945841,0.0
3391,5.517241379310345,2.413793103448276,0.35714285714285715,0,190687.3071850889,351437.52104253793,339654.2658523589,155131.83069381985,124.28081875418259,1.2712487145672593e-06,0.0,0.0,0.0,1.2712487145672593e-06,0.0,23.938126714659784,0.2543175687759217,4.149243477444393e-06,0.0
3392,5.517241379310345,2.413793103448276,0.7142857142857143,0,137670.01784912145,297607.35814605234,199025.65599806735,140315.2579321453,-17653.54633999661,9.17800118994143e-07,0.0,0.0,0.0,9.17800118994143e-07,0.0,24.262376329712204,0.560177881560201,-0.0005915110731523255,0.0
3393,5.517241379310345,2.413793103448276,1.0714285714285714,0,83895.55681764286,282049.7805813568,199764.91796181866,196631.3344158541,41491.20616452102,5.593037121176191e-07,0.0,0.0,0.0,5.593037121176191e-07,0.0,23.948076154076197,0.8702799366395967,0.001406688282963097,0.0
3394,5.517241379310345,2.413793103448276,1.4285714285714286,0,165244.38415090353,327930.4687043881,295453.9939685477,148858.98708038667,-20235.101243059933,1.1016292276726903e-06,0.0,0.0,0.0,1.1016292276726903e-06,0.0,24.50462173316957,1.1876459627977942,-0.0007124315895377227,0.0
3395,5.517241379310345,2.413793103448276,1.7857142857142858,0,162372.25708602375,510391.1010401558,367559.21608469123,333789.4211677487,141949.05427551293,1.082481713906825e-06,0.0,0.0,0.0,1.082481713906825e-06,0.0,23.85458557472186,1.5120600649812643,0.0056066325447240144,0.0
3396,5.517241379310345,2.413793103448276,2.142857142857143,0,597173.12696952,883591.3974562665,626853.0062512225,200984.17317325162,320364.05403337977,3.9811541797968e-06,0.0,0.0,0.0,3.9811541797968e-06,0.0,23.724353652413658,1.836237537528638,0.017173145685273433,0.0
3397,5.517241379310345,2.413793103448276,2.5,0,640347.8145133529,712329.5616264686,977902.7162619691,247497.11464467496,388677.85897222813,4.26898543008902e-06,0.0,0.0,0.0,4.26898543008902e-06,0.0,25.638507570256213,2.1486257611365893,0.03886778589722281,0.0
3398,5.517241379310345,2.413793103448276,2.857142857142857,0,235910.01687165588,755619.0774630511,496073.69076122204,554217.6172531889,131205.84292421816,1.5727334458110392e-06,0.0,0.0,0.0,1.5727334458110392e-06,0.0,23.8159489893656,2.443380394671495,0.007033301729481582,0.0
3399,5.517241379310345,2.413793103448276,3.2142857142857144,0,187114.9688833608,549408.440871917,354043.83531737264,371810.4653351099,46800.00166074102,1.247433125889072e-06,0.0,0.0,0.0,1.247433125889072e-06,0.0,24.686645113700468,2.7263457792669787,0.001848482990911426,0.0
3400,5.517241379310345,2.413793103448276,3.5714285714285716,0,95112.69355345251,301734.3439954008,284203.2730132047,199075.67436950104,56438.503639051305,6.340846236896834e-07,0.0,0.0,0.0,6.340846236896834e-07,0.0,23.822680193162306,3.009074534226366,0.0019870705056388225,0.0
3401,5.517241379310345,2.413793103448276,3.928571428571429,0,330868.30330932117,452380.1324602382,217760.28388711897,73940.01243516599,41167.78336513601,2.2057886887288076e-06,0.0,0.0,0.0,2.2057886887288076e-06,0.0,23.52806032986125,3.298851365211026,0.0013957231868766148,0.0
3402,5.517241379310345,2.413793103448276,4.285714285714286,0,185984.37334915425,267882.06347477966,102462.05916519937,66566.18557708447,5376.780900463212,1.239895822327695e-06,0.0,0.0,0.0,1.239895822327695e-06,0.0,24.258139232254184,3.595892167274487,0.00018015787758928742,0.0
3403,5.517241379310345,2.413793103448276,4.642857142857143,0,80969.36042441483,278882.70771696605,188036.03433364764,214323.0500903075,-23733.093345250953,5.397957361627655e-07,0.0,0.0,0.0,5.397957361627655e-07,0.0,23.637551194137366,3.897174711633065,-0.0007923538302168399,0.0
3404,5.517241379310345,2.413793103448276,5.0,0,54351.50873560757,258940.5518195852,269608.0964159573,210713.71246097505,-13434.09245492729,3.623433915707171e-07,0.0,0.0,0.0,3.623433915707171e-07,0.0,24.116165759305858,4.200142131155119,-0.0004480183582155471,0.0
3405,5.862068965517242,2.413793103448276,0.0,0,273957.68998062063,438328.66155416507,318345.89951832773,124849.76898941188,6684.393016883198,1.8263845998708042e-06,0.0,0.0,0.0,1.8263845998708042e-06,0.0,23.82319111304079,-0.049859580724213204,0.0002229202154994166,0.0
3406,5.862068965517242,2.413793103448276,0.35714285714285715,0,180914.12463595322,358091.7052105688,151247.24841224172,279996.31063734915,35058.75592673714,1.206094164239688e-06,0.0,0.0,0.0,1.206094164239688e-06,0.0,24.851774353234532,0.25430858199189144,0.001170472771377952,0.0
3407,5.862068965517242,2.413793103448276,0.7142857142857143,0,107826.95120601312,262874.64918100997,151428.38697946948,159073.98291709882,18416.17856625803,7.188463413734208e-07,0.0,0.0,0.0,7.188463413734208e-07,0.0,23.459614189700577,0.5601413266221331,0.0006170643188225395,0.0
3408,5.862068965517242,2.413793103448276,1.0714285714285714,0,300932.25270409824,406984.3397416047,235292.39916356033,59505.747493905146,32481.983490054477,2.0062150180273215e-06,0.0,0.0,0.0,2.0062150180273215e-06,0.0,24.573261596625905,0.8701647244603615,0.0011012460182931844,0.0
3409,5.862068965517242,2.413793103448276,1.4285714285714286,0,281596.070568899,402820.5685980647,110327.40783654556,133561.14278786874,29795.983752164113,1.8773071371259931e-06,0.0,0.0,0.0,1.8773071371259931e-06,0.0,24.382606396124142,1.1873646034674605,0.0010490483744762533,0.0
3410,5.862068965517242,2.413793103448276,1.7857142857142858,0,318934.1599169115,583308.4036734009,338964.93307973206,222513.11621629292,110523.2383537435,2.12622773277941e-06,0.0,0.0,0.0,2.12622773277941e-06,0.0,24.13024606571704,1.5115276689084567,0.00436539143050341,0.0
3411,5.862068965517242,2.413793103448276,2.142857142857143,0,451176.6194945043,765311.185943804,289973.17893012776,342978.49814931705,124146.54477004244,3.007844129963362e-06,0.0,0.0,0.0,3.007844129963362e-06,0.0,23.870445323046294,1.8354569547667678,0.006654887378335901,0.0
3412,5.862068965517242,2.413793103448276,2.5,0,273711.90264486254,822156.816303875,941783.9817736045,628622.3940915344,471702.51635569334,1.8247460176324169e-06,0.0,0.0,0.0,1.8247460176324169e-06,0.0,24.340396365710248,2.147738985688204,0.04717025163556934,0.0
3413,5.862068965517242,2.413793103448276,2.857142857142857,0,615979.465173279,877463.6677191376,448888.66543898504,171573.37765228524,219194.48821578504,4.1065297678218605e-06,0.0,0.0,0.0,4.1065297678218605e-06,0.0,24.3716361662565,2.442599811909625,0.011749941456123592,0.0
3414,5.862068965517242,2.413793103448276,3.2142857142857144,0,463708.65533540543,494286.24573059275,571722.769071245,74170.76226805015,-8126.738707870114,3.0913910355693696e-06,0.0,0.0,0.0,3.0913910355693696e-06,0.0,24.46060160187419,2.7258133831941715,-0.0003209858491454068,0.0
3415,5.862068965517242,2.413793103448276,3.5714285714285716,0,282793.78286565054,527992.3987357564,357340.6967183499,201563.20665442012,5083.765466085518,1.8852918857710036e-06,0.0,0.0,0.0,1.8852918857710036e-06,0.0,24.133895365175306,3.008793174896032,0.00017898774354205288,0.0
3416,5.862068965517242,2.413793103448276,3.928571428571429,0,130163.98734505646,248654.1955811843,190199.82443074734,99510.4620585735,-48017.478442079264,8.677599156337098e-07,0.0,0.0,0.0,8.677599156337098e-07,0.0,23.70068594337857,3.2987361530317907,-0.0016279503669783411,0.0
3417,5.862068965517242,2.413793103448276,4.285714285714286,0,230192.16489255684,422844.5485406378,157077.57125106695,286170.5302896331,-30523.088984249094,1.5346144326170456e-06,0.0,0.0,0.0,1.5346144326170456e-06,0.0,24.717164382630408,3.5958556123364187,-0.0010227262428337998,0.0
3418,5.862068965517242,2.413793103448276,4.642857142857143,0,115540.2297891323,315257.7070194814,213224.21185638284,189800.2508281469,-3182.58274549968,7.702681985942153e-07,0.0,0.0,0.0,7.702681985942153e-07,0.0,24.280945810504786,3.897165724849035,-0.00010625381157417908,0.0
3419,5.862068965517242,2.413793103448276,5.0,0,213546.6420709781,341655.947724048,218913.7397795664,95074.33883517009,-51695.943976825954,1.4236442804731872e-06,0.0,0.0,0.0,1.4236442804731872e-06,0.0,23.980961072512716,4.200140419275787,-0.0017240265410266465,0.0
3420,6.206896551724139,2.413793103448276,0.0,0,153318.1705637775,377665.72272203956,249017.41447707778,208015.07139061537,-15738.390178819815,1.02212113709185e-06,0.0,0.0,0.0,1.02212113709185e-06,0.0,23.68378475160674,-0.04986204889988007,-0.0005248652078677918,0.0
3421,6.206896551724139,2.413793103448276,0.35714285714285715,0,106385.36820520704,282973.9572654875,176364.13947410183,176814.4683315129,20684.967882474637,7.092357880347136e-07,0.0,0.0,0.0,7.092357880347136e-07,0.0,24.65055254962582,0.2542956249094329,0.0006905890138788307,0.0
3422,6.206896551724139,2.413793103448276,0.7142857142857143,0,181752.97670998512,380966.19453303673,275863.6383260026,171096.02356537312,-39799.59790964214,1.2116865113999008e-06,0.0,0.0,0.0,1.2116865113999008e-06,0.0,24.886232775782847,0.5600886219676963,-0.0013335509147658316,0.0
3423,6.206896551724139,2.413793103448276,1.0714285714285714,0,114997.34714049955,153433.8817928389,252013.0651389958,125678.04331294756,26862.57946676535,7.666489809366636e-07,0.0,0.0,0.0,7.666489809366636e-07,0.0,24.48645789171144,0.8699986123448872,0.0009107297492444474,0.0
3424,6.206896551724139,2.413793103448276,1.4285714285714286,0,126132.76362828587,332897.5379837584,245752.8273576041,188261.71935222024,-26463.491998923233,8.408850908552392e-07,0.0,0.0,0.0,8.408850908552392e-07,0.0,24.524747962801516,1.186958941549767,-0.0009317189690848657,0.0
3425,6.206896551724139,2.413793103448276,1.7857142857142858,0,412994.4139316827,454132.52962594567,310628.68974763696,-11471.357293074921,73815.29677527133,2.7532960928778846e-06,0.0,0.0,0.0,2.7532960928778846e-06,0.0,24.79445026312194,1.5107600639684984,0.002915519566586435,0.0
3426,6.206896551724139,2.413793103448276,2.142857142857143,0,71048.15490465403,618458.3413958866,547247.7846380649,547573.7097060588,219998.09890420787,4.736543660310269e-07,0.0,0.0,0.0,4.736543660310269e-07,0.0,24.032064023077158,1.8343315159916496,0.011793019083756217,0.0
3427,6.206896551724139,2.413793103448276,2.5,0,1064633.6434954891,929411.208736205,521144.935170558,-278929.9653895266,604389.3099534601,7.097557623303261e-06,0.0,0.0,0.0,7.097557623303261e-06,0.0,25.284778549598915,2.1464604390392297,0.060438930995346016,0.0
3428,6.206896551724139,2.413793103448276,2.857142857142857,0,547421.4299120569,889061.0804378312,587414.8204865678,257168.96131405025,286245.0167305847,3.6494761994137126e-06,0.0,0.0,0.0,3.6494761994137126e-06,0.0,23.69267820576781,2.4414743731345068,0.015344191435053065,0.0
3429,6.206896551724139,2.413793103448276,3.2142857142857144,0,514668.08339142293,635378.6352202719,399482.19586657675,45045.09772862704,84653.34985647016,3.4311205559428194e-06,0.0,0.0,0.0,3.4311205559428194e-06,0.0,24.10551565646047,2.725045778254213,0.0033435955508656625,0.0
3430,6.206896551724139,2.413793103448276,3.5714285714285716,0,253874.12290322626,407633.3417618225,292584.1193625709,116603.21114375109,-16314.267051990217,1.6924941526881752e-06,0.0,0.0,0.0,1.6924941526881752e-06,0.0,23.84615390638795,3.0083875129783384,-0.0005743879938321819,0.0
3431,6.206896551724139,2.413793103448276,3.928571428571429,0,199822.56213979045,290094.743196071,352469.1267375932,128899.15624568013,18823.067939621735,1.3321504142652696e-06,0.0,0.0,0.0,1.3321504142652696e-06,0.0,24.268461626531877,3.2985700409163163,0.0006381638801989233,0.0
3432,6.206896551724139,2.413793103448276,4.285714285714286,0,257525.29388882135,348793.84816656064,218770.52877964292,52179.664082218886,27513.615868275185,1.7168352925921425e-06,0.0,0.0,0.0,1.7168352925921425e-06,0.0,25.10685854231427,3.595802907681982,0.0009218889018163946,0.0
3433,6.206896551724139,2.413793103448276,4.642857142857143,0,363588.9224087268,331835.7268237676,291706.3169971349,-50153.179198791775,3876.5864672819766,2.4239261493915123e-06,0.0,0.0,0.0,2.4239261493915123e-06,0.0,24.126934661638597,3.8971527677665763,0.00012942384251534082,0.0
3434,6.206896551724139,2.413793103448276,5.0,0,210255.40972451516,384327.84307796607,241470.8081087496,142895.6844903603,-15523.879446003353,1.4017027314967678e-06,0.0,0.0,0.0,1.4017027314967678e-06,0.0,24.461664461043934,4.20013795110012,-0.0005177114126517407,0.0
3435,6.551724137931035,2.413793103448276,0.0,0,144836.19986216194,376758.2532296708,212724.05125281357,266508.0116636545,-7620.512300689003,9.655746657477463e-07,0.0,0.0,0.0,9.655746657477463e-07,0.0,22.684211531697688,-0.04986517726846455,-0.0002541391925930844,0.0
3436,6.551724137931035,2.413793103448276,0.35714285714285715,0,191058.85017253458,328140.80786260095,220534.14371311106,107546.92269141956,-41234.309035639264,1.2737256678168972e-06,0.0,0.0,0.0,1.2737256678168972e-06,0.0,24.356863119629253,0.25427920203878646,-0.0013766499893395228,0.0
3437,6.551724137931035,2.413793103448276,0.7142857142857143,0,65065.59528784819,268478.88624797127,225186.30918258536,193655.0999512779,6643.939678360904,4.337706352523213e-07,0.0,0.0,0.0,4.337706352523213e-07,0.0,24.646988304334055,0.5600218197593247,0.00022261611425930238,0.0
3438,6.551724137931035,2.413793103448276,1.0714285714285714,0,50174.53218859834,293073.24635605,254827.7181734757,236261.7125730944,21215.788650178718,3.344968812573223e-07,0.0,0.0,0.0,3.344968812573223e-07,0.0,24.21395828361312,0.8697880682047247,0.0007192849778743565,0.0
3439,6.551724137931035,2.413793103448276,1.4285714285714286,0,295902.2665350799,348664.4258512146,199056.7499508246,7831.813471710237,66281.05983752113,1.972681776900533e-06,0.0,0.0,0.0,1.972681776900533e-06,0.0,23.624072664649912,1.186444772312842,0.0023336043763302373,0.0
3440,6.551724137931035,2.413793103448276,1.7857142857142858,0,328526.39113022387,525776.7200149122,228353.78396940883,173142.99350966155,132527.82675352006,2.190175940868159e-06,0.0,0.0,0.0,2.190175940868159e-06,0.0,23.561724800276092,1.509787138413932,0.005234517625708545,0.0
3441,6.551724137931035,2.413793103448276,2.142857142857143,0,682183.5497427244,875984.9679559417,690787.2502592924,120324.46072222876,232320.84820010923,4.547890331618163e-06,0.0,0.0,0.0,4.547890331618163e-06,0.0,23.88942310680674,1.8329050424407223,0.012453581235587288,0.0
3442,6.551724137931035,2.413793103448276,2.5,0,788044.925710793,1118182.4462800988,860499.5281777083,233553.68895828104,585204.1522209606,5.253632838071954e-06,0.0,0.0,0.0,5.253632838071954e-06,0.0,23.56700763762121,2.1448399039921795,0.058520415222096056,0.0
3443,6.551724137931035,2.413793103448276,2.857142857142857,0,180045.14417800555,822912.7060767537,705975.2407594047,615580.0226242616,302519.8618198651,1.2003009611867036e-06,0.0,0.0,0.0,1.2003009611867036e-06,0.0,24.964159776539823,2.4400478995835795,0.016216606058993204,0.0
3444,6.551724137931035,2.413793103448276,3.2142857142857144,0,271442.2302000221,562969.3865548045,410204.578666981,249567.84954520734,127459.75011987277,1.8096148680001473e-06,0.0,0.0,0.0,1.8096148680001473e-06,0.0,24.41464702653221,2.724072852699647,0.005034341276958725,0.0
3445,6.551724137931035,2.413793103448276,3.5714285714285716,0,161487.6059027317,402966.9794829975,334327.8655655158,218498.32698697672,-22856.920335276893,1.0765840393515447e-06,0.0,0.0,0.0,1.0765840393515447e-06,0.0,24.907972618012096,3.0078733437414136,-0.0008047398375129633,0.0
3446,6.551724137931035,2.413793103448276,3.928571428571429,0,162082.78341456436,302312.6566195997,284064.6800041508,131878.13799381416,29815.663745478687,1.080551889430429e-06,0.0,0.0,0.0,1.080551889430429e-06,0.0,24.045815925280316,3.298359496776154,0.0010108490139627798,0.0
3447,6.551724137931035,2.413793103448276,4.285714285714286,0,222275.01107506594,266637.4870807783,280577.36844729603,51660.49642900779,-32290.544036241994,1.4818334071671062e-06,0.0,0.0,0.0,1.4818334071671062e-06,0.0,23.812845051185516,3.5957361054736108,-0.0010819477281046748,0.0
3448,6.551724137931035,2.413793103448276,4.642857142857143,0,38237.01551458939,211644.61214659843,172238.63839523197,174694.99429576783,-3456.566034410954,2.5491343676392924e-07,0.0,0.0,0.0,2.5491343676392924e-07,0.0,23.848371947174577,3.8971363448959297,-0.00011540102661379361,0.0
3449,6.551724137931035,2.413793103448276,5.0,0,107617.35019699851,280752.25533327286,156721.16380837097,212125.3318944617,-28842.876030068834,7.174490013133234e-07,0.0,0.0,0.0,7.174490013133234e-07,0.0,23.97346924140159,4.200134822731536,-0.0009618913974696131,0.0
3450,6.8965517241379315,2.413793103448276,0.0,0,187418.11840162566,360784.0322891534,205102.26576839155,152758.88813315946,-64766.71760819181,1.2494541226775045e-06,0.0,0.0,0.0,1.2494541226775045e-06,0.0,23.836517352201497,-0.049868865832292705,-0.0021599284497397864,0.0
3451,6.8965517241379315,2.413793103448276,0.35714285714285715,0,103401.11947197797,283315.66158732283,229615.84589946168,164112.95814750588,-29814.977480138037,6.893407964798531e-07,0.0,0.0,0.0,6.893407964798531e-07,0.0,24.699321619801594,0.2542598383337162,-0.0009954038127500738,0.0
3452,6.8965517241379315,2.413793103448276,0.7142857142857143,0,231275.5019367063,314983.3103662027,215497.4560827864,50612.14325081454,-8511.638523799507,1.5418366795780421e-06,0.0,0.0,0.0,1.5418366795780421e-06,0.0,24.549983741255883,0.5599430553162018,-0.0002851964325202145,0.0
3453,6.8965517241379315,2.413793103448276,1.0714285714285714,0,233877.84885108768,372503.7086764327,110618.58095598567,184456.12671494196,48810.705855409964,1.5591856590072512e-06,0.0,0.0,0.0,1.5591856590072512e-06,0.0,24.233334269868685,0.869539822041058,0.0016548433838656537,0.0
3454,6.8965517241379315,2.413793103448276,1.4285714285714286,0,161680.07766596304,437185.29412658524,413507.6283413826,264971.9819010956,-38076.771042032684,1.0778671844397535e-06,0.0,0.0,0.0,1.0778671844397535e-06,0.0,23.272761749360846,1.1858385310731494,-0.0013405959373315763,0.0
3455,6.8965517241379315,2.413793103448276,1.7857142857142858,0,149095.2614422403,444733.0640006436,365948.3315606079,272773.2755559556,25389.708179757014,9.939684096149353e-07,0.0,0.0,0.0,9.939684096149353e-07,0.0,24.25489297110671,1.5086399916148432,0.001002829958312921,0.0
3456,6.8965517241379315,2.413793103448276,2.142857142857143,0,848786.5963567563,1007929.670948565,617273.8227291491,34154.77218749157,195908.28219361434,5.658577309045042e-06,0.0,0.0,0.0,5.658577309045042e-06,0.0,23.95670179744274,1.8312231310547464,0.010501682160358898,0.0
3457,6.8965517241379315,2.413793103448276,2.5,0,427593.45865515893,1211716.5247101337,938260.1500755945,718965.3405745658,684755.6452098094,2.8506230577010595e-06,0.0,0.0,0.0,2.8506230577010595e-06,0.0,24.819952490392723,2.142929180624589,0.06847556452098094,0.0
3458,6.8965517241379315,2.413793103448276,2.857142857142857,0,464950.6639842658,650458.6544966262,194126.26274327902,177344.1352598776,278253.40899324126,3.0996710932284387e-06,0.0,0.0,0.0,3.0996710932284387e-06,0.0,24.569285777490208,2.4383659881976034,0.014915800539741637,0.0
3459,6.8965517241379315,2.413793103448276,3.2142857142857144,0,178822.10020050578,473738.9078128471,338989.8423841835,270867.65726115945,40554.39397284448,1.1921473346700386e-06,0.0,0.0,0.0,1.1921473346700386e-06,0.0,24.19738607148376,2.7229257059005576,0.0016017971112255065,0.0
3460,6.8965517241379315,2.413793103448276,3.5714285714285716,0,250336.18862870082,490274.5939668413,246510.25043401343,233847.2032082551,-8791.50343300853,1.6689079241913388e-06,0.0,0.0,0.0,1.6689079241913388e-06,0.0,23.082192354397556,3.007267102501721,-0.00030952870904724344,0.0
3461,6.8965517241379315,2.413793103448276,3.928571428571429,0,118094.83183956996,330712.11674155126,215586.03396071916,209857.06870833668,-66241.35106531258,7.872988789304665e-07,0.0,0.0,0.0,7.872988789304665e-07,0.0,24.067726629807666,3.298111250612487,-0.002245799556217745,0.0
3462,6.8965517241379315,2.413793103448276,4.285714285714286,0,191309.16686558194,183890.81512383505,220023.88686663538,13224.740745640787,-48497.85839184178,1.2753944457705463e-06,0.0,0.0,0.0,1.2753944457705463e-06,0.0,23.81385692603028,3.5956573410304875,-0.0016250004226036636,0.0
3463,6.8965517241379315,2.413793103448276,4.642857142857143,0,161647.3166236824,237376.21454708246,326174.5128528664,139592.3772524575,-31376.411629339218,1.0776487774912159e-06,0.0,0.0,0.0,1.0776487774912159e-06,0.0,24.347914617639315,3.8971169811908593,-0.0010475339042957887,0.0
3464,6.8965517241379315,2.413793103448276,5.0,0,162311.6540115072,313156.59289162053,275110.050451669,135201.20256343888,20303.589560897417,1.082077693410048e-06,0.0,0.0,0.0,1.082077693410048e-06,0.0,23.578917925647406,4.200131134167708,0.0006771116762427265,0.0
3465,7.241379310344828,2.413793103448276,0.0,0,59489.18187404135,256609.9437231598,298146.7019651805,229997.03913318663,-83572.8573944208,3.9659454582694233e-07,0.0,0.0,0.0,3.9659454582694233e-07,0.0,24.153366646411797,-0.04987302082862276,-0.002787101137412345,0.0
3466,7.241379310344828,2.413793103448276,0.35714285714285715,0,123277.25256553298,306804.04827505286,237273.03432632747,164468.28716622776,18104.517105709143,8.218483504368865e-07,0.0,0.0,0.0,8.218483504368865e-07,0.0,22.91784893367381,0.2542380260167138,0.0006044379998954263,0.0
3467,7.241379310344828,2.413793103448276,0.7142857142857143,0,170564.5665670667,337700.3980536519,140963.17705470283,231386.92925340598,11516.544393881935,1.1370971104471114e-06,0.0,0.0,0.0,1.1370971104471114e-06,0.0,23.338857093749183,0.5598543308187114,0.0003858807404604921,0.0
3468,7.241379310344828,2.413793103448276,1.0714285714285714,0,317044.4571477501,446773.04565336346,98193.76057423289,175599.19739169296,-62515.362905561065,2.113629714318334e-06,0.0,0.0,0.0,2.113629714318334e-06,0.0,23.59647252313507,0.8692601842343018,-0.002119476309166337,0.0
3469,7.241379310344828,2.413793103448276,1.4285714285714286,0,221875.82739868952,378379.383982634,158323.4304328799,154727.39669794255,-7683.700944691623,1.4791721826579301e-06,0.0,0.0,0.0,1.4791721826579301e-06,0.0,23.76804346875747,1.185155628392485,-0.0002705255195813077,0.0
3470,7.241379310344828,2.413793103448276,1.7857142857142858,0,387870.54449372937,698889.1593501176,444220.64059942623,252491.3977469886,127590.41891707729,2.5858036299581957e-06,0.0,0.0,0.0,2.5858036299581957e-06,0.0,24.24032766724166,1.5073477838715843,0.00503950236756779,0.0
3471,7.241379310344828,2.413793103448276,2.142857142857143,0,494684.83825786546,1096213.88325869,602227.3181684698,600833.7163275785,230290.9927754124,3.297898921719103e-06,0.0,0.0,0.0,3.297898921719103e-06,0.0,23.223078698965256,1.8293285357700284,0.01234477064185966,0.0
3472,7.241379310344828,2.413793103448276,2.5,0,997397.3047828913,1290941.2736772697,660053.0203330258,141059.3767476152,523456.4389210745,6.649315365219275e-06,0.0,0.0,0.0,6.649315365219275e-06,0.0,23.734751554710762,2.140776839239174,0.052345643892107455,0.0
3473,7.241379310344828,2.413793103448276,2.857142857142857,0,387834.93005190586,901141.3101230041,533961.3522151954,495515.09121831704,556965.8175847456,2.585566200346039e-06,0.0,0.0,0.0,2.585566200346039e-06,0.0,23.752204655239638,2.4364713929128854,0.029856205796745448,0.0
3474,7.241379310344828,2.413793103448276,3.2142857142857144,0,415200.64597573853,349495.21381730394,634344.3298659719,157947.74871187052,79369.84054804957,2.7680043065049237e-06,0.0,0.0,0.0,2.7680043065049237e-06,0.0,24.40880862896919,2.7216334981572987,0.003134910150387773,0.0
3475,7.241379310344828,2.413793103448276,3.5714285714285716,0,303696.1545780716,438739.42665692035,215086.14038172713,92998.78231538166,-5314.45789510643,2.0246410305204772e-06,0.0,0.0,0.0,2.0246410305204772e-06,0.0,23.9736816069814,3.0065841998210567,-0.00018710989583215105,0.0
3476,7.241379310344828,2.413793103448276,3.928571428571429,0,181269.3989513042,418160.8749244809,306120.77443947754,209026.955588909,-16269.364877246519,1.2084626596753613e-06,0.0,0.0,0.0,1.2084626596753613e-06,0.0,23.59059069621289,3.297831612805731,-0.0005515849515997849,0.0
3477,7.241379310344828,2.413793103448276,4.285714285714286,0,223328.21722277568,330086.40932860144,234996.87668230975,74950.7516018691,12521.82135778481,1.4888547814851712e-06,0.0,0.0,0.0,1.4888547814851712e-06,0.0,23.539598860506338,3.595568616532997,0.00041956419670668993,0.0
3478,7.241379310344828,2.413793103448276,4.642857142857143,0,263902.2481217447,451156.9266029281,230044.72776270544,159006.655451612,22907.395648239097,1.7593483208116314e-06,0.0,0.0,0.0,1.7593483208116314e-06,0.0,23.807359541293092,3.897095168873857,0.0007647870599138241,0.0
3479,7.241379310344828,2.413793103448276,5.0,0,260451.55389360114,391896.8660276566,312766.4940693627,101057.32779405061,-72087.04561615219,1.7363436926240076e-06,0.0,0.0,0.0,1.7363436926240076e-06,0.0,23.264275105160056,4.200126979171378,-0.0024040566888991646,0.0
3480,7.586206896551724,2.413793103448276,0.0,0,384721.4221641973,379374.105347945,338104.00400244305,-24318.586840076518,-76100.5471954509,2.5648094810946487e-06,0.0,0.0,0.0,2.5648094810946487e-06,0.0,24.767952186511256,-0.049877559959333934,-0.0025379043897606705,0.0
3481,7.586206896551724,2.413793103448276,0.35714285714285715,0,224055.77653189097,414755.55366324313,222182.9416144811,168843.60540516474,-34005.84752266576,1.493705176879273e-06,0.0,0.0,0.0,1.493705176879273e-06,0.0,23.957570259818667,0.25421419712491156,-0.001135320336981936,0.0
3482,7.586206896551724,2.413793103448276,0.7142857142857143,0,193817.23737795313,364602.0219561878,293903.8634016069,145360.4488474053,-5253.780353982345,1.292114915853021e-06,0.0,0.0,0.0,1.292114915853021e-06,0.0,23.507710299514926,0.5597574036352913,-0.0001760365422017126,0.0
3483,7.586206896551724,2.413793103448276,1.0714285714285714,0,233203.5430035685,176583.7295331437,272137.52573341917,6333.114476789191,2886.904056072571,1.5546902866904568e-06,0.0,0.0,0.0,1.5546902866904568e-06,0.0,23.441986795768415,0.8689546935777942,9.787553761665406e-05,0.0
3484,7.586206896551724,2.413793103448276,1.4285714285714286,0,232151.29176202757,368387.29688961885,287077.35534260765,106518.08082211265,-64568.34212689216,1.5476752784135172e-06,0.0,0.0,0.0,1.5476752784135172e-06,0.0,23.370295094562678,1.1844095905420704,-0.0022733035067493993,0.0
3485,7.586206896551724,2.413793103448276,1.7857142857142858,0,612566.9087374496,726593.800978704,434309.4566333072,22629.422168360998,49746.5518884532,4.083779391582997e-06,0.0,0.0,0.0,4.083779391582997e-06,0.0,24.164278017181523,1.5059361099766568,0.0019648643538283674,0.0
3486,7.586206896551724,2.413793103448276,2.142857142857143,0,247064.61048353685,728269.8137272092,488475.3521770274,474526.0891214036,321346.5047078162,1.6470974032235789e-06,0.0,0.0,0.0,1.6470974032235789e-06,0.0,23.156735258611715,1.8272587828848277,0.017225810047421047,0.0
3487,7.586206896551724,2.413793103448276,2.5,0,305579.13779216085,976286.8395416158,652809.6263475022,692480.7153080971,502821.37257843325,2.037194251947739e-06,0.0,0.0,0.0,2.037194251947739e-06,0.0,23.899163349973986,2.1384255113179376,0.05028213725784332,0.0
3488,7.586206896551724,2.413793103448276,2.857142857142857,0,186296.0160642468,687057.621191434,507127.37557080877,494989.4345946404,281162.55359036697,1.2419734404283119e-06,0.0,0.0,0.0,1.2419734404283119e-06,0.0,24.279705932314247,2.4344016400276844,0.015071745513458199,0.0
3489,7.586206896551724,2.413793103448276,3.2142857142857144,0,389491.96771386004,795388.487502733,516044.26794112346,350463.8623158287,19161.89780224165,2.5966131180924e-06,0.0,0.0,0.0,2.5966131180924e-06,0.0,23.704649272594903,2.7202218242623712,0.0007568470278653806,0.0
3490,7.586206896551724,2.413793103448276,3.5714285714285716,0,372684.27576863486,546868.0145948286,278676.60076028656,121312.88757886885,24145.219363655313,2.4845618384575657e-06,0.0,0.0,0.0,2.4845618384575657e-06,0.0,23.4964277375138,3.005838161970642,0.0008500978969346986,0.0
3491,7.586206896551724,2.413793103448276,3.928571428571429,0,124445.51998975524,289903.0095523854,155109.08566673056,179382.5504397808,467.61019176758964,8.296367999317016e-07,0.0,0.0,0.0,8.296367999317016e-07,0.0,24.425947323604603,3.2975261221492236,1.5853522675271417e-05,0.0
3492,7.586206896551724,2.413793103448276,4.285714285714286,0,194564.3490289044,351881.7016054535,189812.52580555517,136104.8686422074,-39039.86044089902,1.297095660192696e-06,0.0,0.0,0.0,1.297095660192696e-06,0.0,23.445865987117674,3.595471689349577,-0.0013080946627020684,0.0
3493,7.586206896551724,2.413793103448276,4.642857142857143,0,237320.90974754712,294352.1228425351,20493.56826323516,148917.94895117063,32540.807170924378,1.5821393983169807e-06,0.0,0.0,0.0,1.5821393983169807e-06,0.0,23.877723659957315,3.897071339982055,0.0010864084519091545,0.0
3494,7.586206896551724,2.413793103448276,5.0,0,179444.70156614963,382553.8824568241,204769.3428551837,201493.86325775145,-46577.761282611806,1.1962980104409976e-06,0.0,0.0,0.0,1.1962980104409976e-06,0.0,24.078912872394227,4.2001224400406665,-0.0015533384342265462,0.0
3495,7.931034482758621,2.413793103448276,0.0,0,151696.75741252606,384127.9540165879,246640.02299979818,221390.86201472735,-59710.88475544837,1.011311716083507e-06,0.0,0.0,0.0,1.011311716083507e-06,0.0,23.581109144717363,-0.049882413935357584,-0.00199131967012196,0.0
3496,7.931034482758621,2.413793103448276,0.35714285714285715,0,254878.71506883242,405264.776804374,234570.66735587153,112286.31755559988,-8547.441063786655,1.699191433792216e-06,0.0,0.0,0.0,1.699191433792216e-06,0.0,23.28871645482966,0.2541887154023444,-0.0002853651467561126,0.0
3497,7.931034482758621,2.413793103448276,0.7142857142857143,0,336861.3958871505,372995.01600018976,383364.87702876935,41438.28065513647,-8747.188996250014,2.24574263924767e-06,0.0,0.0,0.0,2.24574263924767e-06,0.0,23.613388872533655,0.5596537533431323,-0.0002930889380857995,0.0
3498,7.931034482758621,2.413793103448276,1.0714285714285714,0,386476.94005559327,571919.4242226587,293686.0264072377,130637.11269531392,2853.9027039003663,2.576512933703955e-06,0.0,0.0,0.0,2.576512933703955e-06,0.0,24.06754144308944,0.8686280133351466,9.675668329271601e-05,0.0
3499,7.931034482758621,2.413793103448276,1.4285714285714286,0,186029.4934632747,332681.59503915336,337570.8500765558,149144.92288746568,-44206.8225165015,1.240196623088498e-06,0.0,0.0,0.0,1.240196623088498e-06,0.0,23.53783793725878,1.18361180566451,-0.0015564210159138602,0.0
3500,7.931034482758621,2.413793103448276,1.7857142857142858,0,152829.69897789272,394654.2838514626,222766.333289361,274100.8268010514,116765.16366582569,1.0188646598526182e-06,0.0,0.0,0.0,1.0188646598526182e-06,0.0,24.134329456392518,1.504426518895193,0.0046119318655564795,0.0
3501,7.931034482758621,2.413793103448276,2.142857142857143,0,292186.26232467464,818918.284878821,557337.1442858577,503589.6641541774,487623.0389076102,1.947908415497831e-06,0.0,0.0,0.0,1.947908415497831e-06,0.0,23.78396915808262,1.8250454668296399,0.026139079529139773,0.0
3502,7.931034482758621,2.413793103448276,2.5,0,660539.2088034364,717820.8626736713,630253.1781776305,17865.570390927864,601146.9418784917,4.4035947253562425e-06,0.0,0.0,0.0,4.4035947253562425e-06,0.0,23.613788741917766,2.135911089487053,0.06011469418784916,0.0
3503,7.931034482758621,2.413793103448276,2.857142857142857,0,339450.27315026446,623495.3379012984,482422.6708999019,236256.67584802388,363305.0553825364,2.263001821001763e-06,0.0,0.0,0.0,2.263001821001763e-06,0.0,23.558343047534237,2.432188323972497,0.019475002159981904,0.0
3504,7.931034482758621,2.413793103448276,3.2142857142857144,0,308602.1349537555,479753.1193519244,323954.1402532116,124310.32456559231,-63694.601216628864,2.05734756635837e-06,0.0,0.0,0.0,2.05734756635837e-06,0.0,24.04182065474691,2.7187122331809075,-0.002515777409909614,0.0
3505,7.931034482758621,2.413793103448276,3.5714285714285716,0,175756.08329979805,341537.4275194468,141703.31106304994,272278.89570648817,-12948.122886146191,1.1717072219986537e-06,0.0,0.0,0.0,1.1717072219986537e-06,0.0,24.493995987283277,3.0050403770930814,-0.0004558737640351906,0.0
3506,7.931034482758621,2.413793103448276,3.928571428571429,0,149306.80964965126,291558.166742728,160298.37937486614,129126.0283902721,-24849.923350578152,9.95378730997675e-07,0.0,0.0,0.0,9.95378730997675e-07,0.0,23.99617993388992,3.2971994419065758,-0.0008424940907039763,0.0
3507,7.931034482758621,2.413793103448276,4.285714285714286,0,251709.41809545053,386027.6907646169,305990.2462409193,104031.41424713607,-30009.52646843316,1.6780627873030035e-06,0.0,0.0,0.0,1.6780627873030035e-06,0.0,23.457614122293286,3.595368039057418,-0.0010055184870089635,0.0
3508,7.931034482758621,2.413793103448276,4.642857142857143,0,118612.5914119157,313364.68524071586,234097.96165654063,177002.1306440642,-22924.54354963955,7.907506094127713e-07,0.0,0.0,0.0,7.907506094127713e-07,0.0,24.49131311690605,3.897045858259488,-0.0007653595603105139,0.0
3509,7.931034482758621,2.413793103448276,5.0,0,206270.5149265673,336077.9881095826,208709.73849059173,98093.77130407865,-19441.586515997547,1.3751367661771154e-06,0.0,0.0,0.0,1.3751367661771154e-06,0.0,23.50684480380976,4.200117586064643,-0.0006483644281313593,0.0
3510,8.275862068965518,2.413793103448276,0.0,0,244801.08915991822,422550.55305697786,250522.91447281223,142288.3311298952,-52151.20867637761,1.6320072610661215e-06,0.0,0.0,0.0,1.6320072610661215e-06,0.0,24.671975394485138,-0.049887525873688505,-0.001739209326460866,0.0
3511,8.275862068965518,2.413793103448276,0.35714285714285715,0,52990.67163471826,303567.39357154473,334665.93320037506,273480.363086592,-17469.241833405158,3.5327114423145504e-07,0.0,0.0,0.0,3.5327114423145504e-07,0.0,23.731822557693143,0.2541618794654353,-0.0005832286788882751,0.0
3512,8.275862068965518,2.413793103448276,0.7142857142857143,0,80365.07217676043,340630.2858569037,252064.57625725793,272355.1169063091,-37460.04897267637,5.357671478450695e-07,0.0,0.0,0.0,5.357671478450695e-07,0.0,23.377776362780832,0.5595445946042105,-0.001255160483985266,0.0
3513,8.275862068965518,2.413793103448276,1.0714285714285714,0,245704.95523383233,397648.20231208525,299425.8994060715,118026.29311588971,29448.56612503862,1.6380330348922156e-06,0.0,0.0,0.0,1.6380330348922156e-06,0.0,24.101096585079496,0.8682839718223316,0.0009984031978703509,0.0
3514,8.275862068965518,2.413793103448276,1.4285714285714286,0,94383.29769699114,263397.8065615802,228515.27151649178,156538.3448849379,19637.050836968174,6.292219846466076e-07,0.0,0.0,0.0,6.292219846466076e-07,0.0,23.670737661526683,1.1827716228791898,0.00069137560388597,0.0
3515,8.275862068965518,2.413793103448276,1.7857142857142858,0,171058.54451716575,322619.0877462335,355468.9820696987,170367.75031367567,85436.5099459133,1.140390296781105e-06,0.0,0.0,0.0,1.140390296781105e-06,0.0,24.05261645992572,1.502836701294994,0.0033745284152486726,0.0
3516,8.275862068965518,2.413793103448276,2.142857142857143,0,860313.0968465772,977172.9621912377,704436.8421747974,13550.478662338115,433960.24149133987,5.735420645643848e-06,0.0,0.0,0.0,5.735420645643848e-06,0.0,23.881926141682772,1.8227145251179746,0.023262480153190733,0.0
3517,8.275862068965518,2.413793103448276,2.5,0,517807.90902471996,1181139.1561981707,1159770.1909246973,652977.5666852859,531610.2617441294,3.4520527268314664e-06,0.0,0.0,0.0,3.4520527268314664e-06,0.0,23.151071701318656,2.1332630398727237,0.05316102617441293,0.0
3518,8.275862068965518,2.413793103448276,2.857142857142857,0,443959.74160097505,1291210.890109123,901073.1351628195,808140.881932465,369347.11530435714,2.959731610673167e-06,0.0,0.0,0.0,2.959731610673167e-06,0.0,23.810357499385567,2.4298573822608316,0.019798887358618355,0.0
3519,8.275862068965518,2.413793103448276,3.2142857142857144,0,395060.97722524864,636344.0667464678,503690.5059075219,192028.59559177,130991.37917360707,2.633739848168324e-06,0.0,0.0,0.0,2.633739848168324e-06,0.0,24.100833431604034,2.7171224155807083,0.005173831789872803,0.0
3520,8.275862068965518,2.413793103448276,3.5714285714285716,0,346050.90385986865,501206.68903366633,314468.19171805604,101899.90054548511,-33176.76904702876,2.3070060257324576e-06,0.0,0.0,0.0,2.3070060257324576e-06,0.0,23.91112086031659,3.0042001943077614,-0.0011680780849073914,0.0
3521,8.275862068965518,2.413793103448276,3.928571428571429,0,231719.59883214234,356056.1171556266,363210.6959169244,127996.6618583417,-74951.89578895843,1.5447973255476156e-06,0.0,0.0,0.0,1.5447973255476156e-06,0.0,24.487519126382054,3.296855400393761,-0.002541115656511213,0.0
3522,8.275862068965518,2.413793103448276,4.285714285714286,0,204757.7518962849,381039.70266419597,308924.4396735184,149981.35682539735,-24836.398278909503,1.365051679308566e-06,0.0,0.0,0.0,1.365051679308566e-06,0.0,24.020272862118254,3.595258880318496,-0.0008321843280809692,0.0
3523,8.275862068965518,2.413793103448276,4.642857142857143,0,404378.3877529845,478062.3449870761,86498.05701517226,61985.088094607294,34292.754990855006,2.69585591835323e-06,0.0,0.0,0.0,2.69585591835323e-06,0.0,23.74811578989636,3.8970190223225787,0.0011448990390933932,0.0
3524,8.275862068965518,2.413793103448276,5.0,0,84579.2054709248,206177.54197869272,175355.7948246967,110509.84984480031,-34162.218061763,5.638613698061654e-07,0.0,0.0,0.0,5.638613698061654e-07,0.0,23.97893065446447,4.200112474126311,-0.0011392880390233555,0.0
3525,8.620689655172415,2.413793103448276,0.0,0,156431.71051162446,401141.9639738714,284401.23475098534,223399.98774989176,-17231.624559345135,1.0428780700774964e-06,0.0,0.0,0.0,1.0428780700774964e-06,0.0,23.48249961840717,-0.04989284972978898,-0.0005746636157497169,0.0
3526,8.620689655172415,2.413793103448276,0.35714285714285715,0,387443.2446690372,528842.4130116168,126958.61468302352,157667.35808614554,-28892.868324687104,2.582954964460248e-06,0.0,0.0,0.0,2.582954964460248e-06,0.0,23.91370274875205,0.2541339310323407,-0.0009646182463440931,0.0
3527,8.620689655172415,2.413793103448276,0.7142857142857143,0,179623.3058223954,392719.14640904596,193489.2093164789,243153.14064495667,-7071.203874626341,1.197488705482636e-06,0.0,0.0,0.0,1.197488705482636e-06,0.0,23.917749792780675,0.5594309106392427,-0.0002369323031079948,0.0
3528,8.620689655172415,2.413793103448276,1.0714285714285714,0,312950.7571022346,509431.83452475286,214493.31029783818,181140.487017948,-39912.011413675216,2.086338380681564e-06,0.0,0.0,0.0,2.086338380681564e-06,0.0,23.123544206604212,0.867925667909364,-0.0013531483896246585,0.0
3529,8.620689655172415,2.413793103448276,1.4285714285714286,0,272057.83457685664,389074.04595765454,288756.10037591704,81101.77308251368,-60416.86673004358,1.8137188971790443e-06,0.0,0.0,0.0,1.8137188971790443e-06,0.0,24.133958198097087,1.181896609927627,-0.0021271395622068454,0.0
3530,8.620689655172415,2.413793103448276,1.7857142857142858,0,391370.87244492804,633489.3900780617,409651.4359956425,181579.8432669661,39052.81436247262,2.6091391496328536e-06,0.0,0.0,0.0,2.6091391496328536e-06,0.0,24.86912926110356,1.5011809770703337,0.001542488472961073,0.0
3531,8.620689655172415,2.413793103448276,2.142857142857143,0,462873.6547885935,950964.7030805616,606619.2817446144,424783.95097697777,330734.3398001134,3.08582436525729e-06,0.0,0.0,0.0,3.08582436525729e-06,0.0,24.03012910967578,1.8202869531387795,0.017729045843321373,0.0
3532,8.620689655172415,2.413793103448276,2.5,0,664982.7789161152,618514.0987217606,961491.914748394,195043.5463176474,765413.3396237348,4.433218526107434e-06,0.0,0.0,0.0,4.433218526107434e-06,0.0,22.746843550995813,2.1305052141359866,0.07654133396237349,0.0
3533,8.620689655172415,2.413793103448276,2.857142857142857,0,535265.6585087256,723931.6084942968,611133.9683828653,141256.3929316681,362537.32283085264,3.568437723391504e-06,0.0,0.0,0.0,3.568437723391504e-06,0.0,23.553206909278575,2.4274298102816365,0.019433847783292636,0.0
3534,8.620689655172415,2.413793103448276,3.2142857142857144,0,355290.34312592965,497707.7020069648,397256.9695831953,103006.69705528901,-7545.582085966991,2.3686022875061975e-06,0.0,0.0,0.0,2.3686022875061975e-06,0.0,23.13163040098673,2.715466691356048,-0.0002980316163992011,0.0
3535,8.620689655172415,2.413793103448276,3.5714285714285716,0,311829.7181797778,518262.3550509449,191460.06171619095,223949.14269274366,-26971.32783198376,2.0788647878651853e-06,0.0,0.0,0.0,2.0788647878651853e-06,0.0,23.63017044627763,3.0033251813561983,-0.0009495987061529276,0.0
3536,8.620689655172415,2.413793103448276,3.928571428571429,0,287305.2561916326,449805.1139017502,346563.52143565513,125145.51012637139,27572.128566042637,1.915368374610884e-06,0.0,0.0,0.0,1.915368374610884e-06,0.0,24.123776552695436,3.296497096480793,0.0009347857962097405,0.0
3537,8.620689655172415,2.413793103448276,4.285714285714286,0,173885.1279478217,395842.0109484521,210299.10747240146,236614.47635349006,-15750.176438481158,1.1592341863188113e-06,0.0,0.0,0.0,1.1592341863188113e-06,0.0,23.426399087666233,3.5951451963535286,-0.0005277355375535414,0.0
3538,8.620689655172415,2.413793103448276,4.642857142857143,0,312832.5117064929,431643.92027055146,178833.32543416784,81790.00966702693,-40506.87219259529,2.0855500780432863e-06,0.0,0.0,0.0,2.0855500780432863e-06,0.0,24.732625407275663,3.8969910738894837,-0.00135236375911905,0.0
3539,8.620689655172415,2.413793103448276,5.0,0,357951.55113867775,358330.27495286986,275135.20995001704,-33892.768360253925,3050.2370804364286,2.386343674257852e-06,0.0,0.0,0.0,2.386343674257852e-06,0.0,22.354646781948347,4.200107150270211,0.0001017234482738796,0.0
3540,8.965517241379311,2.413793103448276,0.0,0,305894.11361650925,477647.1128612228,210488.8742509782,143965.356386488,-30416.959016916582,2.0392940907767284e-06,0.0,0.0,0.0,2.0392940907767284e-06,0.0,23.523283622587915,-0.04989834847740244,-0.001014386054464764,0.0
3541,8.965517241379311,2.413793103448276,0.35714285714285715,0,138299.70281926816,385832.51945829514,229094.153313893,280975.2025581818,18416.06271114681,9.219980187951211e-07,0.0,0.0,0.0,9.219980187951211e-07,0.0,23.84170489642067,0.2541050644783095,0.0006148392716624358,0.0
3542,8.965517241379311,2.413793103448276,0.7142857142857143,0,202994.26850717393,390856.70587291697,290442.6352931096,157225.47951499268,14029.8673116556,1.3532951233811596e-06,0.0,0.0,0.0,1.3532951233811596e-06,0.0,23.04708618046165,0.5593134920953795,0.00047009375396149045,0.0
3543,8.965517241379311,2.413793103448276,1.0714285714285714,0,285839.2305145252,376931.2918793032,252660.5574383581,49990.988673364256,-45419.38657336579,1.9055948700968348e-06,0.0,0.0,0.0,1.9055948700968348e-06,0.0,23.117625457554812,0.8675555935217135,-0.001539866511925073,0.0
3544,8.965517241379311,2.413793103448276,1.4285714285714286,0,497157.6086214092,525933.182569641,537698.0988097752,34762.446484545304,88388.8343959477,3.3143840574760614e-06,0.0,0.0,0.0,3.3143840574760614e-06,0.0,24.044420327770567,1.1809928523338182,0.003111968506097237,0.0
3545,8.965517241379311,2.413793103448276,1.7857142857142858,0,169970.88251619463,606852.6431504866,453956.0178484882,423834.78803176706,61656.61744700927,1.1331392167746309e-06,0.0,0.0,0.0,1.1331392167746309e-06,0.0,24.63521054499993,1.4994708614216261,0.0024352821492212894,0.0
3546,8.965517241379311,2.413793103448276,2.142857142857143,0,820239.6767165478,1173555.6310632466,808594.9498241857,234176.41798966943,108769.42238759415,5.468264511443652e-06,0.0,0.0,0.0,5.468264511443652e-06,0.0,24.69876238132176,1.8177796341250487,0.005830595265755291,0.0
3547,8.965517241379311,2.413793103448276,2.5,0,500216.69550052634,893650.9420190761,360040.1445338184,818317.1601360402,710530.117744908,3.334777970003509e-06,0.0,0.0,0.0,3.334777970003509e-06,0.0,23.507189154625106,2.1276567923526004,0.07105301177449079,0.0
3548,8.965517241379311,2.413793103448276,2.857142857142857,0,246324.14598256478,766032.1866959005,518273.34375673917,521168.2550478434,115200.5913903412,1.6421609732170985e-06,0.0,0.0,0.0,1.6421609732170985e-06,0.0,24.36088190500201,2.424922491267906,0.00617533869380319,0.0
3549,8.965517241379311,2.413793103448276,3.2142857142857144,0,530015.0409866038,753784.630701126,319819.0407793114,163075.5405121602,138711.22180735657,3.533433606577359e-06,0.0,0.0,0.0,3.533433606577359e-06,0.0,23.655561184898648,2.713756575707341,0.005478746261979958,0.0
3550,8.965517241379311,2.413793103448276,3.5714285714285716,0,196551.95861457128,454414.64965466165,235524.29192662032,293027.86025061534,8454.707555716546,1.3103463907638085e-06,0.0,0.0,0.0,1.3103463907638085e-06,0.0,24.15303463981017,3.00242142376239,0.00029767089725145753,0.0
3551,8.965517241379311,2.413793103448276,3.928571428571429,0,254899.26065482662,361939.82663426513,311736.75606974424,85674.2575776652,-5564.031273818119,1.6993284043655107e-06,0.0,0.0,0.0,1.6993284043655107e-06,0.0,23.594097420887326,3.2961270220931427,-0.0001886389508149055,0.0
3552,8.965517241379311,2.413793103448276,4.285714285714286,0,371355.90138091973,455166.16127472115,350494.99255830346,42708.145901600656,-3265.346285751095,2.4757060092061318e-06,0.0,0.0,0.0,2.4757060092061318e-06,0.0,23.136813063802485,3.5950277778096655,-0.00010941079194510225,0.0
3553,8.965517241379311,2.413793103448276,4.642857142857143,0,232859.68291635197,338377.51690590486,296156.1445405839,87295.85708831873,19325.011285401422,1.552397886109013e-06,0.0,0.0,0.0,1.552397886109013e-06,0.0,24.509803595411604,3.8969622073354526,0.0006451854584744003,0.0
3554,8.965517241379311,2.413793103448276,5.0,0,141066.09502900607,369660.6372589332,252100.28556125565,213236.63954577298,-21762.955078820916,9.404406335267072e-07,0.0,0.0,0.0,9.404406335267072e-07,0.0,24.644882819691784,4.200101651522598,-0.0007257805793018729,0.0
3555,9.310344827586208,2.413793103448276,0.0,0,274062.657663753,515268.29021177307,231024.65330304974,252670.30613368363,-3820.3519278425233,1.8270843844250201e-06,0.0,0.0,0.0,1.8270843844250201e-06,0.0,23.35340992009962,-0.0499039923898561,-0.00012740628399425966,0.0
3556,9.310344827586208,2.413793103448276,0.35714285714285715,0,346967.95808893116,526638.4786861448,371562.35875309305,129178.06609279073,1343.9284848970024,2.3131197205928742e-06,0.0,0.0,0.0,2.3131197205928742e-06,0.0,24.036853923323868,0.2540754358582593,4.486844032738517e-05,0.0
3557,9.310344827586208,2.413793103448276,0.7142857142857143,0,485009.3638002382,531006.6264128062,450120.86440103874,10639.581500015616,-119809.23638606962,3.2333957586682547e-06,0.0,0.0,0.0,3.2333957586682547e-06,0.0,23.500770987546336,0.5591929737467327,-0.004014405299841771,0.0
3558,9.310344827586208,2.413793103448276,1.0714285714285714,0,320400.6650162944,392706.9469650702,302575.17695031775,36893.92332502769,21463.450039699575,2.1360044334419626e-06,0.0,0.0,0.0,2.1360044334419626e-06,0.0,24.66846444996758,0.8671757493113467,0.0007276815131160638,0.0
3559,9.310344827586208,2.413793103448276,1.4285714285714286,0,451542.7467991546,602704.9866923597,429426.0691379376,90188.00475232507,38876.49232435101,3.0102849786610306e-06,0.0,0.0,0.0,3.0102849786610306e-06,0.0,22.836289692280133,1.1800652358841561,0.0013687522928400322,0.0
3560,9.310344827586208,2.413793103448276,1.7857142857142858,0,449812.2667576482,561337.9675279803,532560.9919825197,97828.12690671795,98437.2273280628,2.998748445050988e-06,0.0,0.0,0.0,2.998748445050988e-06,0.0,23.498335669846963,1.4977155993718982,0.0038880242293035084,0.0
3561,9.310344827586208,2.413793103448276,2.142857142857143,0,392952.09460985207,840309.8429116668,873652.0414768083,465091.19748993666,417612.3023929392,2.619680630732347e-06,0.0,0.0,0.0,2.619680630732347e-06,0.0,22.868585649544208,1.8152061228454521,0.022386147317917146,0.0
3562,9.310344827586208,2.413793103448276,2.5,0,355330.34057931474,640022.1642071485,564150.5641485747,951288.7069028578,879451.4298573686,2.3688689371954314e-06,0.0,0.0,0.0,2.3688689371954314e-06,0.0,22.803605969594713,2.1247331733202994,0.08794514298573686,0.0
3563,9.310344827586208,2.413793103448276,2.857142857142857,0,774735.9915870031,1369934.9560699349,618333.4164427532,573970.8836193401,373907.06815353024,5.1649066105800206e-06,0.0,0.0,0.0,5.1649066105800206e-06,0.0,23.54373764997611,2.422348979988309,0.02004332406620437,0.0
3564,9.310344827586208,2.413793103448276,3.2142857142857144,0,436603.8821207947,573112.3451459602,539780.1617891612,120797.68633178974,66424.15884748842,2.9106925474719643e-06,0.0,0.0,0.0,2.9106925474719643e-06,0.0,23.38120391017338,2.7120013136576127,0.0026235881080786463,0.0
3565,9.310344827586208,2.413793103448276,3.5714285714285716,0,337606.3696188025,471417.61715510924,455846.127644546,126294.9379514866,-29573.22866870681,2.2507091307920167e-06,0.0,0.0,0.0,2.2507091307920167e-06,0.0,23.105498142235618,3.0014938073127277,-0.0010412056779520874,0.0
3566,9.310344827586208,2.413793103448276,3.928571428571429,0,186867.30097783371,340416.88392340386,223233.44629274934,124916.21178310804,-82918.84892259308,1.2457820065188915e-06,0.0,0.0,0.0,1.2457820065188915e-06,0.0,24.034484749474288,3.295747177882776,-0.0028112215574956747,0.0
3567,9.310344827586208,2.413793103448276,4.285714285714286,0,311134.7419642672,460131.96228030336,118499.80267267041,193032.81907206587,15071.11720356284,2.074231613095115e-06,0.0,0.0,0.0,2.074231613095115e-06,0.0,24.26999777166888,3.5949072594610185,0.0005049825422604376,0.0
3568,9.310344827586208,2.413793103448276,4.642857142857143,0,114835.96755541665,372429.46016727615,241748.74506132025,287615.72414686996,-25336.242721564657,7.655731170361109e-07,0.0,0.0,0.0,7.655731170361109e-07,0.0,23.88179250414514,3.8969325787154023,-0.0008458766276985296,0.0
3569,9.310344827586208,2.413793103448276,5.0,0,214603.04971952658,297537.5619905624,363157.4558596531,123405.50957413374,-80908.98974247325,1.4306869981301773e-06,0.0,0.0,0.0,1.4306869981301773e-06,0.0,22.691712087078887,4.200096007610144,-0.0026982628615159097,0.0
3570,9.655172413793103,2.413793103448276,0.0,0,258903.12109180714,460949.77964629704,162308.4663279674,299761.0736231289,-6784.570356301515,1.7260208072787143e-06,0.0,0.0,0.0,1.7260208072787143e-06,0.0,23.648226552962775,-0.04990975756115692,-0.00022626106545166883,0.0
3571,9.655172413793103,2.413793103448276,0.35714285714285715,0,134040.3870172668,302149.70971388835,196821.32455415104,347700.963024522,-7969.971395655988,8.936025801151119e-07,0.0,0.0,0.0,8.936025801151119e-07,0.0,23.64807648431176,0.2540451706705197,-0.0002660857255394535,0.0
3572,9.655172413793103,2.413793103448276,0.7142857142857143,0,195605.44816962388,353798.77299182856,310733.98571878305,140249.29827530155,-13387.869541697046,1.3040363211308258e-06,0.0,0.0,0.0,1.3040363211308258e-06,0.0,23.06682505248113,0.5590698660744319,-0.00044858256394018524,0.0
3573,9.655172413793103,2.413793103448276,1.0714285714285714,0,137721.8174263621,253339.82876263966,296327.8274909459,142239.24690560726,2499.058383848821,9.181454495090807e-07,0.0,0.0,0.0,9.181454495090807e-07,0.0,23.66561081867137,0.8667877441893026,8.472629436371587e-05,0.0
3574,9.655172413793103,2.413793103448276,1.4285714285714286,0,228078.44668118254,363903.7293866165,416659.4433829104,166825.98940617588,-77352.3867664359,1.5205229778745502e-06,0.0,0.0,0.0,1.5205229778745502e-06,0.0,23.24393464153396,1.179117689695645,-0.0027234004513542634,0.0
3575,9.655172413793103,2.413793103448276,1.7857142857142858,0,439803.5499718375,754883.116699152,331087.4122280491,300652.71769839246,142893.92852353508,2.932023666478917e-06,0.0,0.0,0.0,2.932023666478917e-06,0.0,23.09198407573183,1.4959226257073368,0.0056439527138274345,0.0
3576,9.655172413793103,2.413793103448276,2.142857142857143,0,317138.63200807467,655584.458562269,685725.3834648313,354592.3395578097,444923.95036945754,2.114257546720498e-06,0.0,0.0,0.0,2.114257546720498e-06,0.0,22.915528256013697,1.8125773199550328,0.02385019081374825,0.0
3577,9.655172413793103,2.413793103448276,2.5,0,404456.02033023915,894213.6678408567,1193143.7426246856,732929.1594991118,880244.9147982518,2.696373468868261e-06,0.0,0.0,0.0,2.696373468868261e-06,0.0,23.928793250205864,2.1217467406500674,0.08802449147982519,0.0
3578,9.655172413793103,2.413793103448276,2.857142857142857,0,855132.3390782514,1079363.5863703038,498276.8429233171,97441.18344896342,338217.81567020674,5.700882260521676e-06,0.0,0.0,0.0,5.700882260521676e-06,0.0,24.163072115101276,2.4197201770978896,0.01813019828140343,0.0
3579,9.655172413793103,2.413793103448276,3.2142857142857144,0,478477.6200897108,649616.0985601757,725493.0777921677,213610.66117247587,101934.84035158584,3.189850800598072e-06,0.0,0.0,0.0,3.189850800598072e-06,0.0,23.45043087046711,2.710208339993051,0.004026171194118599,0.0
3580,9.655172413793103,2.413793103448276,3.5714285714285716,0,469327.2619095974,711520.8064291122,247543.52959261485,237020.53178261773,-93007.59406480452,3.1288484127306492e-06,0.0,0.0,0.0,3.1288484127306492e-06,0.0,24.01818628140223,3.0005462611242164,-0.003274584460079921,0.0
3581,9.655172413793103,2.413793103448276,3.928571428571429,0,303800.1368601842,598420.9556239144,380860.4743104453,251323.48754906928,-39930.62759285982,2.0253342457345613e-06,0.0,0.0,0.0,2.0253342457345613e-06,0.0,24.293799563139338,3.295359172760732,-0.0013537795392959573,0.0
3582,9.655172413793103,2.413793103448276,4.285714285714286,0,88231.72238152873,351205.00969231274,265782.19475040905,356577.3193193777,-61918.958902274375,5.882114825435248e-07,0.0,0.0,0.0,5.882114825435248e-07,0.0,23.60095011008002,3.594784151788718,-0.0020746964447465287,0.0
3583,9.655172413793103,2.413793103448276,4.642857142857143,0,361652.2444268127,470824.5673832901,199533.4877209045,60236.83640882455,7408.294836226297,2.411014962845418e-06,0.0,0.0,0.0,2.411014962845418e-06,0.0,23.50132664537265,3.896902313527663,0.00024733357356613363,0.0
3584,9.655172413793103,2.413793103448276,5.0,0,326166.1903012049,487007.50854335213,254385.2556351312,114182.1538590525,-50377.075257047865,2.1744412686746995e-06,0.0,0.0,0.0,2.1744412686746995e-06,0.0,23.779581190556247,4.2000902424388435,-0.001680043115981801,0.0
3585,10.0,2.413793103448276,0.0,0,403679.4537341648,394864.8965966127,362792.2488327195,-23894.173496885276,-23425.296862202445,2.6911963582277653e-06,0.0,0.0,0.0,2.6911963582277653e-06,0.0,22.97276722067323,-0.04991562469392928,-0.0007812186104961974,0.0
3586,10.0,2.413793103448276,0.35714285714285715,0,234021.333572823,314379.3079977532,313364.4856274446,79852.21351892797,-3989.995904255434,1.56014222381882e-06,0.0,0.0,0.0,1.56014222381882e-06,0.0,23.669820013405193,0.25401437021974665,-0.00013321013368528794,0.0
3587,10.0,2.413793103448276,0.7142857142857143,0,412462.1995265792,448867.0963870859,415638.1317922981,20795.516724398847,-22152.620870391107,2.7497479968438614e-06,0.0,0.0,0.0,2.7497479968438614e-06,0.0,23.476660078905482,0.558944581148625,-0.0007422599568276979,0.0
3588,10.0,2.413793103448276,1.0714285714285714,0,315615.7007216377,447563.48771547875,457631.32630816736,137102.16217988578,-64658.94552279388,2.1041046714775847e-06,0.0,0.0,0.0,2.1041046714775847e-06,0.0,22.752499097464362,0.8663928768993978,-0.0021921508064867644,0.0
3589,10.0,2.413793103448276,1.4285714285714286,0,276244.964746124,491786.9799388855,249648.6763134948,190889.9604703375,90874.99763013616,1.8416330983074934e-06,0.0,0.0,0.0,1.8416330983074934e-06,0.0,22.76308634535432,1.1781533854268094,0.0031995006218750416,0.0
3590,10.0,2.413793103448276,1.7857142857142858,0,477227.22501160344,840005.6015745683,346313.25818716415,381152.9987218902,83637.72694766296,3.1815148334106897e-06,0.0,0.0,0.0,3.1815148334106897e-06,0.0,22.92266574217178,1.4940979419297968,0.003303480986645787,0.0
3591,10.0,2.413793103448276,2.142857142857143,0,535196.4095462315,971724.1771099481,502000.28866878763,389076.6692701101,610771.8583451246,3.5679760636415432e-06,0.0,0.0,0.0,3.5679760636415432e-06,0.0,23.676375180336574,1.8099020246713888,0.03274048374582357,0.0
3592,10.0,2.413793103448276,2.5,0,354503.76185652736,1035381.5802606205,699798.0093093968,664585.6880503215,626017.4410967578,2.363358412376849e-06,0.0,0.0,0.0,2.363358412376849e-06,0.0,23.25611362130185,2.11870749062995,0.06260174410967577,0.0
3593,10.0,2.413793103448276,2.857142857142857,0,635092.600919716,1168346.3244265665,1052892.8857663155,483446.9898069082,378570.2819132164,4.233950672798106e-06,0.0,0.0,0.0,4.233950672798106e-06,0.0,23.417005107245078,2.417044881814246,0.02029329608475149,0.0
3594,10.0,2.413793103448276,3.2142857142857144,0,606274.3632747125,831308.6424893943,626704.9246859864,149203.71998770768,81452.67724222729,4.041829088498083e-06,0.0,0.0,0.0,4.041829088498083e-06,0.0,24.117415958372654,2.7083836562155112,0.0032171769893922547,0.0
3595,10.0,2.413793103448276,3.5714285714285716,0,341135.5264277464,411958.63689011685,318392.1961850181,33803.36238774922,84754.03209151051,2.2742368428516427e-06,0.0,0.0,0.0,2.2742368428516427e-06,0.0,23.660398988340713,2.9995819568553808,0.002983995438292908,0.0
3596,10.0,2.413793103448276,3.928571428571429,0,277799.11698387173,549639.9598217484,323483.1512792395,239553.50277239288,72757.6621449734,1.8519941132258115e-06,0.0,0.0,0.0,1.8519941132258115e-06,0.0,23.122470512963886,3.294964305470827,0.002466723922878834,0.0
3597,10.0,2.413793103448276,4.285714285714286,0,135901.84832945577,290639.83473764005,441361.8877403838,328166.22851526295,-23350.402321700512,9.060123221963718e-07,0.0,0.0,0.0,9.060123221963718e-07,0.0,22.954912735808758,3.5946588668629107,-0.0007823935921902861,0.0
3598,10.0,2.413793103448276,4.642857142857143,0,83837.72702075193,396680.29893111094,485143.9178640687,406862.0633760418,-36536.2984668769,5.589181801383463e-07,0.0,0.0,0.0,5.589181801383463e-07,0.0,23.60574872679459,3.89687151307689,-0.001219802054921276,0.0
3599,10.0,2.413793103448276,5.0,0,140501.9096290553,425312.2037651603,337181.5508024302,263282.78268004156,-4052.4376110745493,9.366793975270353e-07,0.0,0.0,0.0,9.366793975270353e-07,0.0,22.972396174922252,4.200084375306071,-0.00013514619252293807,0.0
3600,0.0,2.7586206896551726,0.0,0,284199.4955630288,391389.84616010677,75404.60059641674,310106.7189953032,50020.55398630959,1.8946633037535252e-06,0.0,0.0,0.0,1.8946633037535252e-06,0.0,24.060972188427918,-0.04991273181431152,0.0016681533605017796,0.0
3601,0.0,2.7586206896551726,0.35714285714285715,0,156484.67488912743,397851.26114568504,340648.4915008972,220813.5740455804,2281.9705097079227,1.0432311659275162e-06,0.0,0.0,0.0,1.0432311659275162e-06,0.0,23.562079846377884,0.25402955685344253,7.618594203063537e-05,0.0
3602,0.0,2.7586206896551726,0.7142857142857143,0,356364.64454761654,618360.826241733,399104.17571779684,207168.8248111696,10503.987769131341,2.3757642969841103e-06,0.0,0.0,0.0,2.3757642969841103e-06,0.0,23.50851457960537,0.5590063547989481,0.00035195336721782864,0.0
3603,0.0,2.7586206896551726,1.0714285714285714,0,172688.18654054386,384697.207287655,345339.9906948553,195727.52746882587,51576.02774077407,1.1512545769369591e-06,0.0,0.0,0.0,1.1512545769369591e-06,0.0,22.971181567553508,0.8665875722606593,0.0017485968862183856,0.0
3604,0.0,2.7586206896551726,1.4285714285714286,0,519785.4656850058,801776.3227864136,455398.28218146245,204095.11165189874,57673.11072508392,3.465236437900039e-06,0.0,0.0,0.0,3.465236437900039e-06,0.0,23.76308315399671,1.1786288504065299,0.0020305381946902137,0.0
3605,0.0,2.7586206896551726,1.7857142857142858,0,379145.1595925655,839204.5266900363,595326.6960875733,402394.59835656453,157190.3528162965,2.52763439728377e-06,0.0,0.0,0.0,2.52763439728377e-06,0.0,24.02235519779346,1.4949976301955474,0.006208625709516469,0.0
3606,0.0,2.7586206896551726,2.142857142857143,0,752549.3245410512,1164452.3954655053,518041.831649235,338310.215818458,502370.74966894754,5.016995496940341e-06,0.0,0.0,0.0,5.016995496940341e-06,0.0,23.394731959292596,1.811221119959975,0.02692963197171291,0.0
3607,0.0,2.7586206896551726,2.5,0,890460.6261554703,1473491.3662568973,703284.5261275917,498467.44790733594,958170.8673422176,5.936404174369802e-06,0.0,0.0,0.0,5.936404174369802e-06,0.0,23.931715477943825,2.12020603937217,0.09581708673422176,0.0
3608,0.0,2.7586206896551726,2.857142857142857,0,1347878.5827366253,1721945.6916421412,726939.6836245947,187982.86843783676,292317.51031706354,8.985857218244169e-06,0.0,0.0,0.0,8.985857218244169e-06,0.0,23.269919323457305,2.418363977102832,0.01566970803318746,0.0
3609,0.0,2.7586206896551726,3.2142857142857144,0,289335.1246679091,618377.1361369046,704658.3431524707,381997.6520775375,254875.59640267142,1.928900831119394e-06,0.0,0.0,0.0,1.928900831119394e-06,0.0,23.445932063585243,2.709283344481262,0.010066948462182675,0.0
3610,0.0,2.7586206896551726,3.5714285714285716,0,266522.8321781619,418016.983086205,294595.36344059196,112155.09723605661,63897.707531745764,1.776818881187746e-06,0.0,0.0,0.0,1.776818881187746e-06,0.0,24.524823488815194,3.0000574218351015,0.0022496919979716513,0.0
3611,0.0,2.7586206896551726,3.928571428571429,0,193029.0076686763,393599.7821673083,366782.88289346884,188564.51228709266,-7134.609356891264,1.2868600511245087e-06,0.0,0.0,0.0,1.2868600511245087e-06,0.0,23.300801703172503,3.2951590008320886,-0.00024188671079029058,0.0
3612,0.0,2.7586206896551726,4.285714285714286,0,197339.96910508722,452866.60800079297,342312.4725547402,225031.14216794222,49940.548667365285,1.3155997940339148e-06,0.0,0.0,0.0,1.3155997940339148e-06,0.0,23.76111915424414,3.5947206405132337,0.0016733401304825225,0.0
3613,0.0,2.7586206896551726,4.642857142857143,0,200679.95384825053,293725.78352066333,456274.54089949786,231976.14330946535,-15584.369554397741,1.337866358988337e-06,0.0,0.0,0.0,1.337866358988337e-06,0.0,23.301463900809473,3.8968866997105858,-0.0005203002713682365,0.0
3614,0.0,2.7586206896551726,5.0,0,179202.96390454128,450456.7724839436,310178.9208430956,248578.3479304384,21293.70068427211,1.1946864260302751e-06,0.0,0.0,0.0,1.1946864260302751e-06,0.0,23.64096633013928,4.200087268185689,0.0007101312465213712,0.0
3615,0.3448275862068966,2.7586206896551726,0.0,0,414505.6849368087,563043.949841034,146805.22808231934,150293.31636035503,24897.701198478648,2.763371232912058e-06,0.0,0.0,0.0,2.763371232912058e-06,0.0,23.871874380302597,-0.04990669465504395,0.0008303223497760301,0.0
3616,0.3448275862068966,2.7586206896551726,0.35714285714285715,0,196155.39916064346,433408.90195211355,348893.11569485144,209162.67945904506,36268.22048316246,1.3077026610709564e-06,0.0,0.0,0.0,1.3077026610709564e-06,0.0,23.07813077185998,0.2540612498854642,0.0012108519945939968,0.0
3617,0.3448275862068966,2.7586206896551726,0.7142857142857143,0,316259.6392325732,397309.9349013057,475866.9363565924,127732.87464731006,-19392.99236594481,2.1083975948838212e-06,0.0,0.0,0.0,2.1083975948838212e-06,0.0,23.180686860321416,0.559135270417576,-0.0006497940699895132,0.0
3618,0.3448275862068966,2.7586206896551726,1.0714285714285714,0,371348.6450754211,381029.7017287825,366294.3726407274,2532.721774545025,38686.64622400625,2.4756576338361408e-06,0.0,0.0,0.0,2.4756576338361408e-06,0.0,23.82184844453466,0.8669938826018773,0.001311604481553552,0.0
3619,0.3448275862068966,2.7586206896551726,1.4285714285714286,0,331551.5672198786,596060.4702057241,274089.0902522072,255694.5566978342,-15976.532028424248,2.2103437814658573e-06,0.0,0.0,0.0,2.2103437814658573e-06,0.0,23.623563954942163,1.1796210997179455,-0.0005624971168461236,0.0
3620,0.3448275862068966,2.7586206896551726,1.7857142857142858,0,263289.28036668064,604236.6942583896,350028.3886892063,332720.463756115,129147.22884309303,1.7552618691112042e-06,0.0,0.0,0.0,1.7552618691112042e-06,0.0,24.133722210011094,1.4968751923720598,0.00510099246513623,0.0
3621,0.3448275862068966,2.7586206896551726,2.142857142857143,0,876373.8784887727,1468349.856582992,546263.010700156,646268.9544446956,402532.2852363233,5.8424925232584844e-06,0.0,0.0,0.0,5.8424925232584844e-06,0.0,23.68717922710854,1.8139739439272835,0.02157778155931676,0.0
3622,0.3448275862068966,2.7586206896551726,2.5,0,1115552.2116351996,1749636.0678346383,1388762.9242999412,498319.1724126228,497892.4025713154,7.437014744234664e-06,0.0,0.0,0.0,7.437014744234664e-06,0.0,24.487039186152764,2.123333365297339,0.04978924025713154,0.0
3623,0.3448275862068966,2.7586206896551726,2.857142857142857,0,905708.2870762493,1127417.8956089297,680444.6239631709,85109.7455936662,325442.9609267798,6.038055247174995e-06,0.0,0.0,0.0,6.038055247174995e-06,0.0,23.910098578096733,2.4211168010701405,0.017445400973918303,0.0
3624,0.3448275862068966,2.7586206896551726,3.2142857142857144,0,396133.5951134587,722114.2490921862,410725.0340028908,276248.3253874673,137626.23724141542,2.6408906340897246e-06,0.0,0.0,0.0,2.6408906340897246e-06,0.0,24.50574973405304,2.711160906657774,0.005435892085818121,0.0
3625,0.3448275862068966,2.7586206896551726,3.5714285714285716,0,297406.52276922297,609414.3914603809,337673.96334685467,291696.7287490148,-8991.193787934153,1.98271015179482e-06,0.0,0.0,0.0,1.98271015179482e-06,0.0,24.415919766337357,3.001049671146517,-0.00031655934928304693,0.0
3626,0.3448275862068966,2.7586206896551726,3.928571428571429,0,288883.0680141632,529982.7225994738,276790.8189336598,215307.4738627435,53041.6272672217,1.9258871200944212e-06,0.0,0.0,0.0,1.9258871200944212e-06,0.0,23.254892589490233,3.2955653111733065,0.0017982855280282988,0.0
3627,0.3448275862068966,2.7586206896551726,4.285714285714286,0,242976.44106087447,353985.5129259292,427723.24156427704,156419.71376281933,-51196.681030566826,1.6198429404058298e-06,0.0,0.0,0.0,1.6198429404058298e-06,0.0,24.320825986411627,3.594849556131862,-0.001715428909012834,0.0
3628,0.3448275862068966,2.7586206896551726,4.642857142857143,0,301507.64474281704,376369.1513156357,209117.14017346135,28306.13355632579,29284.50491188998,2.0100509649521138e-06,0.0,0.0,0.0,2.0100509649521138e-06,0.0,24.05549855846193,3.8969183927426077,0.0009776934382463465,0.0
3629,0.3448275862068966,2.7586206896551726,5.0,0,279335.3950901112,309354.6643127757,393723.656593833,81928.94587259219,-1999.1469171957006,1.862235967267408e-06,0.0,0.0,0.0,1.862235967267408e-06,0.0,24.02525341268067,4.200093305344956,-6.667026616637483e-05,0.0
3630,0.6896551724137931,2.7586206896551726,0.0,0,203258.72625409186,429593.7512955893,287670.4474788149,196744.97304994665,-9799.973642635696,1.355058175027279e-06,0.0,0.0,0.0,1.355058175027279e-06,0.0,24.204425962891513,-0.04990074139236876,-0.0003268228290567502,0.0
3631,0.6896551724137931,2.7586206896551726,0.35714285714285715,0,391038.69964617566,450138.764726861,373911.1061936101,26598.843093779946,-46800.36212435308,2.6069246643078377e-06,0.0,0.0,0.0,2.6069246643078377e-06,0.0,23.462065796736976,0.2540925024889215,-0.0015624784197036234,0.0
3632,0.6896551724137931,2.7586206896551726,0.7142857142857143,0,235675.7849538108,290875.87891463324,405035.9348482242,134019.7322042031,8373.865634324398,1.571171899692072e-06,0.0,0.0,0.0,1.571171899692072e-06,0.0,23.785621585249164,0.5592623945345012,0.000280580125511119,0.0
3633,0.6896551724137931,2.7586206896551726,1.0714285714285714,0,179827.26715040076,373135.8960675821,294317.979893244,167357.9262076888,-41152.97756986129,1.1988484476693383e-06,0.0,0.0,0.0,1.1988484476693383e-06,0.0,23.41585200031191,0.8673945465700962,-0.0013952212217457308,0.0
3634,0.6896551724137931,2.7586206896551726,1.4285714285714286,0,46393.98346581002,348511.5287918712,303877.41865388176,300538.11269937543,-24346.986392370287,3.0929322310540015e-07,0.0,0.0,0.0,3.0929322310540015e-07,0.0,24.785782870940526,1.1805995600381587,-0.0008572016521003918,0.0
3635,0.6896551724137931,2.7586206896551726,1.7857142857142858,0,178260.88077793433,560528.9019669642,487405.201491036,357333.8169369726,62371.29090601078,1.1884058718528956e-06,0.0,0.0,0.0,1.1884058718528956e-06,0.0,23.259170550397474,1.4987266626299025,0.002463509963027722,0.0
3636,0.6896551724137931,2.7586206896551726,2.142857142857143,0,485547.122979578,1124061.017857518,689546.7088166613,599958.6335178768,344839.7299951674,3.2369808198638534e-06,0.0,0.0,0.0,3.2369808198638534e-06,0.0,23.00111071280623,1.8166885127252215,0.01848516663064931,0.0
3637,0.6896551724137931,2.7586206896551726,2.5,0,531266.9133444083,1016546.7436638596,439123.84224374057,548442.9076606286,809825.6249901295,3.541779422296055e-06,0.0,0.0,0.0,3.541779422296055e-06,0.0,23.236297242869803,2.126417231711706,0.08098256249901295,0.0
3638,0.6896551724137931,2.7586206896551726,2.857142857142857,0,756080.2832787201,951565.8665146715,1023109.1293800586,233800.1293207254,119620.39213631355,5.040535221858134e-06,0.0,0.0,0.0,5.040535221858134e-06,0.0,23.62229998650491,2.4238313698680787,0.006412262534523956,0.0
3639,0.6896551724137931,2.7586206896551726,3.2142857142857144,0,300244.7517569943,460960.00349667104,511952.7615455946,189477.06518145333,59794.45694995839,2.001631678379962e-06,0.0,0.0,0.0,2.001631678379962e-06,0.0,23.623632819982237,2.713012376915617,0.002361731467960668,0.0
3640,0.6896551724137931,2.7586206896551726,3.5714285714285716,0,348649.9408485865,494895.0315820017,222965.64208852715,101835.82775153752,-11309.941214183995,2.324332938990577e-06,0.0,0.0,0.0,2.324332938990577e-06,0.0,24.10434629153692,3.0020281314667305,-0.0003981971377367247,0.0
3641,0.6896551724137931,2.7586206896551726,3.928571428571429,0,255360.88935674902,406873.5851664353,117608.77061926958,212707.51144451465,-86.28887648509635,1.7024059290449933e-06,0.0,0.0,0.0,1.7024059290449933e-06,0.0,23.67950174568249,3.2959659751415256,-2.9254765701515775e-06,0.0
3642,0.6896551724137931,2.7586206896551726,4.285714285714286,0,241781.5390835231,340360.9375505652,93429.0838287896,104081.85828827124,-21681.17335585708,1.6118769272234873e-06,0.0,0.0,0.0,1.6118769272234873e-06,0.0,23.421342189839475,3.594976680248787,-0.0007264633333115941,0.0
3643,0.6896551724137931,2.7586206896551726,4.642857142857143,0,236072.5999264268,382169.29110204487,339233.2844323009,127575.46994669951,40666.97018113325,1.5738173328428453e-06,0.0,0.0,0.0,1.5738173328428453e-06,0.0,23.914942731673918,3.896949645346065,0.0013577087957976945,0.0
3644,0.6896551724137931,2.7586206896551726,5.0,0,224604.80376271342,411424.58741089195,228813.89816257724,160628.42799641952,-10233.914840352068,1.4973653584180895e-06,0.0,0.0,0.0,1.4973653584180895e-06,0.0,24.260626023179935,4.200099258607631,-0.0003412944893951954,0.0
3645,1.0344827586206897,2.7586206896551726,0.0,0,74563.03220200361,315959.927807713,229892.2469604115,274903.8402332109,5018.443445890254,4.970868813466907e-07,0.0,0.0,0.0,4.970868813466907e-07,0.0,23.80210285596571,-0.04989488906761649,0.0001673618669045771,0.0
3646,1.0344827586206897,2.7586206896551726,0.35714285714285715,0,88355.6500636739,266080.0810579052,301148.54560846044,200642.1915468609,33687.50473233167,5.890376670911593e-07,0.0,0.0,0.0,5.890376670911593e-07,0.0,24.1375994631731,0.2541232252026275,0.0011246921341777866,0.0
3647,1.0344827586206897,2.7586206896551726,0.7142857142857143,0,374224.8283855318,515534.6796464176,226039.79621997604,92958.59194323779,1974.9318281984306,2.4948321892368787e-06,0.0,0.0,0.0,2.4948321892368787e-06,0.0,23.749697894409675,0.5593873632544591,6.617333552146566e-05,0.0
3648,1.0344827586206897,2.7586206896551726,1.0714285714285714,0,161816.76756981335,340796.65337645955,315806.7553897184,167938.69426011143,-49276.97074973596,1.0787784504654223e-06,0.0,0.0,0.0,1.0787784504654223e-06,0.0,23.58282976261594,0.8677884172568919,-0.0016706512965352607,0.0
3649,1.0344827586206897,2.7586206896551726,1.4285714285714286,0,116169.06655162931,444700.79768867424,326073.54136780265,331156.8038018896,-13644.404640243207,7.744604436775288e-07,0.0,0.0,0.0,7.744604436775288e-07,0.0,24.066651126385985,1.1815614305054185,-0.0004803882505642651,0.0
3650,1.0344827586206897,2.7586206896551726,1.7857142857142858,0,399441.3465201185,780924.9370852562,443787.9743871687,339762.63592945924,60363.82036645613,2.6629423101341233e-06,0.0,0.0,0.0,2.6629423101341233e-06,0.0,23.836527427952717,1.5005467410993498,0.0023842198985951943,0.0
3651,1.0344827586206897,2.7586206896551726,2.142857142857143,0,1440220.0933914375,1641743.6686963062,370973.0737895257,77331.73613031527,204523.47942249366,9.60146728927625e-06,0.0,0.0,0.0,9.60146728927625e-06,0.0,24.229156544449832,1.8193570558476566,0.010963500629866382,0.0
3652,1.0344827586206897,2.7586206896551726,2.5,0,527150.6046968969,850570.2962968117,607042.6491315387,245682.8096299564,572804.0546620706,3.514337364645979e-06,0.0,0.0,0.0,3.514337364645979e-06,0.0,24.502790484848887,2.1294488109875074,0.05728040546620706,0.0
3653,1.0344827586206897,2.7586206896551726,2.857142857142857,0,759295.1512848694,1049028.1897417244,789690.2193657265,194040.66101188527,356425.21570896154,5.061967675232463e-06,0.0,0.0,0.0,5.061967675232463e-06,0.0,23.679753392355064,2.4264999129905136,0.01910620769781258,0.0
3654,1.0344827586206897,2.7586206896551726,3.2142857142857144,0,166563.19264980283,557672.4067385441,366110.1499868017,447017.69483919145,199138.63849248973,1.1104212843320188e-06,0.0,0.0,0.0,1.1104212843320188e-06,0.0,24.064602359375176,2.7148324553850642,0.00786547805607061,0.0
3655,1.0344827586206897,2.7586206896551726,3.5714285714285716,0,121871.72852714574,404610.73738216097,426754.88838255405,295329.39312808483,22528.792819904254,8.124781901809716e-07,0.0,0.0,0.0,8.124781901809716e-07,0.0,24.27989364233909,3.00299000193399,0.0007931872188954427,0.0
3656,1.0344827586206897,2.7586206896551726,3.928571428571429,0,306694.0911798588,334011.56558939983,456276.2615521784,107307.54746065612,6405.382884650094,2.044627274532392e-06,0.0,0.0,0.0,2.044627274532392e-06,0.0,23.955771339864945,3.296359845828321,0.0002171635361961203,0.0
3657,1.0344827586206897,2.7586206896551726,4.285714285714286,0,202494.32254345468,293488.7047038092,314853.76961932017,102524.017584404,64039.364820965304,1.3499621502896979e-06,0.0,0.0,0.0,1.3499621502896979e-06,0.0,24.01042336626827,3.595101648968745,0.002145744128669489,0.0
3658,1.0344827586206897,2.7586206896551726,4.642857142857143,0,221339.20228966096,374435.8406024045,377012.513262454,154396.22334606983,22194.476097658015,1.475594681931073e-06,0.0,0.0,0.0,1.475594681931073e-06,0.0,23.83178694183351,3.8969803680597708,0.0007409855044940615,0.0
3659,1.0344827586206897,2.7586206896551726,5.0,0,143181.67465784066,266160.2826673755,318647.23047149373,156628.82445573568,27514.257770966455,9.545444977189377e-07,0.0,0.0,0.0,9.545444977189377e-07,0.0,23.89253723353883,4.200105110932384,0.000917582831547847,0.0
3660,1.3793103448275863,2.7586206896551726,0.0,0,309521.6035001374,429669.32216187613,214280.7905209574,74974.12848592678,-14699.53675216368,2.0634773566675825e-06,0.0,0.0,0.0,2.0634773566675825e-06,0.0,24.044274839592262,-0.04988915924157275,-0.0004902201130689712,0.0
3661,1.3793103448275863,2.7586206896551726,0.35714285714285715,0,207900.16281260859,365306.8650511981,267396.6409098536,126529.02329845402,-45725.59609562159,1.3860010854173905e-06,0.0,0.0,0.0,1.3860010854173905e-06,0.0,23.48418288722596,0.25415330483979365,-0.0015265962459362185,0.0
3662,1.3793103448275863,2.7586206896551726,0.7142857142857143,0,356838.79552598763,393110.8674092057,399699.83785089134,39612.184122260885,9489.406746367056,2.3789253035065843e-06,0.0,0.0,0.0,2.3789253035065843e-06,0.0,22.94361639742241,0.5595097161751492,0.00031795816319383076,0.0
3663,1.3793103448275863,2.7586206896551726,1.0714285714285714,0,106996.7760223582,338633.796663758,222313.01887756074,244412.1048187515,68290.05965854705,7.133118401490547e-07,0.0,0.0,0.0,7.133118401490547e-07,0.0,23.7536889557948,0.8681740435873838,0.0023152575122453774,0.0
3664,1.3793103448275863,2.7586206896551726,1.4285714285714286,0,330236.95840897545,402119.88506571186,213582.77155053808,20802.9590047334,71119.7579344683,2.201579722726503e-06,0.0,0.0,0.0,2.201579722726503e-06,0.0,23.71770301415337,1.182503167453947,0.002503963858849928,0.0
3665,1.3793103448275863,2.7586206896551726,1.7857142857142858,0,546929.0855513555,657441.8896112957,294158.0880753095,28418.625487369307,106383.56186986077,3.6461939036757035e-06,0.0,0.0,0.0,3.6461939036757035e-06,0.0,24.61706888796753,1.5023287223559145,0.00420188456518737,0.0
3666,1.3793103448275863,2.7586206896551726,2.142857142857143,0,225131.67053380562,706650.8602353744,604690.120314633,448578.05991248856,284156.76181715936,1.5008778035587042e-06,0.0,0.0,0.0,1.5008778035587042e-06,0.0,23.95983802422638,1.8219697420072585,0.015232250331159726,0.0
3667,1.3793103448275863,2.7586206896551726,2.5,0,729493.601599925,1006177.2886450591,541134.1035352589,165410.64533969952,457283.6577691156,4.863290677332833e-06,0.0,0.0,0.0,4.863290677332833e-06,0.0,24.097496952706734,2.1324169343612813,0.045728365776911556,0.0
3668,1.3793103448275863,2.7586206896551726,2.857142857142857,0,604710.015871195,762733.6525455009,953147.4294631185,276149.21375293453,271662.84351435164,4.031400105807967e-06,0.0,0.0,0.0,4.031400105807967e-06,0.0,23.615440055802054,2.4291125991501157,0.014562512648380667,0.0
3669,1.3793103448275863,2.7586206896551726,3.2142857142857144,0,233851.77461023454,510955.9439560361,462082.0677331676,256529.52639919388,79021.30414549759,1.559011830734897e-06,0.0,0.0,0.0,1.559011830734897e-06,0.0,23.528018470874486,2.716614436641629,0.003121143834384172,0.0
3670,1.3793103448275863,2.7586206896551726,3.5714285714285716,0,147489.2725331671,250861.79015807598,388139.26712749904,232212.17747239952,-14986.258519852487,9.832618168877807e-07,0.0,0.0,0.0,9.832618168877807e-07,0.0,23.413369493901673,3.003931738882519,-0.0005276318536920366,0.0
3671,1.3793103448275863,2.7586206896551726,3.928571428571429,0,301863.3622585568,473489.0906453521,239110.09973541202,132868.7201102594,37661.49518126226,2.0124224150570456e-06,0.0,0.0,0.0,2.0124224150570456e-06,0.0,23.205318967856126,3.296745472158813,0.0012768484912268963,0.0
3672,1.3793103448275863,2.7586206896551726,4.285714285714286,0,126785.55848311647,312713.4766498447,171078.88451235616,273979.0353856716,-53975.855098113214,8.452370565541098e-07,0.0,0.0,0.0,8.452370565541098e-07,0.0,24.203374103890066,3.5952240018894353,-0.0018085497020541143,0.0
3673,1.3793103448275863,2.7586206896551726,4.642857142857143,0,294243.8785592092,445405.00041928195,158307.2137607676,144501.0762158792,-4652.411999696217,1.9616258570613943e-06,0.0,0.0,0.0,1.9616258570613943e-06,0.0,23.998209623610816,3.8970104476969367,-0.00015532557910086906,0.0
3674,1.3793103448275863,2.7586206896551726,5.0,0,232610.48075030305,438482.9766072571,187278.0342595754,230541.61146488794,-27697.427995664773,1.5507365383353537e-06,0.0,0.0,0.0,1.5507365383353537e-06,0.0,24.5882596617011,4.200110840758428,-0.000923691440939858,0.0
3675,1.7241379310344829,2.7586206896551726,0.0,0,104883.51963078194,258545.18515758982,267840.36420165695,158618.626702962,34503.58197945816,6.992234642052129e-07,0.0,0.0,0.0,6.992234642052129e-07,0.0,24.14078331332656,-0.04988357939967609,0.0011506723065109387,0.0
3676,1.7241379310344829,2.7586206896551726,0.35714285714285715,0,13243.377723741345,272353.9453501961,279894.1919195433,287645.5947832918,18890.35402990347,8.82891848249423e-08,0.0,0.0,0.0,8.82891848249423e-08,0.0,23.992097465623605,0.2541825971112195,0.0006306739771341788,0.0
3677,1.7241379310344829,2.7586206896551726,0.7142857142857143,0,285077.2329204261,528099.1206723975,286607.15428294626,213625.877246738,-29017.882433164905,1.9005148861361742e-06,0.0,0.0,0.0,1.9005148861361742e-06,0.0,22.884708157468562,0.5596288663810778,-0.0009722918244342222,0.0
3678,1.7241379310344829,2.7586206896551726,1.0714285714285714,0,339926.39598765934,485818.72947668977,144741.69761784116,147054.77420194092,30966.470874021994,2.2661759732510622e-06,0.0,0.0,0.0,2.2661759732510622e-06,0.0,24.834284193694934,0.8685495757482053,0.001049865158667113,0.0
3679,1.7241379310344829,2.7586206896551726,1.4285714285714286,0,171284.46455703574,415508.6811274559,292666.9582152747,219846.24216064918,-62598.89803703406,1.1418964303802382e-06,0.0,0.0,0.0,1.1418964303802382e-06,0.0,23.904446238366262,1.183420253459862,-0.0022039638890924583,0.0
3680,1.7241379310344829,2.7586206896551726,1.7857142857142858,0,385078.0765896383,629817.3226355162,296370.2751344113,208348.9756704924,-43913.24431973819,2.5671871772642554e-06,0.0,0.0,0.0,2.5671871772642554e-06,0.0,22.84769271020227,1.5040640584025158,-0.0017344632974418696,0.0
3681,1.7241379310344829,2.7586206896551726,2.142857142857143,0,433088.4653990752,775484.9927367802,692474.6956884136,306899.5393521615,256158.41412100627,2.8872564359938347e-06,0.0,0.0,0.0,2.8872564359938347e-06,0.0,24.007226476334047,1.8245140383933798,0.01373139623133341,0.0
3682,1.7241379310344829,2.7586206896551726,2.5,0,877550.6349882677,1134489.547006853,830988.2593588503,145475.29877542538,395447.8292937885,5.850337566588451e-06,0.0,0.0,0.0,5.850337566588451e-06,0.0,23.493618482788374,2.135307364023375,0.03954478292937885,0.0
3683,1.7241379310344829,2.7586206896551726,2.857142857142857,0,480660.642895808,760161.227760801,413168.09483119746,211522.71762162773,324723.7478697171,3.2044042859720533e-06,0.0,0.0,0.0,3.2044042859720533e-06,0.0,23.48050426807309,2.4316568955362365,0.017406847489367872,0.0
3684,1.7241379310344829,2.7586206896551726,3.2142857142857144,0,160996.74351762043,355515.00128790457,535256.3699969654,486492.03191917844,58256.00817166996,1.0733116234508029e-06,0.0,0.0,0.0,1.0733116234508029e-06,0.0,24.04179006980372,2.71834977268823,0.0023009665897952853,0.0
3685,1.7241379310344829,2.7586206896551726,3.5714285714285716,0,366473.4846319431,307624.2726973549,488294.38658052194,66565.98721884452,-11699.845776127479,2.443156564212954e-06,0.0,0.0,0.0,2.443156564212954e-06,0.0,23.61953700590584,3.0048488248884335,-0.0004119247847347191,0.0
3686,1.7241379310344829,2.7586206896551726,3.928571428571429,0,243669.24618956135,361334.27033996605,311948.96946571436,96755.14554098964,19621.67571255756,1.6244616412637423e-06,0.0,0.0,0.0,1.6244616412637423e-06,0.0,24.431352596293358,3.2971210043196346,0.0006652393089636982,0.0
3687,1.7241379310344829,2.7586206896551726,4.285714285714286,0,122806.55432878676,270243.9244922714,233100.15467557052,133153.24335749022,-25259.48334935322,8.187103621919117e-07,0.0,0.0,0.0,8.187103621919117e-07,0.0,23.865011554819862,3.5953431520953636,-0.0008463604884531144,0.0
3688,1.7241379310344829,2.7586206896551726,4.642857142857143,0,181338.89948360316,343452.88441376097,221655.8001904377,135048.75199465756,-45175.49658573343,1.2089259965573545e-06,0.0,0.0,0.0,1.2089259965573545e-06,0.0,24.127428799330573,3.8970397399683625,-0.0015082306057173252,0.0
3689,1.7241379310344829,2.7586206896551726,5.0,0,93423.36529728452,273257.24506452266,229094.12896201247,165939.89895709354,-27749.113676339864,6.228224353152301e-07,0.0,0.0,0.0,6.228224353152301e-07,0.0,24.215507166056778,4.200116420600324,-0.0009254151252063613,0.0
3690,2.0689655172413794,2.7586206896551726,0.0,0,157358.3004583518,284753.7684304807,184941.16043208493,103357.09525330896,-41196.75521426794,1.049055336389012e-06,0.0,0.0,0.0,1.049055336389012e-06,0.0,24.071684155543775,-0.04987818479782313,-0.0013738853366410003,0.0
3691,2.0689655172413794,2.7586206896551726,0.35714285714285715,0,201085.35599667236,395253.8391353541,253392.77459305373,165131.91522664574,-20655.365353473175,1.3405690399778156e-06,0.0,0.0,0.0,1.3405690399778156e-06,0.0,24.057663193844057,0.25421091693544345,-0.0006896007028779343,0.0
3692,2.0689655172413794,2.7586206896551726,0.7142857142857143,0,175152.8927148506,355484.29628466227,159979.5285207778,212877.14495741762,20192.969978846882,1.1676859514323373e-06,0.0,0.0,0.0,1.1676859514323373e-06,0.0,24.026053016819407,0.559744061028809,0.000676598634193899,0.0
3693,2.0689655172413794,2.7586206896551726,1.0714285714285714,0,204313.05231230715,348293.5945834296,112388.8238432005,227990.10273518346,-61069.74060992375,1.362087015415381e-06,0.0,0.0,0.0,1.362087015415381e-06,0.0,24.706723012889352,0.868912640961903,-0.0020704649611520175,0.0
3694,2.0689655172413794,2.7586206896551726,1.4285714285714286,0,291337.1634454912,476828.33068528544,301687.75806036394,140517.86332053508,-8678.068625830085,1.942247756303275e-06,0.0,0.0,0.0,1.942247756303275e-06,0.0,24.386653511158105,1.1843068939701935,-0.000305534929178474,0.0
3695,2.0689655172413794,2.7586206896551726,1.7857142857142858,0,295070.6486737863,636765.3395569805,409114.9971026408,303399.3318230564,116823.31842116558,1.967137657825242e-06,0.0,0.0,0.0,1.967137657825242e-06,0.0,23.624031716073127,1.5057417846223378,0.0046142288329127125,0.0
3696,2.0689655172413794,2.7586206896551726,2.142857142857143,0,842941.1627793257,1109709.1381688714,504167.7635141517,146984.25804195373,416863.7564677872,5.619607751862171e-06,0.0,0.0,0.0,5.619607751862171e-06,0.0,23.41842456222783,1.8269738690217785,0.022346021442173878,0.0
3697,2.0689655172413794,2.7586206896551726,2.5,0,589066.8212849244,919573.9932494237,449099.4087622374,258907.54244657976,515266.9412753815,3.927112141899496e-06,0.0,0.0,0.0,3.927112141899496e-06,0.0,23.581904452477023,2.138101836967185,0.051526694127538145,0.0
3698,2.0689655172413794,2.7586206896551726,2.857142857142857,0,588931.9851220653,786741.0277315204,652365.2042158191,142233.2422115807,515113.61556733644,3.926213234147102e-06,0.0,0.0,0.0,3.926213234147102e-06,0.0,24.19755298018846,2.4341167261646355,0.02761271451410743,0.0
3699,2.0689655172413794,2.7586206896551726,3.2142857142857144,0,179360.068917111,429756.180149318,291604.3933028194,227055.44934435096,102.15552502685023,1.19573379278074e-06,0.0,0.0,0.0,1.19573379278074e-06,0.0,23.436186998134968,2.720027498908052,4.034887686727685e-06,0.0
3700,2.0689655172413794,2.7586206896551726,3.5714285714285716,0,244402.8134672075,370744.1488074188,272606.96984338714,92525.92304067561,-4167.72405425643,1.6293520897813834e-06,0.0,0.0,0.0,1.6293520897813834e-06,0.0,23.66671704161405,3.005735465398765,-0.00014673602257101966,0.0
3701,2.0689655172413794,2.7586206896551726,3.928571428571429,0,360916.7815252392,416302.89478375576,367461.45495427545,33452.532535858874,-40615.65450537541,2.406111876834928e-06,0.0,0.0,0.0,2.406111876834928e-06,0.0,23.3263406642444,3.2974840695333323,-0.0013770042035182773,0.0
3702,2.0689655172413794,2.7586206896551726,4.285714285714286,0,275231.73188285885,426785.11283629853,281217.38815120305,109338.1466494214,14674.172161072624,1.8348782125523923e-06,0.0,0.0,0.0,1.8348782125523923e-06,0.0,24.468376371562332,3.595458346743095,0.0004916822464703551,0.0
3703,2.0689655172413794,2.7586206896551726,4.642857142857143,0,339276.76090986753,402488.80336991505,143893.6800501683,18328.25471521506,94580.76968355387,2.2618450727324503e-06,0.0,0.0,0.0,2.2618450727324503e-06,0.0,24.338735994497696,3.897068059792587,0.003157676668331001,0.0
3704,2.0689655172413794,2.7586206896551726,5.0,0,70664.06602436423,216439.67513904438,150230.5762097721,224634.96394680443,62239.95543659649,4.7109377349576155e-07,0.0,0.0,0.0,4.7109377349576155e-07,0.0,24.451386281226817,4.200121815202177,0.002075662553586594,0.0
3705,2.413793103448276,2.7586206896551726,0.0,0,264941.7507509683,400868.44460135803,240648.379826105,95056.66338677071,27887.921734719494,1.7662783383397887e-06,0.0,0.0,0.0,1.7662783383397887e-06,0.0,23.78479845561357,-0.04987302082862276,0.0009300442848337033,0.0
3706,2.413793103448276,2.7586206896551726,0.35714285714285715,0,63334.66155579538,208377.23707607115,140040.30174089913,196765.95908571518,-20020.188715374945,4.2223107703863585e-07,0.0,0.0,0.0,4.2223107703863585e-07,0.0,23.147544432395108,0.2542380260167138,-0.0006683946748756008,0.0
3707,2.413793103448276,2.7586206896551726,0.7142857142857143,0,290606.25221706217,389993.46555829135,99068.43825255195,99707.04092034693,-5547.389913928281,1.9373750147804143e-06,0.0,0.0,0.0,1.9373750147804143e-06,0.0,23.61423801921763,0.5598543308187114,-0.0001858744128791708,0.0
3708,2.413793103448276,2.7586206896551726,1.0714285714285714,0,242875.50849802207,315557.73461460683,274694.9454979101,54842.78469431516,38232.190083997346,1.6191700566534805e-06,0.0,0.0,0.0,1.6191700566534805e-06,0.0,23.36277223956468,0.8692601842343018,0.0012961969244741965,0.0
3709,2.413793103448276,2.7586206896551726,1.4285714285714286,0,180027.32960679018,451443.51998618175,302486.0341204623,251391.7307465016,34643.03490226,1.2001821973786011e-06,0.0,0.0,0.0,1.2001821973786011e-06,0.0,23.362244051870196,1.185155628392485,0.0012197019488742469,0.0
3710,2.413793103448276,2.7586206896551726,1.7857142857142858,0,197065.90659110807,415911.7670572452,448010.14103031164,236865.48425580715,64429.09883087598,1.3137727106073871e-06,0.0,0.0,0.0,1.3137727106073871e-06,0.0,24.614340421750416,1.5073477838715843,0.0025447882282562243,0.0
3711,2.413793103448276,2.7586206896551726,2.142857142857143,0,394614.41766654263,1036865.9085551032,632256.8312748068,653069.8837039075,328770.6955500824,2.6307627844436174e-06,0.0,0.0,0.0,2.6307627844436174e-06,0.0,23.927166954301782,1.8293285357700284,0.017623784505929514,0.0
3712,2.413793103448276,2.7586206896551726,2.5,0,386156.85024510854,698850.4122931047,679014.6753836113,303157.97152031865,674697.2779426838,2.574379001634057e-06,0.0,0.0,0.0,2.574379001634057e-06,0.0,24.200012172077628,2.140776839239174,0.06746972779426838,0.0
3713,2.413793103448276,2.7586206896551726,2.857142857142857,0,404387.116079219,727776.6059218432,476802.7908084904,261279.3645826637,426344.32367073785,2.6959141071947934e-06,0.0,0.0,0.0,2.6959141071947934e-06,0.0,24.61166157288065,2.4364713929128854,0.022854228151714184,0.0
3714,2.413793103448276,2.7586206896551726,3.2142857142857144,0,113891.30398839286,453828.51908982836,455442.1993013028,340752.62937533413,-25366.618427595502,7.59275359922619e-07,0.0,0.0,0.0,7.59275359922619e-07,0.0,23.55504274477432,2.7216334981572987,-0.0010019179708637682,0.0
3715,2.413793103448276,2.7586206896551726,3.5714285714285716,0,151357.67506531003,256948.4455854026,398192.90517385205,238426.70318940503,13961.993721753846,1.0090511671020668e-06,0.0,0.0,0.0,1.0090511671020668e-06,0.0,24.376666417995033,3.0065841998210567,0.0004915698350516692,0.0
3716,2.413793103448276,2.7586206896551726,3.928571428571429,0,178662.9760230934,347051.5539230431,204283.54131347485,146696.892300609,19911.57915050865,1.1910865068206226e-06,0.0,0.0,0.0,1.1910865068206226e-06,0.0,23.348008873519497,3.297831612805731,0.0006750679885094191,0.0
3717,2.413793103448276,2.7586206896551726,4.285714285714286,0,251964.1906143232,450030.09199359745,163932.83895621094,352776.93146529695,-17588.917519383078,1.6797612707621546e-06,0.0,0.0,0.0,1.6797612707621546e-06,0.0,24.205259161912597,3.595568616532997,-0.0005893455783389086,0.0
3718,2.413793103448276,2.7586206896551726,4.642857142857143,0,372560.21735770867,505335.42247357394,155872.27083651716,113330.41341125319,42150.97989059056,2.4837347823847243e-06,0.0,0.0,0.0,2.4837347823847243e-06,0.0,24.617564679662767,3.897095168873857,0.0014072539924672544,0.0
3719,2.413793103448276,2.7586206896551726,5.0,0,249885.88231719783,335893.49601706315,173527.79173877093,48141.07269884656,-9506.501371381486,1.6659058821146522e-06,0.0,0.0,0.0,1.6659058821146522e-06,0.0,23.51882406052168,4.200126979171378,-0.0003170357172298642,0.0
3720,2.7586206896551726,2.7586206896551726,0.0,0,287050.3428986116,395825.92477991164,239604.52067584635,64547.18755553295,42282.84682631494,1.9136689526574107e-06,0.0,0.0,0.0,1.9136689526574107e-06,0.0,24.508623005661914,-0.04986814590960637,0.0014101057945940425,0.0
3721,2.7586206896551726,2.7586206896551726,0.35714285714285715,0,239664.14338350945,338649.10731077683,88050.56924489552,111668.07411540806,-11920.499994132571,1.597760955890063e-06,0.0,0.0,0.0,1.597760955890063e-06,0.0,24.211506602416456,0.2542636176828669,-0.0003979782024638933,0.0
3722,2.7586206896551726,2.7586206896551726,0.7142857142857143,0,117329.98470388769,357053.35204658774,255778.1197579389,228481.01447288573,8425.387893226016,7.821998980259179e-07,0.0,0.0,0.0,7.821998980259179e-07,0.0,23.876649696228633,0.5599584283210141,0.00028230646344159366,0.0
3723,2.7586206896551726,2.7586206896551726,1.0714285714285714,0,175619.32568264322,311594.94086786354,277214.15577534214,121327.63257157365,8150.38775259887,1.1707955045509548e-06,0.0,0.0,0.0,1.1707955045509548e-06,0.0,23.50831331988275,0.8695882739733939,0.000276324937571723,0.0
3724,2.7586206896551726,2.7586206896551726,1.4285714285714286,0,235356.63833307577,403870.6300908524,132309.14094293446,277228.5624599834,69513.17298657843,1.5690442555538385e-06,0.0,0.0,0.0,1.5690442555538385e-06,0.0,24.23418828947705,1.1859568553972437,0.002447399680870086,0.0
3725,2.7586206896551726,2.7586206896551726,1.7857142857142858,0,340855.65230339125,616668.4570623352,280725.2169836971,271104.0998650169,99912.59822948909,2.2723710153559415e-06,0.0,0.0,0.0,2.2723710153559415e-06,0.0,24.364940403088653,1.5088638882433667,0.003946297689128188,0.0
3726,2.7586206896551726,2.7586206896551726,2.142857142857143,0,193323.99275823275,729530.6342829779,590628.3276016994,508739.53884194576,273393.29155100684,1.2888266183882183e-06,0.0,0.0,0.0,1.2888266183882183e-06,0.0,23.96403865546897,1.8315514014113343,0.01465527348050317,0.0
3727,2.7586206896551726,2.7586206896551726,2.5,0,430174.2264386214,955636.281031104,651623.8475925995,463435.7149640628,533655.5481535859,2.867828176257476e-06,0.0,0.0,0.0,2.867828176257476e-06,0.0,23.63698957631862,2.143302109808879,0.053365554815358596,0.0
3728,2.7586206896551726,2.7586206896551726,2.857142857142857,0,370895.6123224784,815332.754783495,663218.808831152,392563.2700267823,288364.5840813402,2.4726374154831892e-06,0.0,0.0,0.0,2.4726374154831892e-06,0.0,24.513456851754974,2.4386942585541913,0.015457811045137283,0.0
3729,2.7586206896551726,2.7586206896551726,3.2142857142857144,0,314032.50557524606,648843.8756310216,374051.99807557696,306549.2238753205,59682.8524011313,2.0935500371683072e-06,0.0,0.0,0.0,2.0935500371683072e-06,0.0,24.729233341703708,2.7231496025290816,0.0023573233674714688,0.0
3730,2.7586206896551726,2.7586206896551726,3.5714285714285716,0,233497.34877438858,305830.7101915773,370418.08978791157,111425.55861130303,-31829.170138296708,1.5566489918292571e-06,0.0,0.0,0.0,1.5566489918292571e-06,0.0,24.61851904600285,3.0073854268258153,-0.0011206322124565897,0.0
3731,2.7586206896551726,2.7586206896551726,3.928571428571429,0,203014.93720650053,331035.5563985898,212653.3156481367,96618.0152554446,-2506.0361180474374,1.3534329147100036e-06,0.0,0.0,0.0,1.3534329147100036e-06,0.0,24.940962666581107,3.2981597025448233,-8.496286249094515e-05,0.0
3732,2.7586206896551726,2.7586206896551726,4.285714285714286,0,290966.33559480094,448810.17375267984,163431.64189001863,152560.72869472686,44420.43092445656,1.939775570632006e-06,0.0,0.0,0.0,1.939775570632006e-06,0.0,23.82538782513859,3.5956727140352998,0.0014883795164988415,0.0
3733,2.7586206896551726,2.7586206896551726,4.642857142857143,0,210230.12250801706,398970.89264226536,157707.05501381238,255089.78245867172,42836.892661775724,1.401534150053447e-06,0.0,0.0,0.0,1.401534150053447e-06,0.0,23.44829947718758,3.89712076054001,0.0014301538986673016,0.0
3734,2.7586206896551726,2.7586206896551726,5.0,0,334442.11275112175,410871.4441054261,274087.8859253806,29719.02100765954,-50632.722293744606,2.2296140850074784e-06,0.0,0.0,0.0,2.2296140850074784e-06,0.0,24.365937854891097,4.200131854090394,-0.001688568780521316,0.0
3735,3.1034482758620694,2.7586206896551726,0.0,0,287382.0610138406,321117.1353578475,225582.08889217174,-1865.2860276225313,-55065.680265092175,1.9158804067589373e-06,0.0,0.0,0.0,1.9158804067589373e-06,0.0,23.959634604376316,-0.04986363467145917,-0.0018364050827520061,0.0
3736,3.1034482758620694,2.7586206896551726,0.35714285714285715,0,202184.28194441643,340138.30414882867,264242.7664130916,110988.06568594743,-18957.565482825816,1.3478952129627762e-06,0.0,0.0,0.0,1.3478952129627762e-06,0.0,24.65967274215713,0.2542873001481987,-0.0006329179008984663,0.0
3737,3.1034482758620694,2.7586206896551726,0.7142857142857143,0,167035.68404356675,384910.5697537804,263765.7500762843,194361.74188898242,-57040.61242473587,1.1135712269571117e-06,0.0,0.0,0.0,1.1135712269571117e-06,0.0,23.652094595187183,0.5600547598953108,-0.0019112394313757963,0.0
3738,3.1034482758620694,2.7586206896551726,1.0714285714285714,0,318445.4924949878,433424.709914898,97790.95422555841,135530.86169584995,-41523.19583109411,2.1229699499665853e-06,0.0,0.0,0.0,2.1229699499665853e-06,0.0,23.693397632186013,0.8698918874163507,-0.0014077728378195124,0.0
3739,3.1034482758620694,2.7586206896551726,1.4285714285714286,0,150951.99431845846,234050.7111214551,181190.41897547184,63777.43269797239,18308.118524483816,1.006346628789723e-06,0.0,0.0,0.0,1.006346628789723e-06,0.0,24.214085546001492,1.1866983089098648,0.0006445869395546764,0.0
3740,3.1034482758620694,2.7586206896551726,1.7857142857142858,0,159195.49791846686,405240.91031643294,272690.5036210786,228666.12029146714,55843.28131959995,1.0613033194564457e-06,0.0,0.0,0.0,1.0613033194564457e-06,0.0,24.272285060811228,1.5102668875248213,0.002205669914805893,0.0
3741,3.1034482758620694,2.7586206896551726,2.142857142857143,0,858373.1930401421,1028132.7263789462,437351.08814080845,43512.387817750176,167079.9145192043,5.7224879536009475e-06,0.0,0.0,0.0,5.7224879536009475e-06,0.0,24.52692689924833,1.8336084358448246,0.008956334760398454,0.0
3742,3.1034482758620694,2.7586206896551726,2.5,0,366046.9802194635,905571.3188050376,590466.3469549012,504047.45286935865,665313.1040949406,2.4403132014630904e-06,0.0,0.0,0.0,2.4403132014630904e-06,0.0,24.145076508019507,2.145638989024265,0.06653131040949406,0.0
3743,3.1034482758620694,2.7586206896551726,2.857142857142857,0,444342.47689238464,705299.1410891683,733142.7087327958,275533.2097593053,272915.0060653896,2.9622831792825643e-06,0.0,0.0,0.0,2.9622831792825643e-06,0.0,23.2404185246879,2.440751292987682,0.01462963494140914,0.0
3744,3.1034482758620694,2.7586206896551726,3.2142857142857144,0,269177.9731276507,411980.73854356306,516755.8517194462,210944.9083627498,29425.515851735825,1.7945198208510045e-06,0.0,0.0,0.0,1.7945198208510045e-06,0.0,25.929657005511004,2.724552601810536,0.0011622342653965405,0.0
3745,3.1034482758620694,2.7586206896551726,3.5714285714285716,0,135314.20698602428,341278.2102184918,246236.35319931348,186355.14638089263,43850.21671496921,9.020947132401619e-07,0.0,0.0,0.0,9.020947132401619e-07,0.0,24.22522447111941,3.0081268803384367,0.0015438657420374243,0.0
3746,3.1034482758620694,2.7586206896551726,3.928571428571429,0,82877.54211020897,237689.22455745374,214637.24148196087,145726.0429678112,13784.757300105775,5.525169474013932e-07,0.0,0.0,0.0,5.525169474013932e-07,0.0,25.65746156991883,3.29846331598778,0.0004673485870875902,0.0
3747,3.1034482758620694,2.7586206896551726,4.285714285714286,0,326888.5689216836,454736.711600358,179209.5591731235,93545.9040603626,-1355.6992544201048,2.1792571261445573e-06,0.0,0.0,0.0,2.1792571261445573e-06,0.0,24.154959739299507,3.5957690456095968,-4.5424930799144904e-05,0.0
3748,3.1034482758620694,2.7586206896551726,4.642857142857143,0,110859.3802479871,318184.7275454943,229434.46261697912,193920.01475121762,-15807.926546942244,7.390625349865807e-07,0.0,0.0,0.0,7.390625349865807e-07,0.0,23.696244550509824,3.897144443005342,-0.0005277639524290048,0.0
3749,3.1034482758620694,2.7586206896551726,5.0,0,119207.95210905612,315851.98392694804,236632.30735039723,178755.13122975235,18202.555278787993,7.947196807270408e-07,0.0,0.0,0.0,7.947196807270408e-07,0.0,24.068737207911067,4.200136365328541,0.0006070435318717238,0.0
3750,3.4482758620689657,2.7586206896551726,0.0,0,307752.44500118546,354567.5449996591,273249.0182039847,14321.832802742243,-13731.135542748412,2.05168296667457e-06,0.0,0.0,0.0,2.05168296667457e-06,0.0,24.77136784543162,-0.049859580724213204,-0.0004579245544823508,0.0
3751,3.4482758620689657,2.7586206896551726,0.35714285714285715,0,232056.22199960228,378390.04182696075,272793.0643296253,112314.62294683431,-7246.442832155776,1.5470414799973485e-06,0.0,0.0,0.0,1.5470414799973485e-06,0.0,24.535478451934615,0.25430858199189144,-0.00024192997726758328,0.0
3752,3.4482758620689657,2.7586206896551726,0.7142857142857143,0,311518.78523551335,378550.300750444,76264.22833592219,58554.36592204087,-37446.88308046964,2.076791901570089e-06,0.0,0.0,0.0,2.076791901570089e-06,0.0,24.384389170102754,0.5601413266221331,-0.0012547193391366212,0.0
3753,3.4482758620689657,2.7586206896551726,1.0714285714285714,0,303453.79582098965,398382.97345632775,219567.35364627533,48009.769711185305,37681.78458684125,2.023025305473264e-06,0.0,0.0,0.0,2.023025305473264e-06,0.0,24.204657977796774,0.8701647244603615,0.0012775363687733596,0.0
3754,3.4482758620689657,2.7586206896551726,1.4285714285714286,0,163008.28698366406,333039.6383890295,372291.4644131926,193241.04813804547,63964.201564069896,1.086721913224427e-06,0.0,0.0,0.0,1.086721913224427e-06,0.0,24.304724305061235,1.1873646034674605,0.002252033100621667,0.0
3755,3.4482758620689657,2.7586206896551726,1.7857142857142858,0,295294.37104594393,513431.88114809897,334331.11048201553,172602.86355291912,69077.68953721272,1.968629140306293e-06,0.0,0.0,0.0,1.968629140306293e-06,0.0,24.17030663379636,1.5115276689084567,0.002728395932261514,0.0
3756,3.4482758620689657,2.7586206896551726,2.142857142857143,0,564116.9683805181,933299.665826894,750525.0616338783,300457.8069470939,265756.9455037736,3.7607797892034543e-06,0.0,0.0,0.0,3.7607797892034543e-06,0.0,24.847939381226933,1.8354569547667678,0.014245926421988811,0.0
3757,3.4482758620689657,2.7586206896551726,2.5,0,520978.3178125013,851364.9432461768,607894.3640544151,253226.49934528445,638193.7663585762,3.4731887854166753e-06,0.0,0.0,0.0,3.4731887854166753e-06,0.0,24.71223518502021,2.147738985688204,0.06381937663585763,0.0
3758,3.4482758620689657,2.7586206896551726,2.857142857142857,0,367734.0882827753,808061.489274767,594520.0250145019,383441.1197901922,352696.12577964226,2.4515605885518353e-06,0.0,0.0,0.0,2.4515605885518353e-06,0.0,23.78780174210036,2.442599811909625,0.01890630947632543,0.0
3759,3.4482758620689657,2.7586206896551726,3.2142857142857144,0,315667.0306247977,589497.8556466419,258030.89934566492,292452.0898612881,33281.36445748227,2.1044468708319847e-06,0.0,0.0,0.0,2.1044468708319847e-06,0.0,23.525020842635556,2.7258133831941715,0.0013145306395488266,0.0
3760,3.4482758620689657,2.7586206896551726,3.5714285714285716,0,223494.1165621268,440976.84580022213,182997.74053414696,317878.4791659455,48663.80927603194,1.4899607770808453e-06,0.0,0.0,0.0,1.4899607770808453e-06,0.0,23.65541923438935,3.008793174896032,0.0017133413161139837,0.0
3761,3.4482758620689657,2.7586206896551726,3.928571428571429,0,137326.77535194205,211359.3917256544,277159.8088289589,119314.1239272758,-13710.364404756896,9.155118356796137e-07,0.0,0.0,0.0,9.155118356796137e-07,0.0,24.095059789570588,3.2987361530317907,-0.000464826423383599,0.0
3762,3.4482758620689657,2.7586206896551726,4.285714285714286,0,295569.0700032561,363834.40581420093,278972.3896799491,35116.9960340139,-40936.780583700245,1.970460466688374e-06,0.0,0.0,0.0,1.970460466688374e-06,0.0,24.388506686343515,3.5958556123364187,-0.0013716540885388168,0.0
3763,3.4482758620689657,2.7586206896551726,4.642857142857143,0,181473.053344822,302483.5533515704,223798.78108954712,94947.8289135742,-2087.644241612182,1.2098203556321467e-06,0.0,0.0,0.0,1.2098203556321467e-06,0.0,24.2552292282301,3.897165724849035,-6.969815889181351e-05,0.0
3764,3.4482758620689657,2.7586206896551726,5.0,0,202203.46775115313,362142.35887695267,144190.24598203937,180648.03070385536,34401.21037616106,1.3480231183410208e-06,0.0,0.0,0.0,1.3480231183410208e-06,0.0,24.602487386039236,4.200140419275787,0.001147258279267123,0.0
3765,3.793103448275862,2.7586206896551726,0.0,0,249381.87664633532,365625.2699683891,224289.39214210393,77679.97920063409,3252.1342617948276,1.6625458443089021e-06,0.0,0.0,0.0,1.6625458443089021e-06,0.0,24.265402954419855,-0.049856097368700156,0.00010845658964714447,0.0
3766,3.793103448275862,2.7586206896551726,0.35714285714285715,0,342322.3603104264,418301.4632993831,301147.688325764,32782.92486308936,-37115.660079589616,2.282149068736176e-06,0.0,0.0,0.0,2.282149068736176e-06,0.0,25.075257679923407,0.2543268684231292,-0.0012391446406615956,0.0
3767,3.793103448275862,2.7586206896551726,0.7142857142857143,0,295332.24441431626,403477.2698565142,332949.2220897468,79266.05278819251,-12795.812187917358,1.968881629428775e-06,0.0,0.0,0.0,1.968881629428775e-06,0.0,24.53653636245383,0.5602157091108106,-0.00042874470961011774,0.0
3768,3.793103448275862,2.7586206896551726,1.0714285714285714,0,280523.8018644881,415235.5703452391,208272.4607181811,95957.10440314373,39345.16358163244,1.8701586790965874e-06,0.0,0.0,0.0,1.8701586790965874e-06,0.0,24.295852681367307,0.8703991597807431,0.001333930384720298,0.0
3769,3.793103448275862,2.7586206896551726,1.4285714285714286,0,389865.6721740735,489930.17566737003,139910.36516763133,69747.18557122836,15188.472946854461,2.59910448116049e-06,0.0,0.0,0.0,2.59910448116049e-06,0.0,23.53620560641571,1.187937117286633,0.0005347513607271638,0.0
3770,3.793103448275862,2.7586206896551726,1.7857142857142858,0,296882.10499114316,576313.9358345465,472733.485201197,241517.87674599283,56335.92829666124,1.979214033274288e-06,0.0,0.0,0.0,1.979214033274288e-06,0.0,24.471488668308925,1.5126109957296925,0.0022251282379962024,0.0
3771,3.793103448275862,2.7586206896551726,2.142857142857143,0,436696.286991629,812039.4765562813,520260.1244332268,309986.5593703181,293788.45390923746,2.9113085799441934e-06,0.0,0.0,0.0,2.9113085799441934e-06,0.0,24.550649112180817,1.8370452952623488,0.015748558104801892,0.0
3772,3.793103448275862,2.7586206896551726,2.5,0,507407.8024282244,1115073.4205625728,843601.3680853056,529682.113572256,650294.0480616902,3.3827186828548295e-06,0.0,0.0,0.0,3.3827186828548295e-06,0.0,23.94899104100665,2.149543408516839,0.06502940480616902,0.0
3773,3.793103448275862,2.7586206896551726,2.857142857142857,0,584290.6369248545,924981.0837384699,610148.4459175108,250790.29175479888,386178.8174522947,3.895270912832363e-06,0.0,0.0,0.0,3.895270912832363e-06,0.0,23.73243218397647,2.444188152405206,0.02070115235832255,0.0
3774,3.793103448275862,2.7586206896551726,3.2142857142857144,0,229183.91093759701,510916.0594246433,284983.86338734743,278613.26492089865,-18941.043947341954,1.5278927395839801e-06,0.0,0.0,0.0,1.5278927395839801e-06,0.0,24.86264762193422,2.726896710015407,-0.0007481238530839198,0.0
3775,3.793103448275862,2.7586206896551726,3.5714285714285716,0,256726.40454204005,410943.75580518163,270543.2150214114,114636.84486551902,40511.329673998924,1.7115093636136004e-06,0.0,0.0,0.0,1.7115093636136004e-06,0.0,23.83573628068426,3.0093656887152047,0.0014263111732061365,0.0
3776,3.793103448275862,2.7586206896551726,3.928571428571429,0,262918.80525795993,324837.512269714,314593.96196836064,56946.63616500431,17103.594034131613,1.7527920350530662e-06,0.0,0.0,0.0,1.7527920350530662e-06,0.0,24.407536384302894,3.2989705883521725,0.0005798680623785672,0.0
3777,3.793103448275862,2.7586206896551726,4.285714285714286,0,151950.588499079,263296.77109752805,212796.10668872762,92525.84407604112,50585.86590861408,1.0130039233271934e-06,0.0,0.0,0.0,1.0130039233271934e-06,0.0,24.344449335151182,3.5959299948250965,0.0016949625448429704,0.0
3778,3.793103448275862,2.7586206896551726,4.642857142857143,0,328586.7747422743,398205.62289421965,156054.45861682013,24164.867727976376,-2188.0776516333854,2.1905784982818286e-06,0.0,0.0,0.0,2.1905784982818286e-06,0.0,24.557509174067082,3.8971840112802725,-7.30512320017696e-05,0.0
3779,3.793103448275862,2.7586206896551726,5.0,0,173395.36674672682,319946.41554098786,120970.79021850726,239758.30766706902,35924.7601419471,1.1559691116448454e-06,0.0,0.0,0.0,1.1559691116448454e-06,0.0,23.858337254128614,4.2001439026313,0.0011980676857839578,0.0
3780,4.137931034482759,2.7586206896551726,0.0,0,294221.78459364566,446831.8885031087,172923.00375213122,135817.39709187363,14863.305601495425,1.9614785639576377e-06,0.0,0.0,0.0,1.9614785639576377e-06,0.0,24.253605946745935,-0.04985331340493012,0.0004956816990488672,0.0
3781,4.137931034482759,2.7586206896551726,0.35714285714285715,0,129505.27272013722,213959.2225308552,195911.49171761182,76376.71205636323,-35313.06131732385,8.633684848009147e-07,0.0,0.0,0.0,8.633684848009147e-07,0.0,23.83489039626326,0.254341483285683,-0.0011789630194608675,0.0
3782,4.137931034482759,2.7586206896551726,0.7142857142857143,0,175639.07723147134,282619.9379909925,274782.15139320964,103193.17513446992,32463.014158507223,1.1709271815431422e-06,0.0,0.0,0.0,1.1709271815431422e-06,0.0,24.36040401231393,0.5602751570060451,0.0010877266229025251,0.0
3783,4.137931034482759,2.7586206896551726,1.0714285714285714,0,311230.898315255,329797.0584583463,155909.64076028808,-29519.641968126805,26731.347137293145,2.0748726554350334e-06,0.0,0.0,0.0,2.0748726554350334e-06,0.0,24.580112663916708,0.8705865249336583,0.0009062805418754808,0.0
3784,4.137931034482759,2.7586206896551726,1.4285714285714286,0,179433.26182593833,467390.21955881803,384866.79674813047,261542.02947067932,-19961.150842872594,1.1962217455062556e-06,0.0,0.0,0.0,1.1962217455062556e-06,0.0,24.780519394518286,1.1883946811857111,-0.0007027864231154939,0.0
3785,4.137931034482759,2.7586206896551726,1.7857142857142858,0,309602.4116101756,589029.4204294884,235945.58868873428,363984.83352661325,73247.49863791201,2.0640160774011707e-06,0.0,0.0,0.0,2.0640160774011707e-06,0.0,25.0849502261295,1.5134768110649741,0.0028930929605621805,0.0
3786,4.137931034482759,2.7586206896551726,2.142857142857143,0,564518.4453508338,858320.2782863356,942530.5424730396,340637.460620561,475134.494304174,3.763456302338892e-06,0.0,0.0,0.0,3.763456302338892e-06,0.0,24.210492723376834,1.8383147271011677,0.02546962990402828,0.0
3787,4.137931034482759,2.7586206896551726,2.5,0,478995.61778822314,736496.2794948216,993761.1986278379,441102.9463341261,502723.00966962316,3.193304118588154e-06,0.0,0.0,0.0,3.193304118588154e-06,0.0,24.206391990130587,2.150985537453131,0.05027230096696232,0.0
3788,4.137931034482759,2.7586206896551726,2.857142857142857,0,487285.8837644249,621145.2882050553,588513.8617839785,118363.82591923927,363483.14850119187,3.2485725584294994e-06,0.0,0.0,0.0,3.2485725584294994e-06,0.0,24.988069359171153,2.445457584244025,0.019484548858600896,0.0
3789,4.137931034482759,2.7586206896551726,3.2142857142857144,0,446781.7440172204,580633.3213392964,202068.56051609406,87820.92892851461,-2264.3237830218204,2.9785449601148026e-06,0.0,0.0,0.0,2.9785449601148026e-06,0.0,24.64403746448858,2.727762525350689,-8.943512500648437e-05,0.0
3790,4.137931034482759,2.7586206896551726,3.5714285714285716,0,246875.76499154948,276890.300734031,262320.5367805889,23052.31124511798,-16929.526418193782,1.6458384332769965e-06,0.0,0.0,0.0,1.6458384332769965e-06,0.0,24.979777078451807,3.0098232526142827,-0.0005960498675721374,0.0
3791,4.137931034482759,2.7586206896551726,3.928571428571429,0,149235.4208367511,292803.3627296394,204010.40644596505,120508.21759660044,26768.769492488358,9.949028055783407e-07,0.0,0.0,0.0,9.949028055783407e-07,0.0,25.342215073861368,3.2991579535050874,0.000907549282735056,0.0
3792,4.137931034482759,2.7586206896551726,4.285714285714286,0,187493.69424149036,349896.8057088406,141570.8952690716,194703.2551573074,8167.799986834293,1.2499579616099357e-06,0.0,0.0,0.0,1.2499579616099357e-06,0.0,23.94888433911477,3.595989442720331,0.0002736755574464837,0.0
3793,4.137931034482759,2.7586206896551726,4.642857142857143,0,145574.62977284045,254739.0149660893,240367.34759558045,102511.58650111951,-6379.650135887471,9.704975318189363e-07,0.0,0.0,0.0,9.704975318189363e-07,0.0,24.78007435380107,3.8971986261428264,-0.0002129912079760697,0.0
3794,4.137931034482759,2.7586206896551726,5.0,0,260111.01066631405,418726.8888130927,169659.6810186728,148825.19223055593,53962.352254043195,1.7340734044420937e-06,0.0,0.0,0.0,1.7340734044420937e-06,0.0,24.080556642166414,4.20014668659507,0.0017996098019586178,0.0
3795,4.482758620689656,2.7586206896551726,0.0,0,213214.05002280307,396580.6081727799,177462.3440707403,189807.17223695113,-29368.31072213607,1.4214270001520206e-06,0.0,0.0,0.0,1.4214270001520206e-06,0.0,25.124510435337825,-0.04985136057013025,-0.0009794143071026426,0.0
3796,4.482758620689656,2.7586206896551726,0.35714285714285715,0,190476.51543256498,218507.61668312197,210078.61127118554,23956.525712689127,-4651.676037707611,1.2698434362170997e-06,0.0,0.0,0.0,1.2698434362170997e-06,0.0,23.75362415613503,0.2543517350039336,-0.00015530100824986016,0.0
3797,4.482758620689656,2.7586206896551726,0.7142857142857143,0,67085.39332049372,260062.5862507059,187014.7991629846,245865.0358502161,15725.125166066988,4.4723595546995814e-07,0.0,0.0,0.0,4.4723595546995814e-07,0.0,24.811071059312184,0.5603168572321192,0.0005268961535145415,0.0
3798,4.482758620689656,2.7586206896551726,1.0714285714285714,0,175877.68740716323,178783.81853367033,367428.9954142772,207970.32743693655,-28491.69727402123,1.1725179160477548e-06,0.0,0.0,0.0,1.1725179160477548e-06,0.0,24.080172923507256,0.8707179537959276,-0.0009659621983071832,0.0
3799,4.482758620689656,2.7586206896551726,1.4285714285714286,0,117033.5705723299,322830.0256519828,226907.18479837477,192430.97369176705,24300.99918716734,7.802238038155327e-07,0.0,0.0,0.0,7.802238038155327e-07,0.0,24.63892653151237,1.1887156432308708,0.0008555825478860075,0.0
3800,4.482758620689656,2.7586206896551726,1.7857142857142858,0,273526.55319308536,632297.5671431903,432126.53570414305,320633.59332558734,116672.34524050698,1.823510354620569e-06,0.0,0.0,0.0,1.823510354620569e-06,0.0,25.000506930393165,1.5140841445134887,0.004608265769950574,0.0
3801,4.482758620689656,2.7586206896551726,2.142857142857143,0,228252.46754748787,745061.1115129422,592253.558499808,482682.6653652634,297059.76122690766,1.5216831169832525e-06,0.0,0.0,0.0,1.5216831169832525e-06,0.0,24.0491837878498,1.8392051807405374,0.01592391684571044,0.0
3802,4.482758620689656,2.7586206896551726,2.5,0,524491.3093467903,1043855.5430671079,736470.2440456238,438248.2533427353,485985.31977565616,3.496608728978602e-06,0.0,0.0,0.0,3.496608728978602e-06,0.0,23.641741527417707,2.1519971309239203,0.04859853197756561,0.0
3803,4.482758620689656,2.7586206896551726,2.857142857142857,0,77661.63865478066,564983.4501559968,638321.830045268,556959.8929825773,280989.31871161336,5.177442576985378e-07,0.0,0.0,0.0,5.177442576985378e-07,0.0,24.251161542771083,2.4463480378833946,0.015062459241252714,0.0
3804,4.482758620689656,2.7586206896551726,3.2142857142857144,0,411059.8432890609,635761.1289497602,480426.2182492829,169669.30013271226,-89094.71437400693,2.740398955260406e-06,0.0,0.0,0.0,2.740398955260406e-06,0.0,24.191681654150162,2.728369858799203,-0.0035190183388095174,0.0
3805,4.482758620689656,2.7586206896551726,3.5714285714285716,0,133628.41254263153,340243.10312864,288310.18943979515,188444.28957298063,43318.8526869134,8.908560836175435e-07,0.0,0.0,0.0,8.908560836175435e-07,0.0,23.747893048175314,3.010144214659442,0.0015251576310878533,0.0
3806,4.482758620689656,2.7586206896551726,3.928571428571429,0,100734.39599922739,330147.8602372448,245356.09411537417,218794.1216718084,8925.262077542036,6.715626399948493e-07,0.0,0.0,0.0,6.715626399948493e-07,0.0,23.390111253663243,3.299289382367357,0.0003025957244306154,0.0
3807,4.482758620689656,2.7586206896551726,4.285714285714286,0,323549.4956981196,313735.5507395936,227510.13056156802,-44191.64258176616,-5635.417579976146,2.1569966379874636e-06,0.0,0.0,0.0,2.1569966379874636e-06,0.0,25.007924445560583,3.596031142946405,-0.0001888239244508541,0.0
3808,4.482758620689656,2.7586206896551726,4.642857142857143,0,73402.00420772178,237618.79443490802,214237.76111793335,155374.39990650275,-53113.25388778733,4.893466947181452e-07,0.0,0.0,0.0,4.893466947181452e-07,0.0,25.150136609911343,3.8972088778610767,-0.0017732408304747581,0.0
3809,4.482758620689656,2.7586206896551726,5.0,0,76230.30092410355,245120.14116603913,164916.65617938933,173608.05760521605,35333.22546209686,5.082020061606903e-07,0.0,0.0,0.0,5.082020061606903e-07,0.0,24.10811579840076,4.2001486394298695,0.0011783403839968644,0.0
3810,4.827586206896552,2.7586206896551726,0.0,0,316395.4821530302,383348.913049024,220917.01987998464,18728.641889190512,-14054.791133906743,2.109303214353535e-06,0.0,0.0,0.0,2.109303214353535e-06,0.0,24.2114081433624,-0.049850351211370436,-0.00046871826064929427,0.0
3811,4.827586206896552,2.7586206896551726,0.35714285714285715,0,173560.30655740437,346879.82022242836,240372.66894950793,146604.647335443,18158.19591858822,1.1570687103826957e-06,0.0,0.0,0.0,1.1570687103826957e-06,0.0,24.766336011721126,0.25435703379399005,0.0006062301224968713,0.0
3812,4.827586206896552,2.7586206896551726,0.7142857142857143,0,270949.1951881978,389950.5251888604,251510.54276714005,77750.60718684034,-362.6712809717195,1.8063279679213185e-06,0.0,0.0,0.0,1.8063279679213185e-06,0.0,24.77893244033472,0.560338410764695,-1.2151897102004695e-05,0.0
3813,4.827586206896552,2.7586206896551726,1.0714285714285714,0,168800.40859483008,353580.66291945655,244387.05212851288,159158.45044927415,-53405.37578876786,1.1253360572988672e-06,0.0,0.0,0.0,1.1253360572988672e-06,0.0,25.261479326049777,0.8707858852325415,-0.0018106177986587358,0.0
3814,4.827586206896552,2.7586206896551726,1.4285714285714286,0,217302.15262804623,396878.90638929093,252114.25286510575,147006.8000501769,53796.09352844201,1.4486810175203083e-06,0.0,0.0,0.0,1.4486810175203083e-06,0.0,24.687462836501155,1.1888815383961318,0.001894037295046037,0.0
3815,4.827586206896552,2.7586206896551726,1.7857142857142858,0,255290.61864499582,361916.9527440479,380591.0786030608,116476.15608662713,117836.22484359518,1.7019374576333056e-06,0.0,0.0,0.0,1.7019374576333056e-06,0.0,23.86870869778953,1.5143980560314678,0.004654236102716224,0.0
3816,4.827586206896552,2.7586206896551726,2.142857142857143,0,279653.75150917366,774621.2621406576,482554.9746714856,509301.9770226911,371424.7869748225,1.864358343394491e-06,0.0,0.0,0.0,1.864358343394491e-06,0.0,24.781661723584904,1.839665428161964,0.019910261146762982,0.0
3817,4.827586206896552,2.7586206896551726,2.5,0,575271.5996411251,958259.8485667153,734836.4884031417,304792.76707800897,586297.5468268181,3.835143997607501e-06,0.0,0.0,0.0,3.835143997607501e-06,0.0,24.04195300929348,2.152519991706198,0.058629754682681806,0.0
3818,4.827586206896552,2.7586206896551726,2.857142857142857,0,699188.2534954011,1138782.7191670164,537014.9497110562,371775.5915526213,210796.14462484777,4.661255023302674e-06,0.0,0.0,0.0,4.661255023302674e-06,0.0,24.362789144165184,2.446808285304821,0.011299747446569945,0.0
3819,4.827586206896552,2.7586206896551726,3.2142857142857144,0,244580.8715820579,628653.8454924873,406860.6351431604,366345.11522196664,106250.2300100188,1.630539143880386e-06,0.0,0.0,0.0,1.630539143880386e-06,0.0,24.956594752097878,2.7286837703171822,0.0041966182902660335,0.0
3820,4.827586206896552,2.7586206896551726,3.5714285714285716,0,368290.96692693484,504380.621721004,347321.99931325024,83597.48925940828,89928.72102993166,2.4552731128462324e-06,0.0,0.0,0.0,2.4552731128462324e-06,0.0,23.95236322128481,3.0103101098247036,0.0031661843891402407,0.0
3821,4.827586206896552,2.7586206896551726,3.928571428571429,0,217090.2798610387,371701.0567120699,185310.80926845362,133343.2781730715,4068.7561109669377,1.4472685324069247e-06,0.0,0.0,0.0,1.4472685324069247e-06,0.0,24.373194905272946,3.299357313803971,0.0001379442073782326,0.0
3822,4.827586206896552,2.7586206896551726,4.285714285714286,0,173585.30760709272,276424.1326872644,264048.8538774954,96982.34939879375,4377.334022515116,1.1572353840472847e-06,0.0,0.0,0.0,1.1572353840472847e-06,0.0,23.801644694377327,3.596052696478981,0.0001466697679512591,0.0
3823,4.827586206896552,2.7586206896551726,4.642857142857143,0,188719.30676607805,328770.08826315147,227005.20324034328,111010.72140781645,-35395.98815668614,1.2581287117738537e-06,0.0,0.0,0.0,1.2581287117738537e-06,0.0,23.924929234155286,3.8972141766511332,-0.0011817316176305464,0.0
3824,4.827586206896552,2.7586206896551726,5.0,0,80120.79455024052,336355.5252619473,354660.934810303,266971.4507202398,-66497.39279745534,5.341386303349368e-07,0.0,0.0,0.0,5.341386303349368e-07,0.0,24.150570487695507,4.20014964878863,-0.0022176453561478437,0.0
3825,5.172413793103448,2.7586206896551726,0.0,0,90190.66798567967,263605.6439906101,213158.07129756268,159479.14286989198,-11655.81422858984,6.012711199045312e-07,0.0,0.0,0.0,6.012711199045312e-07,0.0,25.172821997507047,-0.049850351211370436,-0.0003887139210838859,0.0
3826,5.172413793103448,2.7586206896551726,0.35714285714285715,0,137855.95916893135,299677.1743920157,272378.8088308316,150214.2776254935,48100.06340464228,9.190397277928757e-07,0.0,0.0,0.0,9.190397277928757e-07,0.0,24.37913414124812,0.25435703379399005,0.0016058702891322643,0.0
3827,5.172413793103448,2.7586206896551726,0.7142857142857143,0,128396.05581132279,312268.1756120895,228969.47385823049,164404.22186674294,43766.82157502948,8.559737054088186e-07,0.0,0.0,0.0,8.559737054088186e-07,0.0,25.689225319403967,0.560338410764695,0.0014664792614307667,0.0
3828,5.172413793103448,2.7586206896551726,1.0714285714285714,0,291464.6321825999,443269.9772075871,141705.280684576,163082.52019230617,-1979.5720050990308,1.9430975478839993e-06,0.0,0.0,0.0,1.9430975478839993e-06,0.0,24.84936838973326,0.8707858852325415,-6.711399841722863e-05,0.0
3829,5.172413793103448,2.7586206896551726,1.4285714285714286,0,216448.68132294546,227652.77896783958,232335.77306624744,13583.592775324372,21672.627158026793,1.4429912088196364e-06,0.0,0.0,0.0,1.4429912088196364e-06,0.0,24.86769225385453,1.1888815383961318,0.000763043586003654,0.0
3830,5.172413793103448,2.7586206896551726,1.7857142857142858,0,208741.17862736003,693248.1162716526,489339.7028961491,479988.47903016285,-9215.724430567047,1.3916078575157335e-06,0.0,0.0,0.0,1.3916078575157335e-06,0.0,23.834429853593875,1.5143980560314678,-0.00036399806098981973,0.0
3831,5.172413793103448,2.7586206896551726,2.142857142857143,0,521350.97402071016,672494.3285807883,507664.6879854582,88651.31771317347,321320.9315737308,3.4756731601380677e-06,0.0,0.0,0.0,3.4756731601380677e-06,0.0,24.3093769559122,1.839665428161964,0.01722443919712824,0.0
3832,5.172413793103448,2.7586206896551726,2.5,0,467810.56214736216,706503.2586987322,249217.97650386856,726887.4235331195,510762.45631739433,3.1187370809824144e-06,0.0,0.0,0.0,3.1187370809824144e-06,0.0,23.819357342058478,2.152519991706198,0.05107624563173944,0.0
3833,5.172413793103448,2.7586206896551726,2.857142857142857,0,533263.2372379028,1022832.0436040834,574081.7739042463,433303.4112045857,316640.7604998218,3.5550882482526854e-06,0.0,0.0,0.0,3.5550882482526854e-06,0.0,24.2406821542239,2.446808285304821,0.016973558180134157,0.0
3834,5.172413793103448,2.7586206896551726,3.2142857142857144,0,384647.50265031843,640306.7685469548,268958.614787912,243613.4678513569,43494.810114741005,2.564316684335456e-06,0.0,0.0,0.0,2.564316684335456e-06,0.0,24.171820625655492,2.7286837703171822,0.0017179361930977327,0.0
3835,5.172413793103448,2.7586206896551726,3.5714285714285716,0,309118.660497831,487746.49053561845,283220.250451034,132143.46225615073,-6504.033092362385,2.06079106998554e-06,0.0,0.0,0.0,2.06079106998554e-06,0.0,24.384109656317076,3.0103101098247036,-0.00022899211517347383,0.0
3836,5.172413793103448,2.7586206896551726,3.928571428571429,0,70221.051055267,389255.97979471454,338957.1165759935,309029.20002402086,33646.70322736563,4.681403403684467e-07,0.0,0.0,0.0,4.681403403684467e-07,0.0,24.82256199390095,3.299357313803971,0.0011407338461696475,0.0
3837,5.172413793103448,2.7586206896551726,4.285714285714286,0,253975.37606165244,459836.8322710219,278087.36945822655,169641.1505831673,63963.74269296921,1.6931691737443495e-06,0.0,0.0,0.0,1.6931691737443495e-06,0.0,24.28356962613838,3.596052696478981,0.0021432102850313024,0.0
3838,5.172413793103448,2.7586206896551726,4.642857142857143,0,214973.83790586604,360910.41181255307,327014.18214505824,131002.12418885909,-5501.068493454353,1.4331589193724402e-06,0.0,0.0,0.0,1.4331589193724402e-06,0.0,24.841034222703342,3.8972141766511332,-0.00018365885254253818,0.0
3839,5.172413793103448,2.7586206896551726,5.0,0,190460.85578577363,314412.4140648362,190749.00042453696,95081.95270430794,46044.48461936101,1.2697390385718242e-06,0.0,0.0,0.0,1.2697390385718242e-06,0.0,23.691047714278405,4.20014964878863,0.0015355539998893643,0.0
3840,5.517241379310345,2.7586206896551726,0.0,0,227568.76224923704,351161.8045856317,220626.61633854144,88389.86867785566,-40800.6706767764,1.5171250816615802e-06,0.0,0.0,0.0,1.5171250816615802e-06,0.0,24.566907171948035,-0.04985136057013025,-0.001360676171615756,0.0
3841,5.517241379310345,2.7586206896551726,0.35714285714285715,0,263329.3650105333,410430.8633322383,161422.94467924704,134802.29709829803,-3031.730855004571,1.755529100070222e-06,0.0,0.0,0.0,1.755529100070222e-06,0.0,24.12965154850479,0.2543517350039336,-0.00010121746542703138,0.0
3842,5.517241379310345,2.7586206896551726,0.7142857142857143,0,180326.30733651924,278339.6340005464,185705.28707750698,70524.05359570334,-42735.75914012193,1.2021753822434616e-06,0.0,0.0,0.0,1.2021753822434616e-06,0.0,24.47898724236883,0.5603168572321192,-0.0014319318206155787,0.0
3843,5.517241379310345,2.7586206896551726,1.0714285714285714,0,117147.15836652994,295423.5657683901,174825.06426233542,182063.42745000587,-10393.738330181372,7.809810557768662e-07,0.0,0.0,0.0,7.809810557768662e-07,0.0,24.78844358748479,0.8707179537959276,-0.0003523818967150854,0.0
3844,5.517241379310345,2.7586206896551726,1.4285714285714286,0,237370.53717334522,370389.88868713303,173174.3148260538,106935.85524807757,33217.108153207664,1.5824702478223015e-06,0.0,0.0,0.0,1.5824702478223015e-06,0.0,23.64095387269642,1.1887156432308708,0.001169498332485615,0.0
3845,5.517241379310345,2.7586206896551726,1.7857142857142858,0,216936.1629032249,327484.3224101499,550349.6211917487,339873.5837105973,122831.409879092,1.4462410860214994e-06,0.0,0.0,0.0,1.4462410860214994e-06,0.0,25.100994636569734,1.5140841445134887,0.004851533415684417,0.0
3846,5.517241379310345,2.7586206896551726,2.142857142857143,0,543503.5083028215,861014.3194184591,235952.4810493066,499807.5623016317,250783.32727450787,3.6233567220188103e-06,0.0,0.0,0.0,3.6233567220188103e-06,0.0,24.27436003069237,1.8392051807405374,0.013443264188041513,0.0
3847,5.517241379310345,2.7586206896551726,2.5,0,502900.5656382077,613969.4446941823,960256.9260843847,383414.39409365435,614001.3795798231,3.3526704375880513e-06,0.0,0.0,0.0,3.3526704375880513e-06,0.0,25.306883063975498,2.1519971309239203,0.06140013795798231,0.0
3848,5.517241379310345,2.7586206896551726,2.857142857142857,0,391195.21296316205,846767.2307565573,795321.5911352072,432394.56305159023,419072.34301137505,2.6079680864210803e-06,0.0,0.0,0.0,2.6079680864210803e-06,0.0,24.41616021835805,2.446348037883394,0.022464412934584,0.0
3849,5.517241379310345,2.7586206896551726,3.2142857142857144,0,318104.4892108989,663389.8702777891,452394.0085566127,297505.638301857,121083.57830172626,2.120696594739326e-06,0.0,0.0,0.0,2.120696594739326e-06,0.0,25.045832930894033,2.728369858799203,0.004782498440746612,0.0
3850,5.517241379310345,2.7586206896551726,3.5714285714285716,0,272760.1616195437,357131.72973874805,188351.06718001422,42452.61947439517,15185.652574030679,1.8184010774636246e-06,0.0,0.0,0.0,1.8184010774636246e-06,0.0,24.420000757776332,3.010144214659442,0.0005346520618568592,0.0
3851,5.517241379310345,2.7586206896551726,3.928571428571429,0,282664.29368504445,453663.02516868484,130302.70218481628,253542.2723143479,-19797.737030148317,1.884428624566963e-06,0.0,0.0,0.0,1.884428624566963e-06,0.0,24.528472996113273,3.299289382367357,-0.0006712083663961558,0.0
3852,5.517241379310345,2.7586206896551726,4.285714285714286,0,104544.94724716587,233421.1070928353,194650.39002196788,115029.33655155847,-22708.89125253424,6.969663149811058e-07,0.0,0.0,0.0,6.969663149811058e-07,0.0,24.45770518034831,3.596031142946405,-0.0007608987098786275,0.0
3853,5.517241379310345,2.7586206896551726,4.642857142857143,0,200108.02713259266,406998.80378046905,271175.6421695651,177200.6142008132,-27696.863789244213,1.3340535142172845e-06,0.0,0.0,0.0,1.3340535142172845e-06,0.0,24.294564884441556,3.8972088778610767,-0.0009246883998285518,0.0
3854,5.517241379310345,2.7586206896551726,5.0,0,174119.7762708343,372996.22515063995,230237.525585876,179009.119648897,-1038.8252822100533,1.1607985084722286e-06,0.0,0.0,0.0,1.1607985084722286e-06,0.0,24.280389917076473,4.2001486394298695,-3.464415619961352e-05,0.0
3855,5.862068965517242,2.7586206896551726,0.0,0,228951.41366543862,218862.78398805438,163715.58545623397,-32625.619812910623,-27429.950723060425,1.5263427577695907e-06,0.0,0.0,0.0,1.5263427577695907e-06,0.0,24.426654317239905,-0.04985331340493012,-0.0009147712456282484,0.0
3856,5.862068965517242,2.7586206896551726,0.35714285714285715,0,367687.5671944779,513994.2322359671,309844.9208873783,89527.82561832672,22598.77381315326,2.451250447963186e-06,0.0,0.0,0.0,2.451250447963186e-06,0.0,24.592779131259658,0.254341483285683,0.0007544834012393537,0.0
3857,5.862068965517242,2.7586206896551726,0.7142857142857143,0,149146.05854394703,330096.5347434518,346689.3566875365,189940.74642513876,7639.318296201121,9.94307056959647e-07,0.0,0.0,0.0,9.94307056959647e-07,0.0,24.440126035874396,0.5602751570060451,0.0002559679101586672,0.0
3858,5.862068965517242,2.7586206896551726,1.0714285714285714,0,123556.77745468906,284021.9499506382,225521.91268710748,142079.4893136004,6525.276448476253,8.23711849697927e-07,0.0,0.0,0.0,8.23711849697927e-07,0.0,24.587665717568132,0.8705865249336583,0.00022122832213577708,0.0
3859,5.862068965517242,2.7586206896551726,1.4285714285714286,0,73039.32604414552,287661.5065700777,288976.4788893555,215288.54507373789,-68645.55210637518,4.869288402943035e-07,0.0,0.0,0.0,4.869288402943035e-07,0.0,23.573747736906526,1.1883946811857111,-0.002416852735966051,0.0
3860,5.862068965517242,2.7586206896551726,1.7857142857142858,0,314206.8689858755,548214.7394948764,228364.56424217188,239972.91120511215,61998.218475170695,2.0947124599058365e-06,0.0,0.0,0.0,2.0947124599058365e-06,0.0,24.789540052263806,1.5134768110649741,0.0024487745352859665,0.0
3861,5.862068965517242,2.7586206896551726,2.142857142857143,0,292202.83641820826,827970.5327050943,524319.763106964,548749.4839190098,281435.9397866276,1.9480189094547217e-06,0.0,0.0,0.0,1.9480189094547217e-06,0.0,23.970992284136646,1.8383147271011677,0.015086400406594985,0.0
3862,5.862068965517242,2.7586206896551726,2.5,0,523685.0245559117,1020202.9742265859,801831.6715573933,422671.6609146912,793388.1375402863,3.4912334970394116e-06,0.0,0.0,0.0,3.4912334970394116e-06,0.0,23.523308191014454,2.150985537453131,0.07933881375402863,0.0
3863,5.862068965517242,2.7586206896551726,2.857142857142857,0,191386.6111856817,799017.30340633,655032.6570575881,581834.9283929638,211696.6454641638,1.2759107412378778e-06,0.0,0.0,0.0,1.2759107412378778e-06,0.0,25.275513581223642,2.445457584244025,0.011348018879986361,0.0
3864,5.862068965517242,2.7586206896551726,3.2142857142857144,0,459808.7279850506,646072.9692644987,343189.7023922179,116980.22525431104,48625.14098157107,3.0653915199003373e-06,0.0,0.0,0.0,3.0653915199003373e-06,0.0,25.061585590190184,2.727762525350689,0.0019205714283233438,0.0
3865,5.862068965517242,2.7586206896551726,3.5714285714285716,0,189989.0309638617,369282.9253381262,258265.65310262016,149907.86240991316,20368.11152136603,1.266593539759078e-06,0.0,0.0,0.0,1.266593539759078e-06,0.0,24.35597950661876,3.0098232526142827,0.0007171145769297906,0.0
3866,5.862068965517242,2.7586206896551726,3.928571428571429,0,113838.87571088197,211166.54799364402,210322.81355726055,96908.15013933233,-33286.89108443127,7.589258380725464e-07,0.0,0.0,0.0,7.589258380725464e-07,0.0,24.900770994677913,3.2991579535050874,-0.0011285350317142026,0.0
3867,5.862068965517242,2.7586206896551726,4.285714285714286,0,145045.31450737192,324371.2195152971,215430.05700909914,159732.53673371093,64477.59032041167,9.669687633824795e-07,0.0,0.0,0.0,9.669687633824795e-07,0.0,24.20507755251131,3.595989442720331,0.0021604275939895957,0.0
3868,5.862068965517242,2.7586206896551726,4.642857142857143,0,127740.22450886841,175481.4419789148,261519.10970477443,114742.36165310895,64952.22770048332,8.516014967257894e-07,0.0,0.0,0.0,8.516014967257894e-07,0.0,24.140723112405677,3.8971986261428264,0.002168497197180265,0.0
3869,5.862068965517242,2.7586206896551726,5.0,0,247124.86436163893,356806.6407821012,102132.30681523455,117995.54725233106,-28604.990950812487,1.6474990957442596e-06,0.0,0.0,0.0,1.6474990957442596e-06,0.0,24.082998804008074,4.20014668659507,-0.0009539580828069384,0.0
3870,6.206896551724139,2.7586206896551726,0.0,0,167937.42535767378,272046.0800048543,231784.22646283347,87637.29045926033,-20021.278294954765,1.1195828357178252e-06,0.0,0.0,0.0,1.1195828357178252e-06,0.0,23.952798397762265,-0.049856097368700156,-0.0006676967767772259,0.0
3871,6.206896551724139,2.7586206896551726,0.35714285714285715,0,215065.4576468555,349429.2237606122,260546.20836801335,104169.36965669326,72642.57824267508,1.4337697176457033e-06,0.0,0.0,0.0,1.4337697176457033e-06,0.0,24.147864158233418,0.2543268684231292,0.002425247491765657,0.0
3872,6.206896551724139,2.7586206896551726,0.7142857142857143,0,267452.24598179874,428667.7370303883,198887.20106692205,135083.924537486,47367.77924604043,1.7830149732119915e-06,0.0,0.0,0.0,1.7830149732119915e-06,0.0,23.9251635698371,0.5602157091108106,0.0015871352642153151,0.0
3873,6.206896551724139,2.7586206896551726,1.0714285714285714,0,256527.7613478941,283365.12633708585,211280.81405845427,-1492.988463746775,-12692.854822504933,1.7101850756526274e-06,0.0,0.0,0.0,1.7101850756526274e-06,0.0,22.862609982666186,0.8703991597807431,-0.00043032950368738576,0.0
3874,6.206896551724139,2.7586206896551726,1.4285714285714286,0,448128.829602154,492680.50528926187,247882.80576687027,-24528.44141982734,22642.98423531279,2.9875255306810266e-06,0.0,0.0,0.0,2.9875255306810266e-06,0.0,24.19989471926773,1.187937117286633,0.0007972076372078524,0.0
3875,6.206896551724139,2.7586206896551726,1.7857142857142858,0,255121.41273821934,531723.7677017753,351751.2504222852,239761.38422147493,-19407.840982123853,1.7008094182547955e-06,0.0,0.0,0.0,1.7008094182547955e-06,0.0,23.811741819545198,1.5126109957296925,-0.0007665611682203008,0.0
3876,6.206896551724139,2.7586206896551726,2.142857142857143,0,1127339.5407054995,1165015.408513112,604811.313958033,-132693.1291971879,514809.5162755628,7.515596938036663e-06,0.0,0.0,0.0,7.515596938036663e-06,0.0,24.449713077901013,1.8370452952623488,0.027596413242555056,0.0
3877,6.206896551724139,2.7586206896551726,2.5,0,503983.01631404774,940793.4470153446,736624.4730435153,366760.70726915804,592999.6611893573,3.359886775426985e-06,0.0,0.0,0.0,3.359886775426985e-06,0.0,24.185900804329155,2.149543408516839,0.05929996611893573,0.0
3878,6.206896551724139,2.7586206896551726,2.857142857142857,0,458091.6725494963,717569.9658805748,241429.78743667185,279960.71179931273,375837.01492069336,3.0539444836633087e-06,0.0,0.0,0.0,3.0539444836633087e-06,0.0,24.627954225034053,2.444188152405206,0.020146779046811718,0.0
3879,6.206896551724139,2.7586206896551726,3.2142857142857144,0,317185.91030296957,662206.6630869007,483550.15830233216,295988.01420469745,6888.49918002612,2.1145727353531305e-06,0.0,0.0,0.0,2.1145727353531305e-06,0.0,24.321809190288008,2.726896710015407,0.0002720784853703779,0.0
3880,6.206896551724139,2.7586206896551726,3.5714285714285716,0,228817.6022707846,370995.27331442386,260920.32809502975,107943.07782396169,-41064.088910344006,1.5254506818052308e-06,0.0,0.0,0.0,1.5254506818052308e-06,0.0,23.686804661110447,3.0093656887152047,-0.0014457725604584512,0.0
3881,6.206896551724139,2.7586206896551726,3.928571428571429,0,115393.82223443716,290870.1769331331,380009.0838115061,249670.02229189614,15999.94937166938,7.692921482295811e-07,0.0,0.0,0.0,7.692921482295811e-07,0.0,23.691684653845893,3.2989705883521725,0.0005424508803114933,0.0
3882,6.206896551724139,2.7586206896551726,4.285714285714286,0,135735.91194270935,307013.1671479985,156715.87683017208,193364.11701383616,65054.298629403005,9.049060796180624e-07,0.0,0.0,0.0,9.049060796180624e-07,0.0,23.708989690835278,3.5959299948250965,0.002179751153357067,0.0
3883,6.206896551724139,2.7586206896551726,4.642857142857143,0,261911.59386287624,335355.1125361923,178166.3847529002,33005.38917086838,-18288.333036115997,1.746077292419175e-06,0.0,0.0,0.0,1.746077292419175e-06,0.0,23.90231784462104,3.8971840112802725,-0.0006105748845566029,0.0
3884,6.206896551724139,2.7586206896551726,5.0,0,275583.12941380386,429120.6362595733,223085.7162107075,116083.48666330887,-33123.72700605071,1.8372208627586925e-06,0.0,0.0,0.0,1.8372208627586925e-06,0.0,23.987603042281666,4.2001439026313,-0.0011046550290628573,0.0
3885,6.551724137931035,2.7586206896551726,0.0,0,50523.38798313442,210818.00575969034,269080.88585025107,242536.0141800648,10490.692396659699,3.3682258655422946e-07,0.0,0.0,0.0,3.3682258655422946e-07,0.0,24.6807843913154,-0.049859580724213204,0.0003498578560379008,0.0
3886,6.551724137931035,2.7586206896551726,0.35714285714285715,0,247841.3954637242,345465.0296659375,106549.29664634842,89571.05469437802,56299.453217542374,1.6522759697581614e-06,0.0,0.0,0.0,1.6522759697581614e-06,0.0,24.318990221442487,0.25430858199189144,0.0018796153854491067,0.0
3887,6.551724137931035,2.7586206896551726,0.7142857142857143,0,232832.6117378681,388090.7565041118,184278.99498690083,134340.87853417275,-22024.93405238858,1.5522174115857873e-06,0.0,0.0,0.0,1.5522174115857873e-06,0.0,23.30006588013372,0.5601413266221331,-0.0007379816002137092,0.0
3888,6.551724137931035,2.7586206896551726,1.0714285714285714,0,111132.52788711157,369164.73229937267,290822.38709404285,241974.83177261008,-8653.753727315741,7.408835192474105e-07,0.0,0.0,0.0,7.408835192474105e-07,0.0,23.797535745998456,0.8701647244603615,-0.00029339069882891193,0.0
3889,6.551724137931035,2.7586206896551726,1.4285714285714286,0,364041.56232165726,521230.6719523257,210799.44411227814,120555.08434232652,39767.36982520299,2.4269437488110483e-06,0.0,0.0,0.0,2.4269437488110483e-06,0.0,24.221731838953925,1.1873646034674605,0.0014001180501145626,0.0
3890,6.551724137931035,2.7586206896551726,1.7857142857142858,0,210098.7320087826,582858.6175089242,576276.0548594218,369545.9572880657,118200.00383617273,1.400658213391884e-06,0.0,0.0,0.0,1.400658213391884e-06,0.0,23.742650543113665,1.5115276689084567,0.004668604462895036,0.0
3891,6.551724137931035,2.7586206896551726,2.142857142857143,0,565875.0881245983,844240.712660995,534042.7689094435,191098.02570665933,305683.65749516577,3.772500587497322e-06,0.0,0.0,0.0,3.772500587497322e-06,0.0,24.29003596755723,1.8354569547667678,0.01638620162805388,0.0
3892,6.551724137931035,2.7586206896551726,2.5,0,1158757.1641983553,1153609.3120021184,536468.2583086493,-183100.72651878593,708240.3647934359,7.72504776132237e-06,0.0,0.0,0.0,7.72504776132237e-06,0.0,23.83475019549981,2.147738985688204,0.07082403647934359,0.0
3893,6.551724137931035,2.7586206896551726,2.857142857142857,0,284198.75043058547,894007.7497517357,720604.8408047346,566023.259979761,376969.5169982761,1.8946583362039032e-06,0.0,0.0,0.0,1.8946583362039032e-06,0.0,24.191913234267588,2.442599811909625,0.020207486928742743,0.0
3894,6.551724137931035,2.7586206896551726,3.2142857142857144,0,290858.7070809595,545458.4557701739,604390.4837330168,288578.4386197715,63281.053981971956,1.9390580472063967e-06,0.0,0.0,0.0,1.9390580472063967e-06,0.0,23.979216326231448,2.7258133831941715,0.0024994433286686935,0.0
3895,6.551724137931035,2.7586206896551726,3.5714285714285716,0,215583.99888384188,455664.8022001305,323516.5568141476,206891.22273235035,42465.770432036974,1.4372266592256125e-06,0.0,0.0,0.0,1.4372266592256125e-06,0.0,24.32455602450161,3.008793174896032,0.001495122557897573,0.0
3896,6.551724137931035,2.7586206896551726,3.928571428571429,0,260476.20386954185,309030.3496104819,338384.528010291,64474.721083357894,27402.90010171539,1.7365080257969456e-06,0.0,0.0,0.0,1.7365080257969456e-06,0.0,24.993585873285312,3.2987361530317907,0.0009290483949645454,0.0
3897,6.551724137931035,2.7586206896551726,4.285714285714286,0,266107.58469174255,302807.24826184474,357162.4458422887,68073.82971513584,-36114.5551040272,1.774050564611617e-06,0.0,0.0,0.0,1.774050564611617e-06,0.0,24.724410350699443,3.5958556123364187,-0.001210077501402816,0.0
3898,6.551724137931035,2.7586206896551726,4.642857142857143,0,115706.43189307138,307564.5769661611,177313.0331950318,216672.93831166823,51014.71450727793,7.713762126204758e-07,0.0,0.0,0.0,7.713762126204758e-07,0.0,23.742063874443343,3.897165724849035,0.0017031789261195797,0.0
3899,6.551724137931035,2.7586206896551726,5.0,0,244930.43562715047,436849.21798273665,305192.29910830996,154247.2359905877,11875.164984556171,1.6328695708476697e-06,0.0,0.0,0.0,1.6328695708476697e-06,0.0,25.54302021374625,4.200140419275787,0.0003960291279645212,0.0
3900,6.8965517241379315,2.7586206896551726,0.0,0,11971.101592513722,124433.57045573466,138251.19891683458,131677.24453985886,48109.636569790164,7.980734395009148e-08,0.0,0.0,0.0,7.980734395009148e-08,0.0,24.751506453007632,-0.04986363467145917,0.0016044254915365396,0.0
3901,6.8965517241379315,2.7586206896551726,0.35714285714285715,0,192518.09880656184,377477.63034121087,274587.2983501815,155376.6614699225,1811.7954771782074,1.2834539920437457e-06,0.0,0.0,0.0,1.2834539920437457e-06,0.0,23.82289434776026,0.2542873001481987,6.048866302541904e-05,0.0
3902,6.8965517241379315,2.7586206896551726,0.7142857142857143,0,109992.02599609419,353323.4839642049,240637.36584741797,246239.66347525525,8695.013502935066,7.332801733072946e-07,0.0,0.0,0.0,7.332801733072946e-07,0.0,23.73742755830277,0.5600547598953108,0.00029134071246310675,0.0
3903,6.8965517241379315,2.7586206896551726,1.0714285714285714,0,129944.38775165597,239997.21367710133,342949.8063754543,196942.47464282293,14652.913030001382,8.662959183443732e-07,0.0,0.0,0.0,8.662959183443732e-07,0.0,24.345564317093004,0.8698918874163507,0.0004967819202182064,0.0
3904,6.8965517241379315,2.7586206896551726,1.4285714285714286,0,294884.412800642,446169.3031929332,392603.10155351955,128173.54220161964,28256.714509050413,1.9658960853376135e-06,0.0,0.0,0.0,1.9658960853376135e-06,0.0,24.532261038179897,1.1866983089098648,0.0009948542283523673,0.0
3905,6.8965517241379315,2.7586206896551726,1.7857142857142858,0,523624.049663565,659114.1859095942,489878.2749688915,71801.9394212082,155371.09097840553,3.4908269977571e-06,0.0,0.0,0.0,3.4908269977571e-06,0.0,25.068364091411947,1.5102668875248213,0.0061367694179775565,0.0
3906,6.8965517241379315,2.7586206896551726,2.142857142857143,0,466468.3540063162,996852.6104833882,677409.1512186673,461551.8178841161,377905.67345230276,3.109789026708775e-06,0.0,0.0,0.0,3.109789026708775e-06,0.0,24.44375043622922,1.8336084358448246,0.020257669684787944,0.0
3907,6.8965517241379315,2.7586206896551726,2.5,0,534431.49688463,492735.1210335406,841107.0731186625,225792.13394553654,602445.3222357215,3.562876645897533e-06,0.0,0.0,0.0,3.562876645897533e-06,0.0,23.862383743062313,2.145638989024265,0.06024453222357215,0.0
3908,6.8965517241379315,2.7586206896551726,2.857142857142857,0,857003.9783697985,1135377.7304550186,635203.8913633387,145814.36303684796,426332.9818517941,5.713359855798656e-06,0.0,0.0,0.0,5.713359855798656e-06,0.0,23.945313175812664,2.440751292987682,0.02285362017242748,0.0
3909,6.8965517241379315,2.7586206896551726,3.2142857142857144,0,107295.06111943616,513047.01276003756,413927.56154465384,399115.4692993876,89301.38424032347,7.153004074629077e-07,0.0,0.0,0.0,7.153004074629077e-07,0.0,24.51703450056976,2.724552601810536,0.0035271812815245505,0.0
3910,6.8965517241379315,2.7586206896551726,3.5714285714285716,0,212233.89420308938,477834.7501980356,415318.2924130245,241364.44751814462,129455.95941525801,1.414892628020596e-06,0.0,0.0,0.0,1.414892628020596e-06,0.0,23.538235367772536,3.0081268803384367,0.004557847961001675,0.0
3911,6.8965517241379315,2.7586206896551726,3.928571428571429,0,222196.27955856136,415121.4027525235,366083.7683358427,172502.44923570132,10767.527287806242,1.481308530390409e-06,0.0,0.0,0.0,1.481308530390409e-06,0.0,24.960522949466807,3.29846331598778,0.0003650545711345027,0.0
3912,6.8965517241379315,2.7586206896551726,4.285714285714286,0,214199.48859623758,289388.37729011214,235700.55737951992,53452.06094513967,43436.79487484129,1.4279965906415839e-06,0.0,0.0,0.0,1.4279965906415839e-06,0.0,23.94561775003648,3.5957690456095968,0.0014554211746397319,0.0
3913,6.8965517241379315,2.7586206896551726,4.642857142857143,0,132752.1297599473,396007.3895206228,261486.10667559574,265098.1322286494,30855.40417395136,8.850141983996487e-07,0.0,0.0,0.0,8.850141983996487e-07,0.0,24.702424530596616,3.897144443005342,0.0010301395323594096,0.0
3914,6.8965517241379315,2.7586206896551726,5.0,0,97507.0031508042,322768.31428855157,250524.0277275613,211858.55199313472,-71691.5420836078,6.50046687672028e-07,0.0,0.0,0.0,6.50046687672028e-07,0.0,24.827115240776116,4.200136365328541,-0.0023908669000158827,0.0
3915,7.241379310344828,2.7586206896551726,0.0,0,81798.17256060723,208585.9003210139,134490.88690673103,120809.82400455067,-26238.21072859967,5.453211504040482e-07,0.0,0.0,0.0,5.453211504040482e-07,0.0,25.621800590554177,-0.04986814590960637,-0.0008750274819516569,0.0
3916,7.241379310344828,2.7586206896551726,0.35714285714285715,0,292742.3953788405,439373.29768790264,225363.79593959672,105767.4437201796,-15651.658598956445,1.95161596919227e-06,0.0,0.0,0.0,1.95161596919227e-06,0.0,23.94644038869839,0.2542636176828669,-0.0005225467856094316,0.0
3917,7.241379310344828,2.7586206896551726,0.7142857142857143,0,192426.23484942,301935.2604153196,364448.9710555178,148538.70297296983,-53581.099770930676,1.2828415656628e-06,0.0,0.0,0.0,1.2828415656628e-06,0.0,23.964868041163772,0.5599584283210141,-0.0017953227762729012,0.0
3918,7.241379310344828,2.7586206896551726,1.0714285714285714,0,167421.68850835212,305221.7653257092,202491.12018493548,112029.67273390498,-14314.878470196909,1.1161445900556807e-06,0.0,0.0,0.0,1.1161445900556807e-06,0.0,23.94374333411024,0.8695882739733939,-0.0004853214374202841,0.0
3919,7.241379310344828,2.7586206896551726,1.4285714285714286,0,107403.13635136822,393325.12763568654,480394.31510901835,360376.7092542295,-53283.42289867005,7.160209090091214e-07,0.0,0.0,0.0,7.160209090091214e-07,0.0,24.200149354915023,1.1859568553972437,-0.0018759873358543077,0.0
3920,7.241379310344828,2.7586206896551726,1.7857142857142858,0,416444.25362585933,646201.0949989377,572647.4918560351,197880.59346778426,-3419.4798530411863,2.7762950241723955e-06,0.0,0.0,0.0,2.7762950241723955e-06,0.0,23.79573545653175,1.5088638882433667,-0.00013506090003867008,0.0
3921,7.241379310344828,2.7586206896551726,2.142857142857143,0,654577.5750881758,897573.2933327546,708491.2254930508,169267.49191283676,364387.1509387699,4.363850500587839e-06,0.0,0.0,0.0,4.363850500587839e-06,0.0,24.728716143355644,1.8315514014113343,0.019533007995526267,0.0
3922,7.241379310344828,2.7586206896551726,2.5,0,378477.6034760462,1185444.4701139773,867672.3411396664,766729.7084659393,821489.2193885773,2.5231840231736413e-06,0.0,0.0,0.0,2.5231840231736413e-06,0.0,24.631571041777555,2.143302109808879,0.08214892193885773,0.0
3923,7.241379310344828,2.7586206896551726,2.857142857142857,0,350699.63443605346,664729.1795525709,469021.46875365276,259850.7281612487,218767.0755468849,2.337997562907023e-06,0.0,0.0,0.0,2.337997562907023e-06,0.0,24.00372810010569,2.4386942585541913,0.011727029959223916,0.0
3924,7.241379310344828,2.7586206896551726,3.2142857142857144,0,160079.85005444064,521842.0061248701,396475.50580226944,341523.7745970573,-9935.099102091488,1.0671990003629376e-06,0.0,0.0,0.0,1.0671990003629376e-06,0.0,23.781619463111124,2.7231496025290816,-0.00039241156093037437,0.0
3925,7.241379310344828,2.7586206896551726,3.5714285714285716,0,191477.34398526768,417887.44840722135,422798.4086724564,228912.82351033343,-17413.65907933779,1.2765156265684511e-06,0.0,0.0,0.0,1.2765156265684511e-06,0.0,23.923600560764445,3.0073854268258153,-0.0006130950702218768,0.0
3926,7.241379310344828,2.7586206896551726,3.928571428571429,0,335618.10750860395,507871.67202820204,212448.9350038973,142942.51206134818,-5182.165186596644,2.2374540500573595e-06,0.0,0.0,0.0,2.2374540500573595e-06,0.0,23.911876618793883,3.2981597025448233,-0.00017569243515022613,0.0
3927,7.241379310344828,2.7586206896551726,4.285714285714286,0,264945.43440493435,349190.0554533126,325960.0380992678,73394.50636440169,-55099.09157492665,1.7663028960328956e-06,0.0,0.0,0.0,1.7663028960328956e-06,0.0,24.398059467373642,3.5956727140352998,-0.0018461855855761943,0.0
3928,7.241379310344828,2.7586206896551726,4.642857142857143,0,288549.99846633815,433494.8195680327,151233.9303571147,139042.1833811847,-24900.41645264719,1.923666656442254e-06,0.0,0.0,0.0,1.923666656442254e-06,0.0,24.252438851869464,3.89712076054001,-0.0008313261176380713,0.0
3929,7.241379310344828,2.7586206896551726,5.0,0,263459.80874285765,358862.0421801073,163944.532748586,59125.15169435613,-28184.82535264188,1.7563987249523844e-06,0.0,0.0,0.0,1.7563987249523844e-06,0.0,24.571584028319624,4.200131854090394,-0.0009399458298689286,0.0
3930,7.586206896551724,2.7586206896551726,0.0,0,223604.43253603744,327935.35484029795,392199.095405182,143499.51980585695,11558.291914376756,1.4906962169069163e-06,0.0,0.0,0.0,1.4906962169069163e-06,0.0,24.765870642771795,-0.04987302082862276,0.00038546161451760935,0.0
3931,7.586206896551724,2.7586206896551726,0.35714285714285715,0,126153.13332749672,345207.66832355096,253328.58283834375,201373.85462423277,15455.735956903143,8.410208888499781e-07,0.0,0.0,0.0,8.410208888499781e-07,0.0,24.176258606191826,0.2542380260167138,0.00051600570587748,0.0
3932,7.586206896551724,2.7586206896551726,0.7142857142857143,0,118711.31784374658,352014.79514373204,215766.2283276659,270866.5716780591,-5559.775940061968,7.914087856249772e-07,0.0,0.0,0.0,7.914087856249772e-07,0.0,24.32819369268875,0.5598543308187114,-0.00018628942703379598,0.0
3933,7.586206896551724,2.7586206896551726,1.0714285714285714,0,327900.79905993165,420618.6657668416,365005.1509147663,68467.51306243605,-13937.273357364631,2.186005327066211e-06,0.0,0.0,0.0,2.186005327066211e-06,0.0,25.264550764918955,0.8692601842343018,-0.0004725193827944939,0.0
3934,7.586206896551724,2.7586206896551726,1.4285714285714286,0,354445.5773715007,556054.1569530016,413975.6438509641,152611.62213257092,-25471.029274360728,2.362970515810005e-06,0.0,0.0,0.0,2.362970515810005e-06,0.0,24.32647314510213,1.185155628392485,-0.0008967766286476263,0.0
3935,7.586206896551724,2.7586206896551726,1.7857142857142858,0,438653.61185860453,669717.5681683139,552394.271422171,184331.8588061044,69034.07408799647,2.924357412390697e-06,0.0,0.0,0.0,2.924357412390697e-06,0.0,23.801032935869163,1.5073477838715843,0.002726673231125697,0.0
3936,7.586206896551724,2.7586206896551726,2.142857142857143,0,672020.3249907817,1145430.1584490486,542457.5970609477,420943.42283736984,258771.43926868332,4.4801354999385445e-06,0.0,0.0,0.0,4.4801354999385445e-06,0.0,24.016442509433077,1.8293285357700284,0.013871467693706856,0.0
3937,7.586206896551724,2.7586206896551726,2.5,0,702617.0149367594,878993.5083848609,699908.6563081032,104164.91475215016,796960.2929260728,4.6841134329117295e-06,0.0,0.0,0.0,4.6841134329117295e-06,0.0,23.22242627164893,2.140776839239174,0.07969602929260729,0.0
3938,7.586206896551724,2.7586206896551726,2.857142857142857,0,592081.5495405431,848901.6585136368,705656.9893261575,198339.53009988533,210468.84420020334,3.9472103302702874e-06,0.0,0.0,0.0,3.9472103302702874e-06,0.0,24.332806587683905,2.4364713929128854,0.011282202476076206,0.0
3939,7.586206896551724,2.7586206896551726,3.2142857142857144,0,490784.2689359423,534268.6981539188,524110.11162394955,38483.99328766378,24807.474481184006,3.2718951262396153e-06,0.0,0.0,0.0,3.2718951262396153e-06,0.0,23.790054327179117,2.7216334981572987,0.000979833183732665,0.0
3940,7.586206896551724,2.7586206896551726,3.5714285714285716,0,359067.0212826872,463576.34726420074,260948.4836700596,48996.41436857918,43348.756202462006,2.393780141884581e-06,0.0,0.0,0.0,2.393780141884581e-06,0.0,23.62415686496392,3.0065841998210567,0.0015262104654107042,0.0
3941,7.586206896551724,2.7586206896551726,3.928571428571429,0,220607.2920795376,348364.0513213928,275531.43395828904,100549.69462450047,-14720.643450762076,1.4707152805302508e-06,0.0,0.0,0.0,1.4707152805302508e-06,0.0,23.64173724654321,3.297831612805731,-0.0004990782041321144,0.0
3942,7.586206896551724,2.7586206896551726,4.285714285714286,0,146615.55839589302,417454.4820608078,274481.10099260433,267449.7605199098,24484.087038076465,9.774370559726202e-07,0.0,0.0,0.0,9.774370559726202e-07,0.0,24.650741806505152,3.595568616532997,0.0008203795611443324,0.0
3943,7.586206896551724,2.7586206896551726,4.642857142857143,0,157681.64758111938,295511.8820936847,347640.1904369151,170494.99315978267,62355.8345864393,1.0512109838741292e-06,0.0,0.0,0.0,1.0512109838741292e-06,0.0,23.954326448756646,3.897095168873857,0.0020818139318033533,0.0
3944,7.586206896551724,2.7586206896551726,5.0,0,194051.08094835354,366178.7316201492,308920.3515112891,149941.09173547718,30246.153519489108,1.2936738729890237e-06,0.0,0.0,0.0,1.2936738729890237e-06,0.0,24.47064529720554,4.200126979171378,0.0010086898007886493,0.0
3945,7.931034482758621,2.7586206896551726,0.0,0,239958.9789820888,421620.1742635967,147774.50940336107,248136.0853989941,-44558.70584811659,1.5997265265472587e-06,0.0,0.0,0.0,1.5997265265472587e-06,0.0,24.138636934598814,-0.04987818479782313,-0.0014860042317901957,0.0
3946,7.931034482758621,2.7586206896551726,0.35714285714285715,0,58444.99968325822,217619.730294538,243697.67342027967,176753.4734493593,-42795.309779317155,3.8963333122172145e-07,0.0,0.0,0.0,3.8963333122172145e-07,0.0,24.050676868301743,0.25421091693544345,-0.00142876561119427,0.0
3947,7.931034482758621,2.7586206896551726,0.7142857142857143,0,342045.19930609525,529783.8660122943,191274.86776845704,184308.874468774,-6965.240163111814,2.2803013287073015e-06,0.0,0.0,0.0,2.2803013287073015e-06,0.0,23.763617137948543,0.559744061028809,-0.00023338181486580215,0.0
3948,7.931034482758621,2.7586206896551726,1.0714285714285714,0,223798.01626374037,361507.47978240316,311785.32678327936,117030.07258442942,17223.577822199702,1.4919867750916024e-06,0.0,0.0,0.0,1.4919867750916024e-06,0.0,24.207841896587244,0.868912640961903,0.0005839359072166195,0.0
3949,7.931034482758621,2.7586206896551726,1.4285714285714286,0,236177.9335245537,264967.16235474014,393951.6356306539,121367.42287581303,59310.483710945715,1.574519556830358e-06,0.0,0.0,0.0,1.574519556830358e-06,0.0,23.751755553493055,1.1843068939701935,0.0020881863490024503,0.0
3950,7.931034482758621,2.7586206896551726,1.7857142857142858,0,501334.0709861021,658096.4247853882,459505.2289467803,87890.00363832936,17120.680586234557,3.3422271399073474e-06,0.0,0.0,0.0,3.3422271399073474e-06,0.0,24.04767038195114,1.5057417846223378,0.0006762240541335261,0.0
3951,7.931034482758621,2.7586206896551726,2.142857142857143,0,594997.6116880954,951471.4600423987,610920.7170808507,264435.9396377833,310642.90932210523,3.966650744587303e-06,0.0,0.0,0.0,3.966650744587303e-06,0.0,24.52729669001213,1.8269738690217785,0.016652042795443765,0.0
3952,7.931034482758621,2.7586206896551726,2.5,0,618626.2573067404,1093867.8931259348,793842.292752067,382439.98308750207,613797.2732494319,4.124175048711603e-06,0.0,0.0,0.0,4.124175048711603e-06,0.0,24.637417743644885,2.138101836967185,0.06137972732494318,0.0
3953,7.931034482758621,2.7586206896551726,2.857142857142857,0,603218.2646208414,1132514.4291140344,701096.7459492077,443222.05555262644,330886.91432214784,4.0214550974722755e-06,0.0,0.0,0.0,4.0214550974722755e-06,0.0,23.76562736348094,2.4341167261646355,0.017737224615133537,0.0
3954,7.931034482758621,2.7586206896551726,3.2142857142857144,0,436987.2719410515,733288.8973561588,364880.9485548321,250480.56383881776,162608.11907699896,2.91324847960701e-06,0.0,0.0,0.0,2.91324847960701e-06,0.0,24.17447291180924,2.720027498908052,0.006422613923752861,0.0
3955,7.931034482758621,2.7586206896551726,3.5714285714285716,0,301608.03586594644,471859.5141143438,203184.79193025152,145616.3752473967,964.2627307009789,2.0107202391063097e-06,0.0,0.0,0.0,2.0107202391063097e-06,0.0,24.285252072154247,3.005735465398765,3.394948321303285e-05,0.0
3956,7.931034482758621,2.7586206896551726,3.928571428571429,0,321341.25509802223,417709.44909888005,111119.87665673817,83410.99501364493,6110.730004590084,2.1422750339868147e-06,0.0,0.0,0.0,2.1422750339868147e-06,0.0,24.11656607002368,3.2974840695333323,0.00020717383495007238,0.0
3957,7.931034482758621,2.7586206896551726,4.285714285714286,0,181128.79991710922,364190.70229001064,354634.5030720438,178472.96785274512,33908.18029203147,1.2075253327807281e-06,0.0,0.0,0.0,1.2075253327807281e-06,0.0,24.384366804914354,3.595458346743095,0.0011361492884712889,0.0
3958,7.931034482758621,2.7586206896551726,4.642857142857143,0,338809.7077588286,502430.1923497861,296346.8042636228,111396.75200515034,58992.86577441743,2.2587313850588572e-06,0.0,0.0,0.0,2.2587313850588572e-06,0.0,24.394646648300046,3.897068059792587,0.0019695377451157668,0.0
3959,7.931034482758621,2.7586206896551726,5.0,0,101585.70384318674,261030.25809971997,286364.2087038038,174509.03634481347,-1304.700374976493,6.772380256212449e-07,0.0,0.0,0.0,6.772380256212449e-07,0.0,24.93087641440804,4.200121815202177,-4.3510919842284266e-05,0.0
3960,8.275862068965518,2.7586206896551726,0.0,0,369888.43418953806,389849.4631926844,361446.71783778915,6578.426644827437,47755.675803383536,2.4659228945969204e-06,0.0,0.0,0.0,2.4659228945969204e-06,0.0,24.9440608109438,-0.04988357939967609,0.0015926211272320457,0.0
3961,8.275862068965518,2.7586206896551726,0.35714285714285715,0,210581.40733002886,384264.952355307,170284.45883649628,177255.75535055972,69333.20157491528,1.403876048866859e-06,0.0,0.0,0.0,1.403876048866859e-06,0.0,23.788245304991566,0.2541825971112195,0.0023147605341582353,0.0
3962,8.275862068965518,2.7586206896551726,0.7142857142857143,0,278403.96617202606,442440.3849082215,134283.5885901034,209063.12141976427,-4193.584798057265,1.8560264411468403e-06,0.0,0.0,0.0,1.8560264411468403e-06,0.0,24.705544029756712,0.5596288663810778,-0.00014051294830399544,0.0
3963,8.275862068965518,2.7586206896551726,1.0714285714285714,0,111369.04288060879,325889.5625361143,304568.3676008304,205401.28778700746,-21846.592341444823,7.424602858707252e-07,0.0,0.0,0.0,7.424602858707252e-07,0.0,24.09967665346877,0.8685495757482053,-0.0007406712966483975,0.0
3964,8.275862068965518,2.7586206896551726,1.4285714285714286,0,162490.996263826,296724.37391839677,345651.9988774455,164319.16618133817,105372.44720236657,1.0832733084255066e-06,0.0,0.0,0.0,1.0832733084255066e-06,0.0,23.796119731916512,1.183420253459862,0.003709922631576103,0.0
3965,8.275862068965518,2.7586206896551726,1.7857142857142858,0,389614.6743496676,673126.6135847593,230869.75332657676,380540.17736447946,141916.80268055035,2.5974311623311175e-06,0.0,0.0,0.0,2.5974311623311175e-06,0.0,24.19314389991999,1.5040640584025158,0.005605358687403446,0.0
3966,8.275862068965518,2.7586206896551726,2.142857142857143,0,780490.3911921717,1021362.5749690288,746411.3478824899,140605.97970618508,365912.7420750814,5.203269274614478e-06,0.0,0.0,0.0,5.203269274614478e-06,0.0,23.777832319340405,1.8245140383933798,0.01961478745395861,0.0
3967,8.275862068965518,2.7586206896551726,2.5,0,936427.3793841761,1476723.4143453669,705361.4648044227,434805.59668917937,730438.5879340665,6.242849195894507e-06,0.0,0.0,0.0,6.242849195894507e-06,0.0,23.877729090554453,2.135307364023375,0.07304385879340665,0.0
3968,8.275862068965518,2.7586206896551726,2.857142857142857,0,322407.22100555856,721292.6286175718,520795.1967867679,349387.87829750916,263658.43414259725,2.1493814733703903e-06,0.0,0.0,0.0,2.1493814733703903e-06,0.0,23.35553438645335,2.4316568955362365,0.014133435520235124,0.0
3969,8.275862068965518,2.7586206896551726,3.2142857142857144,0,398810.387746834,803379.9414694444,413337.19797007984,396345.0818059108,141155.58812908866,2.6587359183122266e-06,0.0,0.0,0.0,2.6587359183122266e-06,0.0,23.948750793844123,2.71834977268823,0.005575292616871838,0.0
3970,8.275862068965518,2.7586206896551726,3.5714285714285716,0,629826.8866947938,671336.4928146454,96450.45898513599,-1867.386921221332,-76284.51134055758,4.198845911298625e-06,0.0,0.0,0.0,4.198845911298625e-06,0.0,24.3796121899424,3.0048488248884335,-0.0026858030023497667,0.0
3971,8.275862068965518,2.7586206896551726,3.928571428571429,0,250117.06539600212,362436.2893696954,228069.64768908662,73853.44141852713,42226.586932244834,1.6674471026400142e-06,0.0,0.0,0.0,1.6674471026400142e-06,0.0,24.278288005739242,3.2971210043196346,0.0014316201084051362,0.0
3972,8.275862068965518,2.7586206896551726,4.285714285714286,0,71011.9723737889,282291.03663093067,212777.10696305084,285197.85290049325,-27458.8733075568,4.7341314915859267e-07,0.0,0.0,0.0,4.7341314915859267e-07,0.0,24.104590153137277,3.5953431520953636,-0.000920054662382912,0.0
3973,8.275862068965518,2.7586206896551726,4.642857142857143,0,362506.4651472667,348456.10925647215,307797.5709876482,-32665.482028714534,-62736.820482258634,2.4167097676484444e-06,0.0,0.0,0.0,2.4167097676484444e-06,0.0,24.795851531350827,3.8970397399683625,-0.0020945335393749236,0.0
3974,8.275862068965518,2.7586206896551726,5.0,0,150871.92234662917,380318.99219578825,253477.71988720883,213477.82770247431,-75903.47825073473,1.0058128156441946e-06,0.0,0.0,0.0,1.0058128156441946e-06,0.0,24.99926806803953,4.200116420600324,-0.0025313322669795273,0.0
3975,8.620689655172415,2.7586206896551726,0.0,0,292532.9161754059,432878.35060774506,322015.6432397457,101118.20339624291,-18523.00497954282,1.950219441169373e-06,0.0,0.0,0.0,1.950219441169373e-06,0.0,24.032476143417117,-0.04988915924157275,-0.0006177303236520039,0.0
3976,8.620689655172415,2.7586206896551726,0.35714285714285715,0,235386.32268464117,343069.79114397906,73963.15127114515,175456.93114326778,27668.85472765214,1.569242151230941e-06,0.0,0.0,0.0,1.569242151230941e-06,0.0,24.586933629045863,0.25415330483979365,0.0009237532883826727,0.0
3977,8.620689655172415,2.7586206896551726,0.7142857142857143,0,279304.4902478603,511742.38384609274,207727.68538869554,266502.55307790864,-54246.65026017057,1.8620299349857355e-06,0.0,0.0,0.0,1.8620299349857355e-06,0.0,23.96740025582802,0.5595097161751492,-0.0018176231388485164,0.0
3978,8.620689655172415,2.7586206896551726,1.0714285714285714,0,135443.2295643883,312503.5773063796,326219.0528713236,184439.92044607393,-49430.08717245489,9.029548637625888e-07,0.0,0.0,0.0,9.029548637625888e-07,0.0,23.84154114756856,0.8681740435873838,-0.0016758424466048413,0.0
3979,8.620689655172415,2.7586206896551726,1.4285714285714286,0,20293.280043608404,304775.943076538,298265.09703609033,321014.72118912556,-17222.21650868361,1.35288533624056e-07,0.0,0.0,0.0,1.35288533624056e-07,0.0,24.282704423424725,1.182503167453947,-0.0006063548155882055,0.0
3980,8.620689655172415,2.7586206896551726,1.7857142857142858,0,538116.9079220985,817624.5262192349,581811.6240368803,201858.6441991138,124578.85116927057,3.58744605281399e-06,0.0,0.0,0.0,3.58744605281399e-06,0.0,23.771765081869972,1.5023287223559145,0.0049205529752546695,0.0
3981,8.620689655172415,2.7586206896551726,2.142857142857143,0,210047.05270839948,540634.5135411322,336316.5973747397,325292.49046342185,466581.030836704,1.4003136847226631e-06,0.0,0.0,0.0,1.4003136847226631e-06,0.0,22.63192801098597,1.8219697420072585,0.025011120678691715,0.0
3982,8.620689655172415,2.7586206896551726,2.5,0,418867.7652204039,1119388.248900287,987569.6225061854,650467.6554114625,689701.6609222464,2.792451768136026e-06,0.0,0.0,0.0,2.792451768136026e-06,0.0,23.68711451131243,2.1324169343612813,0.06897016609222464,0.0
3983,8.620689655172415,2.7586206896551726,2.857142857142857,0,1192869.595141689,1610307.6447800484,567510.0949304743,309570.8023041561,471623.6210241229,7.95246396761126e-06,0.0,0.0,0.0,7.95246396761126e-06,0.0,23.068404346693985,2.4291125991501157,0.025281429206847165,0.0
3984,8.620689655172415,2.7586206896551726,3.2142857142857144,0,309536.57436904515,667835.0934397331,370044.24517291225,347757.45969177526,116549.34409522345,2.063577162460301e-06,0.0,0.0,0.0,2.063577162460301e-06,0.0,23.63200644300528,2.716614436641629,0.004603407532411023,0.0
3985,8.620689655172415,2.7586206896551726,3.5714285714285716,0,105886.36256773131,362579.29518622643,419763.6352499997,297579.8779015807,-13612.848528971914,7.059090837848755e-07,0.0,0.0,0.0,7.059090837848755e-07,0.0,23.558093269796192,3.003931738882519,-0.00047927723212938837,0.0
3986,8.620689655172415,2.7586206896551726,3.928571428571429,0,156766.51688134388,397527.68495188653,374951.20234492014,230696.94900487617,36833.22740537798,1.0451101125422925e-06,0.0,0.0,0.0,1.0451101125422925e-06,0.0,23.56581724718221,3.296745472158813,0.0012487674908608813,0.0
3987,8.620689655172415,2.7586206896551726,4.285714285714286,0,338477.1972556677,386367.3982363193,354008.8100174843,32872.96306677229,-50120.26674647766,2.256514648371118e-06,0.0,0.0,0.0,2.256514648371118e-06,0.0,23.314366173794188,3.5952240018894353,-0.0016793618799822128,0.0
3988,8.620689655172415,2.7586206896551726,4.642857142857143,0,288356.5113213178,401592.5647022358,431007.22609665437,129070.78668535592,18928.802042344596,1.9223767421421187e-06,0.0,0.0,0.0,1.9223767421421187e-06,0.0,23.245465250657713,3.8970104476969367,0.000631957603734335,0.0
3989,8.620689655172415,2.7586206896551726,5.0,0,236014.80172947215,440539.99100774515,370870.7323230638,177532.9872833438,-45359.599858923866,1.5734320115298143e-06,0.0,0.0,0.0,1.5734320115298143e-06,0.0,23.526133664754635,4.200110840758428,-0.0015127135328487078,0.0
3990,8.965517241379311,2.7586206896551726,0.0,0,153371.7711593828,317128.26566033065,216540.66600397465,140602.53134212128,5716.6574165432,1.0224784743958854e-06,0.0,0.0,0.0,1.0224784743958854e-06,0.0,23.51303947102545,-0.04989488906761649,0.00019064685454811228,0.0
3991,8.965517241379311,2.7586206896551726,0.35714285714285715,0,325060.8863606721,535544.0209570121,291625.19804025214,166517.23870321014,48791.97403558146,2.167072575737814e-06,0.0,0.0,0.0,2.167072575737814e-06,0.0,23.55421993437495,0.2541232252026275,0.0016289704400741184,0.0
3992,8.965517241379311,2.7586206896551726,0.7142857142857143,0,211398.31879575102,421373.7627284136,252240.49463823967,184377.79289613973,8569.398776703494,1.4093221253050067e-06,0.0,0.0,0.0,1.4093221253050067e-06,0.0,23.837465384115575,0.5593873632544591,0.0002871317846881457,0.0
3993,8.965517241379311,2.7586206896551726,1.0714285714285714,0,344149.391667092,473991.1721541981,457627.73419620056,121951.95040919085,-255.28038275100005,2.2943292777806133e-06,0.0,0.0,0.0,2.2943292777806133e-06,0.0,24.065927251347222,0.8677884172568919,-8.6548441581154e-06,0.0
3994,8.965517241379311,2.7586206896551726,1.4285714285714286,0,258676.23953908775,420503.4047751181,442916.2090738465,173762.82292450665,16915.497131707365,1.7245082635939183e-06,0.0,0.0,0.0,1.7245082635939183e-06,0.0,23.21257827042655,1.1815614305054185,0.0005955559285128985,0.0
3995,8.965517241379311,2.7586206896551726,1.7857142857142858,0,653237.0469257928,866152.489384095,456213.86828473065,112838.95786122313,118263.86649652949,4.354913646171952e-06,0.0,0.0,0.0,4.354913646171952e-06,0.0,23.284882181508866,1.5005467410993498,0.004671126878220565,0.0
3996,8.965517241379311,2.7586206896551726,2.142857142857143,0,623574.8424281245,968215.8531217764,893697.7666794849,310730.33900149626,602779.9420822009,4.157165616187497e-06,0.0,0.0,0.0,4.157165616187497e-06,0.0,24.5593108906711,1.8193570558476566,0.032312076311968974,0.0
3997,8.965517241379311,2.7586206896551726,2.5,0,1009945.0413799521,1267631.0841802268,544710.0165281232,113688.47859071227,771312.5932258435,6.7329669425330144e-06,0.0,0.0,0.0,6.7329669425330144e-06,0.0,24.11035226582504,2.1294488109875074,0.07713125932258436,0.0
3998,8.965517241379311,2.7586206896551726,2.857142857142857,0,370089.68815736857,830207.6068368802,765570.9446360726,432057.410387007,333673.40109022625,2.4672645877157903e-06,0.0,0.0,0.0,2.4672645877157903e-06,0.0,23.34861044549847,2.4264999129905136,0.01788659450422013,0.0
3999,8.965517241379311,2.7586206896551726,3.2142857142857144,0,266291.3383964473,551552.1585239895,353009.05396238575,248942.08645844227,58193.35009929723,1.7752755893096486e-06,0.0,0.0,0.0,1.7752755893096486e-06,0.0,23.114440110087866,2.7148324553850642,0.0022984917526817335,0.0
4000,8.965517241379311,2.7586206896551726,3.5714285714285716,0,412333.50396028155,547116.0652858629,174228.9974478554,104283.48232703879,-37291.94277932551,2.748890026401877e-06,0.0,0.0,0.0,2.748890026401877e-06,0.0,23.496642363467668,3.00299000193399,-0.0013129639309482936,0.0
4001,8.965517241379311,2.7586206896551726,3.928571428571429,0,56069.252820772424,377120.2738995539,354619.41479105456,313295.6623125394,-51018.957447221415,3.737950188051495e-07,0.0,0.0,0.0,3.737950188051495e-07,0.0,23.62403930732231,3.296359845828321,-0.0017297103720105291,0.0
4002,8.965517241379311,2.7586206896551726,4.285714285714286,0,203493.03604461026,333089.05618344044,354170.4751114601,140957.3796383073,-97702.61858450204,1.3566202402974017e-06,0.0,0.0,0.0,1.3566202402974017e-06,0.0,24.096287296011084,3.595101648968745,-0.003273686751413498,0.0
4003,8.965517241379311,2.7586206896551726,4.642857142857143,0,152330.166671966,348897.24788687425,316896.6487379993,183108.9283679375,-18482.674229479715,1.0155344444797733e-06,0.0,0.0,0.0,1.0155344444797733e-06,0.0,22.609103773746632,3.8969803680597708,-0.0006170631659909093,0.0
4004,8.965517241379311,2.7586206896551726,5.0,0,301244.36005223065,456286.24799565034,265577.9937983785,108997.73301189549,-56223.09562409279,2.0082957336815375e-06,0.0,0.0,0.0,2.0082957336815375e-06,0.0,23.282512765913154,4.200105110932384,-0.0018750041418736161,0.0
4005,9.310344827586208,2.7586206896551726,0.0,0,208838.70252821906,361589.95736238756,184779.0607903446,131173.82703549735,4014.3919712224133,1.3922580168547936e-06,0.0,0.0,0.0,1.3922580168547936e-06,0.0,24.511898721615935,-0.04990074139236876,0.00013387739486049813,0.0
4006,9.310344827586208,2.7586206896551726,0.35714285714285715,0,211061.37485680508,403974.3086209725,193504.5081351244,192326.2923207209,-21077.390327932197,1.4070758323787004e-06,0.0,0.0,0.0,1.4070758323787004e-06,0.0,23.62477064703739,0.2540925024889215,-0.0007036904424704634,0.0
4007,9.310344827586208,2.7586206896551726,0.7142857142857143,0,249852.0915799503,416277.45608145674,210064.977612225,138433.19019105434,-45046.62142028838,1.665680610533002e-06,0.0,0.0,0.0,1.665680610533002e-06,0.0,23.6525616485322,0.5592623945345012,-0.0015093610578307424,0.0
4008,9.310344827586208,2.7586206896551726,1.0714285714285714,0,101076.57348838773,263621.0467297048,279328.54999028065,171317.77432202175,-89669.36600970142,6.738438232559182e-07,0.0,0.0,0.0,6.738438232559182e-07,0.0,23.34391070307301,0.8673945465700962,-0.0030400862777143255,0.0
4009,9.310344827586208,2.7586206896551726,1.4285714285714286,0,153136.57503466154,350701.2571890642,454782.97591641935,278943.66145973053,-11112.676907724595,1.020910500231077e-06,0.0,0.0,0.0,1.020910500231077e-06,0.0,24.025199380771934,1.1805995600381587,-0.00039125191311334276,0.0
4010,9.310344827586208,2.7586206896551726,1.7857142857142858,0,502660.581492727,759677.0990468053,649223.0564929529,210975.06467474747,-49756.32460180175,3.3510705432848466e-06,0.0,0.0,0.0,3.3510705432848466e-06,0.0,22.73372511064281,1.4987266626299025,-0.001965250351558257,0.0
4011,9.310344827586208,2.7586206896551726,2.142857142857143,0,669345.7788304255,899152.221019666,390506.9248438429,140861.57429814502,472229.22714764863,4.462305192202836e-06,0.0,0.0,0.0,4.462305192202836e-06,0.0,23.427844029957093,1.8166885127252215,0.025313892780885083,0.0
4012,9.310344827586208,2.7586206896551726,2.5,0,1205309.0848519555,1503125.2913323322,696568.198200918,117569.17113165144,747613.2767254816,8.035393899013037e-06,0.0,0.0,0.0,8.035393899013037e-06,0.0,22.604474452446503,2.126417231711706,0.07476132767254817,0.0
4013,9.310344827586208,2.7586206896551726,2.857142857142857,0,614632.0401726252,1258527.9878055882,586327.846256263,725240.7671388398,373838.5320285519,4.097546934484168e-06,0.0,0.0,0.0,4.097546934484168e-06,0.0,23.639894151528054,2.4238313698680782,0.020039650180685258,0.0
4014,9.310344827586208,2.7586206896551726,3.2142857142857144,0,588649.8180679306,814185.7586110283,137864.6567658212,417280.5593315607,178243.93541106302,3.924332120452871e-06,0.0,0.0,0.0,3.924332120452871e-06,0.0,23.43150673424957,2.713012376915617,0.007040189554455838,0.0
4015,9.310344827586208,2.7586206896551726,3.5714285714285716,0,364540.00314216735,677752.3975908216,404093.17300271755,263934.7251041512,6734.3383987331335,2.430266687614449e-06,0.0,0.0,0.0,2.430266687614449e-06,0.0,22.84433209189421,3.0020281314667305,0.00023710063776131898,0.0
4016,9.310344827586208,2.7586206896551726,3.928571428571429,0,248324.6268202272,420482.59441828256,278260.73119709635,133745.0723745387,16782.45953067503,1.655497512134848e-06,0.0,0.0,0.0,1.655497512134848e-06,0.0,24.16927552090845,3.2959659751415256,0.0005689805470463708,0.0
4017,9.310344827586208,2.7586206896551726,4.285714285714286,0,358633.8110255542,468891.1636999722,281129.53290857497,55358.368938230575,28537.63614004064,2.3908920735036947e-06,0.0,0.0,0.0,2.3908920735036947e-06,0.0,24.013779382634088,3.594976680248787,0.0009562003833859294,0.0
4018,9.310344827586208,2.7586206896551726,4.642857142857143,0,242994.02188751768,365354.8730451406,400956.3812162249,142125.5581869313,-21383.849639346372,1.6199601459167845e-06,0.0,0.0,0.0,1.6199601459167845e-06,0.0,24.188359578224162,3.896949645346065,-0.0007139219030589427,0.0
4019,9.310344827586208,2.7586206896551726,5.0,0,407434.62332388357,616500.9060876855,296844.5989499801,157728.18196537954,-21148.388206634183,2.7162308221592237e-06,0.0,0.0,0.0,2.7162308221592237e-06,0.0,22.9248765923451,4.200099258607631,-0.000705285168687829,0.0
4020,9.655172413793103,2.7586206896551726,0.0,0,460785.9416025151,599832.751106517,263623.2770378301,74592.07897412276,1779.9633020449137,3.0719062773501007e-06,0.0,0.0,0.0,3.0719062773501007e-06,0.0,23.021975350739147,-0.04990669465504395,5.936063332462769e-05,0.0
4021,9.655172413793103,2.7586206896551726,0.35714285714285715,0,351653.70514973084,430561.69253106293,349824.91213129694,45560.87848869847,-57838.72464795014,2.344358034331539e-06,0.0,0.0,0.0,2.344358034331539e-06,0.0,24.129585132811027,0.2540612498854642,-0.001931005551740725,0.0
4022,9.655172413793103,2.7586206896551726,0.7142857142857143,0,410000.6953273258,464229.33261739026,392894.8585422036,23242.327032538644,76937.39930147646,2.7333379688488386e-06,0.0,0.0,0.0,2.7333379688488386e-06,0.0,23.938534558565458,0.559135270417576,0.002577913964134079,0.0
4023,9.655172413793103,2.7586206896551726,1.0714285714285714,0,291589.5888723483,564643.4108275193,337089.1772393545,235950.51652787003,7422.292275369154,1.943930592482322e-06,0.0,0.0,0.0,1.943930592482322e-06,0.0,24.23978685045499,0.8669938826018773,0.0002516401074263594,0.0
4024,9.655172413793103,2.7586206896551726,1.4285714285714286,0,389048.34600399976,500735.5641748199,432255.6189736609,81993.98122991087,-3881.853445646928,2.593655640026665e-06,0.0,0.0,0.0,2.593655640026665e-06,0.0,23.42277670156498,1.1796210997179455,-0.0001366711728997765,0.0
4025,9.655172413793103,2.7586206896551726,1.7857142857142858,0,260392.97257297407,641988.7642465538,495814.2961589636,341350.9450027373,231977.9324060695,1.7359531504864939e-06,0.0,0.0,0.0,1.7359531504864939e-06,0.0,23.492812597939857,1.4968751923720598,0.009162548015017109,0.0
4026,9.655172413793103,2.7586206896551726,2.142857142857143,0,813184.2382219684,1286362.8066654012,748549.3249661668,350870.6628331253,292368.5714155559,5.421228254813123e-06,0.0,0.0,0.0,5.421228254813123e-06,0.0,23.860282688772557,1.8139739439272835,0.015672445168244342,0.0
4027,9.655172413793103,2.7586206896551726,2.5,0,558288.9195957473,1308570.1362834903,930973.2329508143,667276.434157474,941294.1836060778,3.721926130638315e-06,0.0,0.0,0.0,3.721926130638315e-06,0.0,22.8813919802397,2.123333365297339,0.09412941836060779,0.0
4028,9.655172413793103,2.7586206896551726,2.857142857142857,0,583730.4416468159,1135039.6527392683,601547.3627896853,511529.2846023873,502031.00411699887,3.891536277645439e-06,0.0,0.0,0.0,3.891536277645439e-06,0.0,23.65959328616701,2.4211168010701405,0.026911419878982525,0.0
4029,9.655172413793103,2.7586206896551726,3.2142857142857144,0,306959.3546211315,615730.9512793325,433366.0110752744,261335.03769901284,160401.7537525894,2.04639569747421e-06,0.0,0.0,0.0,2.04639569747421e-06,0.0,24.83394909875173,2.711160906657774,0.006335468012872924,0.0
4030,9.655172413793103,2.7586206896551726,3.5714285714285716,0,246573.70885015168,338682.3689299192,503317.1295251252,219827.83120977605,-2571.8533670409124,1.6438247256676778e-06,0.0,0.0,0.0,1.6438247256676778e-06,0.0,23.392239954542326,3.001049671146517,-9.054906918082844e-05,0.0
4031,9.655172413793103,2.7586206896551726,3.928571428571429,0,309907.3638556543,464918.2183560767,489052.6143903959,167783.66610651335,2764.6761015186917,2.066049092371029e-06,0.0,0.0,0.0,2.066049092371029e-06,0.0,22.774176498913043,3.2955653111733065,9.373160815748807e-05,0.0
4032,9.655172413793103,2.7586206896551726,4.285714285714286,0,359700.4549916837,508904.2429943839,438858.21897094516,119332.80945169064,-14786.917448559367,2.3980030332778912e-06,0.0,0.0,0.0,2.3980030332778912e-06,0.0,23.78617797895745,3.594849556131862,-0.0004954599625569554,0.0
4033,9.655172413793103,2.7586206896551726,4.642857142857143,0,197877.56814207244,410142.4113055425,187000.07091538823,256013.58706652268,42797.04520466518,1.3191837876138164e-06,0.0,0.0,0.0,1.3191837876138164e-06,0.0,23.134783727248095,3.8969183927426077,0.001428823550161667,0.0
4034,9.655172413793103,2.7586206896551726,5.0,0,397543.80949241575,552832.7255072267,178665.9552635833,135444.10488299053,16823.326596170024,2.6502920632827717e-06,0.0,0.0,0.0,2.6502920632827717e-06,0.0,23.536606751399027,4.200093305344956,0.0005610471408193711,0.0
4035,10.0,2.7586206896551726,0.0,0,198362.82749257731,385318.45304755383,207121.72683793586,171591.6164425819,-25045.442833179626,1.3224188499505155e-06,0.0,0.0,0.0,1.3224188499505155e-06,0.0,23.978242618793626,-0.04991273181431152,-0.0008352494384380212,0.0
4036,10.0,2.7586206896551726,0.35714285714285715,0,288525.2154895094,353926.09049646306,326035.02677331987,52468.18255942323,-22990.332092666205,1.9235014365967292e-06,0.0,0.0,0.0,1.9235014365967292e-06,0.0,23.71824831382081,0.25402955685344253,-0.0007675559787585114,0.0
4037,10.0,2.7586206896551726,0.7142857142857143,0,334099.1834409099,443923.51600266073,62211.177208301095,204652.14047158352,-660.2625520561827,2.227327889606066e-06,0.0,0.0,0.0,2.227327889606066e-06,0.0,23.1996679520604,0.5590063547989481,-2.2123181552716896e-05,0.0
4038,10.0,2.7586206896551726,1.0714285714285714,0,284172.30979308556,455931.56324228644,269920.13026752335,128823.92075867609,-15107.191916002244,1.894482065287237e-06,0.0,0.0,0.0,1.894482065287237e-06,0.0,23.867908979895358,0.8665875722606593,-0.0005121834678040024,0.0
4039,10.0,2.7586206896551726,1.4285714285714286,0,418910.2599553144,621702.2532780744,528729.8471069408,164116.42155743894,84445.97753738059,2.7927350663687625e-06,0.0,0.0,0.0,2.7927350663687625e-06,0.0,22.61943264368457,1.1786288504065299,0.0029731495426867077,0.0
4040,10.0,2.7586206896551726,1.7857142857142858,0,494075.7442905584,652122.0613609783,691851.2497045295,179110.3680209268,143664.86327678594,3.2938382952703892e-06,0.0,0.0,0.0,3.2938382952703892e-06,0.0,23.556686139364224,1.4949976301955474,0.005674402708013698,0.0
4041,10.0,2.7586206896551726,2.142857142857143,0,926469.5624816066,1456257.3241348716,683960.9558094388,429004.9442220648,523417.29687349265,6.176463749877378e-06,0.0,0.0,0.0,6.176463749877378e-06,0.0,23.270868737867847,1.811221119959975,0.028057834142852806,0.0
4042,10.0,2.7586206896551726,2.5,0,1628754.6765205865,1874587.551171702,825141.701097625,-1741.5857885445928,807736.6573399812,1.0858364510137243e-05,0.0,0.0,0.0,1.0858364510137243e-05,0.0,22.28775487809353,2.12020603937217,0.08077366573399812,0.0
4043,10.0,2.7586206896551726,2.857142857142857,0,454723.33002737287,1134449.7389722855,930097.813302277,613402.0478869701,336743.5876905294,3.0314888668491524e-06,0.0,0.0,0.0,3.0314888668491524e-06,0.0,22.866980972149474,2.418363977102832,0.01805117214988348,0.0
4044,10.0,2.7586206896551726,3.2142857142857144,0,575475.5880685734,964624.4216104156,684570.6872908206,302726.3233187347,135013.1346654421,3.836503920457156e-06,0.0,0.0,0.0,3.836503920457156e-06,0.0,23.46976491914952,2.709283344481262,0.005332681070993618,0.0
4045,10.0,2.7586206896551726,3.5714285714285716,0,226302.85628511402,424904.32291019027,319673.35209216987,165146.82136653955,-106265.4783640564,1.5086857085674268e-06,0.0,0.0,0.0,1.5086857085674268e-06,0.0,23.85516089954466,3.0000574218351015,-0.0037413642143182503,0.0
4046,10.0,2.7586206896551726,3.928571428571429,0,451540.95588028047,563281.6269056979,302782.64054985193,41887.09231991049,8366.129409422227,3.01027303920187e-06,0.0,0.0,0.0,3.01027303920187e-06,0.0,23.497427498024443,3.2951590008320886,0.0002836392889452911,0.0
4047,10.0,2.7586206896551726,4.285714285714286,0,305226.86003112193,544223.301048083,264043.80466679524,218963.29757840114,-36536.94916691395,2.034845733540813e-06,0.0,0.0,0.0,2.034845733540813e-06,0.0,23.343242445705307,3.5947206405132337,-0.0012242305084315082,0.0
4048,10.0,2.7586206896551726,4.642857142857143,0,372727.8741124202,525999.4871767944,194546.13858602854,122512.26859085793,-39880.56038550135,2.4848524940828012e-06,0.0,0.0,0.0,2.4848524940828012e-06,0.0,23.900903517543412,3.8968866997105858,-0.0013314536926544009,0.0
4049,10.0,2.7586206896551726,5.0,0,151703.92378433092,447057.288774851,294208.2511309694,296525.0155673769,-20778.36602784016,1.0113594918955394e-06,0.0,0.0,0.0,1.0113594918955394e-06,0.0,23.637868160859355,4.200087268185689,-0.0006929451665922029,0.0
4050,0.0,3.1034482758620694,0.0,0,90826.5140671668,183484.70211238656,287375.2787830528,222999.5151201,-3764.174517775827,6.05510093781112e-07,0.0,0.0,0.0,6.05510093781112e-07,0.0,23.970749383700294,-0.04991018770100537,-0.0001255328034363935,0.0
4051,0.0,3.1034482758620694,0.35714285714285715,0,165972.10013504053,390973.61801084806,200888.99911591786,317088.2522914543,-1050.2305263810622,1.106480667566937e-06,0.0,0.0,0.0,1.106480667566937e-06,0.0,23.764061992914822,0.25404291258266964,-3.5063030683912035e-05,0.0
4052,0.0,3.1034482758620694,0.7142857142857143,0,191893.5891532179,393644.71922398696,373125.6357159367,192316.14552837212,35564.936345755305,1.279290594354786e-06,0.0,0.0,0.0,1.279290594354786e-06,0.0,23.1255690796705,0.5590606810020822,0.0011916616219376525,0.0
4053,0.0,3.1034482758620694,1.0714285714285714,0,85792.65170938979,372887.6529247573,369325.02578448993,285369.1837380344,-7763.99826127427,5.719510113959319e-07,0.0,0.0,0.0,5.719510113959319e-07,0.0,23.821770695550942,0.8667587950990354,-0.0002632250636381675,0.0
4054,0.0,3.1034482758620694,1.4285714285714286,0,251936.11119222335,551911.1395648483,452080.1608460302,265358.51049847674,1291.1593499935916,1.6795740746148224e-06,0.0,0.0,0.0,1.6795740746148224e-06,0.0,23.97152485553067,1.179046993205869,4.5458764797527965e-05,0.0
4055,0.0,3.1034482758620694,1.7857142857142858,0,408533.192371161,707069.5183681687,421665.3054403138,239086.46302889474,-26412.307238468784,2.7235546158077402e-06,0.0,0.0,0.0,2.7235546158077402e-06,0.0,24.19587389183217,1.4957888518123204,-0.0010432200630025202,0.0
4056,0.0,3.1034482758620694,2.142857142857143,0,547709.2968069146,954828.7314488132,346776.2792320608,500171.71392108453,286561.7315437447,3.6513953120460975e-06,0.0,0.0,0.0,3.6513953120460975e-06,0.0,23.236952189375966,1.8123811847809177,0.015361168962833112,0.0
4057,0.0,3.1034482758620694,2.5,0,750259.2920853498,1060458.1938514302,1067489.3338088768,313739.1820734977,814887.4378031157,5.001728613902332e-06,0.0,0.0,0.0,5.001728613902332e-06,0.0,23.323693076408652,2.1215239226921696,0.08148874378031157,0.0
4058,0.0,3.1034482758620694,2.857142857142857,0,309563.87634163664,979777.5226028339,648511.3875775514,930449.4608926885,503357.0604284473,2.063759175610911e-06,0.0,0.0,0.0,2.063759175610911e-06,0.0,23.950186698153114,2.4195240419237747,0.02698250325408867,0.0
4059,0.0,3.1034482758620694,3.2142857142857144,0,604402.8589806337,944835.3987007929,402742.69902624673,293125.88455203123,61190.523995742114,4.029352393204224e-06,0.0,0.0,0.0,4.029352393204224e-06,0.0,23.93550311002002,2.7100745660980348,0.0024168726238736594,0.0
4060,0.0,3.1034482758620694,3.5714285714285716,0,238378.63645420576,467515.6185518806,241672.9140843391,218319.987942268,57034.0990323442,1.589190909694705e-06,0.0,0.0,0.0,1.589190909694705e-06,0.0,23.264301042274344,3.0004755646344408,0.0020080400559103107,0.0
4061,0.0,3.1034482758620694,3.928571428571429,0,169379.83012509413,415845.3490274769,298985.2403426666,221594.4085819525,-64971.257716444496,1.1291988675006275e-06,0.0,0.0,0.0,1.1291988675006275e-06,0.0,23.187981421480867,3.2953302236704647,-0.0022027392165149713,0.0
4062,0.0,3.1034482758620694,4.285714285714286,0,353193.9502536945,408873.4918932992,456932.94558046805,82170.1533163599,17939.48462150112,2.35462633502463e-06,0.0,0.0,0.0,2.35462633502463e-06,0.0,23.312416612551324,3.594774966716368,0.000601091905042452,0.0
4063,0.0,3.1034482758620694,4.642857142857143,0,197297.52747837937,478952.48403050104,268636.2863322068,297954.8368679517,-38205.73827990024,1.3153168498558626e-06,0.0,0.0,0.0,1.3153168498558626e-06,0.0,23.573294064051957,3.8969000554398128,-0.0012755380270898689,0.0
4064,0.0,3.1034482758620694,5.0,0,355517.4302346152,489374.45627491834,216172.0843696904,87418.80702906592,-41739.78445064924,2.3701162015641017e-06,0.0,0.0,0.0,2.3701162015641017e-06,0.0,23.09449451960737,4.2000898122989945,-0.0013919950130305923,0.0
4065,0.3448275862068966,3.1034482758620694,0.0,0,247987.39423661472,162245.03725041068,344507.5521671292,62109.388416957656,-31734.530083516518,1.6532492949107648e-06,0.0,0.0,0.0,1.6532492949107648e-06,0.0,23.773670690413425,-0.0499039923898561,-0.0010583262036092567,0.0
4066,0.3448275862068966,3.1034482758620694,0.35714285714285715,0,301756.5225249912,499745.36075271637,304812.7016257106,152163.1726543508,-3351.379438572282,2.011710150166608e-06,0.0,0.0,0.0,2.011710150166608e-06,0.0,22.705138107298307,0.2540754358582593,-0.00011188926348676238,0.0
4067,0.3448275862068966,3.1034482758620694,0.7142857142857143,0,450910.40642375447,535870.0359321394,114952.25595739382,60003.23065759173,18276.34240326222,3.006069376158363e-06,0.0,0.0,0.0,3.006069376158363e-06,0.0,23.15743050444316,0.5591929737467328,0.0006123788784443786,0.0
4068,0.3448275862068966,3.1034482758620694,1.0714285714285714,0,45230.071294590845,338798.394291197,357028.5693123156,305528.28523103945,15842.284682889845,3.015338086306056e-07,0.0,0.0,0.0,3.015338086306056e-07,0.0,23.6700189934204,0.8671757493113467,0.0005371055290709491,0.0
4069,0.3448275862068966,3.1034482758620694,1.4285714285714286,0,334754.7616104525,401483.3855324447,561048.5662460617,176364.4093981249,-8212.795057548788,2.23169841073635e-06,0.0,0.0,0.0,2.23169841073635e-06,0.0,23.1230627200742,1.1800652358841561,-0.000289153712013365,0.0
4070,0.3448275862068966,3.1034482758620694,1.7857142857142858,0,721940.9837968948,649661.0952845928,128435.02382877828,-174371.2522455298,120346.38633398816,4.812939891979299e-06,0.0,0.0,0.0,4.812939891979299e-06,0.0,23.378293953654,1.4977155993718982,0.004753381202177292,0.0
4071,0.3448275862068966,3.1034482758620694,2.142857142857143,0,425791.9001005683,897852.2939909885,479030.03441143915,465417.22299363243,577379.608726661,2.838612667337122e-06,0.0,0.0,0.0,2.838612667337122e-06,0.0,23.528564200797444,1.8152061228454521,0.030950489018771128,0.0
4072,0.3448275862068966,3.1034482758620694,2.5,0,990332.1230280139,1300359.6200124947,162167.09917484375,635628.3605969729,703282.9593742784,6.602214153520093e-06,0.0,0.0,0.0,6.602214153520093e-06,0.0,24.65746845814043,2.1247331733202994,0.07032829593742784,0.0
4073,0.3448275862068966,3.1034482758620694,2.857142857142857,0,357819.4499568212,645987.7174377398,724522.5481257257,333959.0054987678,408985.0069162878,2.3854629997121413e-06,0.0,0.0,0.0,2.3854629997121413e-06,0.0,22.948632350858492,2.422348979988309,0.02192368032068344,0.0
4074,0.3448275862068966,3.1034482758620694,3.2142857142857144,0,511345.2167411823,554323.4859194441,641184.9910259622,91972.42792386636,31530.818039490397,3.408968111607882e-06,0.0,0.0,0.0,3.408968111607882e-06,0.0,23.72425972669305,2.7120013136576127,0.0012453884351977243,0.0
4075,0.3448275862068966,3.1034482758620694,3.5714285714285716,0,405391.256797467,651830.5450890224,359398.1718422142,189063.3335174128,-13270.40281590094,2.70260837864978e-06,0.0,0.0,0.0,2.70260837864978e-06,0.0,23.09873644572096,3.0014938073127277,-0.00046722050255027604,0.0
4076,0.3448275862068966,3.1034482758620694,3.928571428571429,0,261404.47581584367,349260.17393438757,419614.8256310142,130232.92229629768,53813.859629391016,1.7426965054389579e-06,0.0,0.0,0.0,1.7426965054389579e-06,0.0,23.08471977015021,3.295747177882776,0.0018244667436642368,0.0
4077,0.3448275862068966,3.1034482758620694,4.285714285714286,0,380745.35056427616,519806.53031750553,360546.83749261516,85290.38569490866,52401.60598367998,2.5383023370951745e-06,0.0,0.0,0.0,2.5383023370951745e-06,0.0,23.183104020065,3.5949072594610185,0.001755801899139424,0.0
4078,0.3448275862068966,3.1034482758620694,4.642857142857143,0,360564.9555675331,444448.2808195251,431734.71964932623,77694.6894755126,-8343.405638531518,2.4037663704502204e-06,0.0,0.0,0.0,2.4037663704502204e-06,0.0,23.547093124355314,3.8969325787154023,-0.0002785532133789922,0.0
4079,0.3448275862068966,3.1034482758620694,5.0,0,180834.9602485264,264751.68628550915,386681.974211142,178914.11735491434,20339.368060247674,1.2055664016568426e-06,0.0,0.0,0.0,1.2055664016568426e-06,0.0,24.346993831320905,4.200096007610144,0.0006783048662250121,0.0
4080,0.6896551724137931,3.1034482758620694,0.0,0,204103.74289782046,435572.79609943816,239381.53398918657,224383.93196386003,35572.55864810437,1.360691619318803e-06,0.0,0.0,0.0,1.360691619318803e-06,0.0,24.241950022517848,-0.04989786233623639,0.0011863219920899555,0.0
4081,0.6896551724137931,3.1034482758620694,0.35714285714285715,0,162278.57063113275,377445.9653437771,275738.38034335553,190298.33640508293,-17259.73777646896,1.081857137540885e-06,0.0,0.0,0.0,1.081857137540885e-06,0.0,23.430177078507054,0.2541076165540226,-0.000576234169595091,0.0
4082,0.6896551724137931,3.1034482758620694,0.7142857142857143,0,287485.0245861904,352452.7867998087,204073.15021993706,21095.21791186061,-50634.66349096978,1.9165668305746028e-06,0.0,0.0,0.0,1.9165668305746028e-06,0.0,23.53076302442169,0.5593238730024228,-0.0016965975880093998,0.0
4083,0.6896551724137931,3.1034482758620694,1.0714285714285714,0,189460.08281532038,419082.75095393794,261227.2287887204,208982.01791503042,27794.64113821964,1.2630672187688026e-06,0.0,0.0,0.0,1.2630672187688026e-06,0.0,23.9644039304121,0.8675883115889873,0.000942329703871818,0.0
4084,0.6896551724137931,3.1034482758620694,1.4285714285714286,0,223464.9579883087,508344.83061247284,330732.4084353266,257436.92901762537,47452.75368909023,1.4897663865887247e-06,0.0,0.0,0.0,1.4897663865887247e-06,0.0,23.70230003086265,1.1810727530314624,0.0016707028214279567,0.0
4085,0.6896551724137931,3.1034482758620694,1.7857142857142858,0,306364.11839140404,759181.5504681861,454250.3097591878,451404.38235404534,119887.29770128377,2.0424274559426938e-06,0.0,0.0,0.0,2.0424274559426938e-06,0.0,23.359882195693093,1.499622051778775,0.004735248349639667,0.0
4086,0.6896551724137931,3.1034482758620694,2.142857142857143,0,908058.1181919283,1217555.3108422013,954268.4061134211,206946.81346008164,334770.78501463647,6.053720787946189e-06,0.0,0.0,0.0,6.053720787946189e-06,0.0,24.013649347533875,1.8180013047807486,0.017945419874199404,0.0
4087,0.6896551724137931,3.1034482758620694,2.5,0,705582.953140924,1254027.5336861631,735014.1695555242,450631.0193446603,845555.8427593459,4.703886354272826e-06,0.0,0.0,0.0,4.703886354272826e-06,0.0,24.498161097738723,2.127908619711215,0.08455558427593458,0.0
4088,0.6896551724137931,3.1034482758620694,2.857142857142857,0,208234.634461195,714257.9095617555,506061.6491599151,505984.9222445219,399647.94154750503,1.3882308964079666e-06,0.0,0.0,0.0,1.3882308964079666e-06,0.0,24.221624401403222,2.4251441619236056,0.021423166040656503,0.0
4089,0.6896551724137931,3.1034482758620694,3.2142857142857144,0,355194.3190563573,602062.1247299078,349874.83953709493,195853.89097442146,-6266.386187205862,2.367962127042382e-06,0.0,0.0,0.0,2.367962127042382e-06,0.0,24.37543597861235,2.7139077660644895,-0.000247506578429231,0.0
4090,0.6896551724137931,3.1034482758620694,3.5714285714285716,0,445233.3589965133,737548.4717258243,385820.1191594682,236956.53490462885,-68266.11803372775,2.9682223933100886e-06,0.0,0.0,0.0,2.9682223933100886e-06,0.0,23.632191950552322,3.002501324460034,-0.0024034937309255554,0.0
4091,0.6896551724137931,3.1034482758620694,3.928571428571429,0,294803.2808059698,457398.4913087496,167543.51059452933,157884.31979723758,-11617.164637075799,1.965355205373132e-06,0.0,0.0,0.0,1.965355205373132e-06,0.0,23.165298077665632,3.2961597401604164,-0.0003938600702864483,0.0
4092,0.6896551724137931,3.1034482758620694,4.285714285714286,0,424102.1361062627,571527.5646689615,255840.62033547286,89463.58615979958,8723.081232796027,2.827347574041751e-06,0.0,0.0,0.0,2.827347574041751e-06,0.0,22.711213314041892,3.595038158716709,0.00029228116786460256,0.0
4093,0.6896551724137931,3.1034482758620694,4.642857142857143,0,353971.7759807764,494421.60957862594,373206.9490392636,95766.54193487161,-11130.297875084972,2.3598118398718427e-06,0.0,0.0,0.0,2.3598118398718427e-06,0.0,22.68009976434714,3.8969647594111656,-0.0003715964886870789,0.0
4094,0.6896551724137931,3.1034482758620694,5.0,0,137892.97286724232,405155.8135850425,293142.18429263163,251148.06983241072,77044.43879246933,9.192864857816155e-07,0.0,0.0,0.0,9.192864857816155e-07,0.0,23.619145652210985,4.200102137663764,0.0025693825685098827,0.0
4095,1.0344827586206897,3.1034482758620694,0.0,0,270771.1983719117,384636.02315868484,248524.61686798002,72813.4115209446,14655.2242545343,1.8051413224794114e-06,0.0,0.0,0.0,1.8051413224794114e-06,0.0,23.997496975762168,-0.049891811683883444,0.0004887423197232015,0.0
4096,1.0344827586206897,3.1034482758620694,0.35714285714285715,0,262874.88647126954,360185.1354941685,251381.8275813342,60376.50103861889,-35309.64981337808,1.752499243141797e-06,0.0,0.0,0.0,1.752499243141797e-06,0.0,24.170359770354754,0.25413938042015144,-0.001178849122878618,0.0
4097,1.0344827586206897,3.1034482758620694,0.7142857142857143,0,62733.69228797632,237486.54408634696,179846.72844258658,170669.86156584942,-82634.91245526887,4.182246152531755e-07,0.0,0.0,0.0,4.182246152531755e-07,0.0,23.875100758789262,0.5594530767481931,-0.002768818502802534,0.0
4098,1.0344827586206897,3.1034482758620694,1.0714285714285714,0,208049.5098739663,376365.6146965865,198221.25405023267,147711.77857214044,9053.655438422662,1.3869967324931087e-06,0.0,0.0,0.0,1.3869967324931087e-06,0.0,23.397482797069053,0.8679955300361334,0.00030694868143178993,0.0
4099,1.0344827586206897,3.1034482758620694,1.4285714285714286,0,417032.3408222034,541326.7397364554,288050.27783820324,59999.562416183115,48577.00770625724,2.780215605481356e-06,0.0,0.0,0.0,2.780215605481356e-06,0.0,24.090273149990264,1.1820672200257434,0.001710285231561396,0.0
4100,1.0344827586206897,3.1034482758620694,1.7857142857142858,0,332316.21910985286,549412.1925676941,470866.78858212393,184859.55864238815,182111.14115375903,2.2154414607323524e-06,0.0,0.0,0.0,2.2154414607323524e-06,0.0,23.168681558756038,1.5015038103174514,0.007192934507106667,0.0
4101,1.0344827586206897,3.1034482758620694,2.142857142857143,0,710104.048484406,1001139.0084321868,822848.3308973993,218879.62031787384,330127.0148495993,4.73402698989604e-06,0.0,0.0,0.0,4.73402698989604e-06,0.0,23.22061981542551,1.8207602813253114,0.01769649013139873,0.0
4102,1.0344827586206897,3.1034482758620694,2.5,0,846975.9354566748,1273652.0158567491,781953.4954274177,295653.4136370427,815350.8753204104,5.646506236377832e-06,0.0,0.0,0.0,5.646506236377832e-06,0.0,24.083696785825605,2.1310429352276485,0.08153508753204104,0.0
4103,1.0344827586206897,3.1034482758620694,2.857142857142857,0,122546.7533182927,756654.4775735067,897698.3959953351,837059.0759064844,223157.01949962042,8.169783554552847e-07,0.0,0.0,0.0,8.169783554552847e-07,0.0,23.16537290416187,2.4279031384681686,0.011962353323694316,0.0
4104,1.0344827586206897,3.1034482758620694,3.2142857142857144,0,395347.07473614125,567933.0017739746,637415.582299507,211933.40889925958,44290.17869972337,2.6356471649076083e-06,0.0,0.0,0.0,2.6356471649076083e-06,0.0,23.404061703648246,2.715789524603166,0.0017493512625138203,0.0
4105,1.0344827586206897,3.1034482758620694,3.5714285714285716,0,264278.5239605757,347081.6208393419,374378.4957268675,97510.95051770772,-38729.753467945615,1.7618568264038379e-06,0.0,0.0,0.0,1.7618568264038379e-06,0.0,23.302589366370636,3.003495791454315,-0.001363585953642609,0.0
4106,1.0344827586206897,3.1034482758620694,3.928571428571429,0,47972.29655386404,313347.62915304746,354384.97140460246,301643.73609860445,29945.08269941054,3.1981531035909363e-07,0.0,0.0,0.0,3.1981531035909363e-07,0.0,23.880735315281342,3.2965669586075625,0.0010152367419398215,0.0
4107,1.0344827586206897,3.1034482758620694,4.285714285714286,0,77563.07139987238,270260.8788401632,182675.07115695797,210263.81613911508,-47353.87922259233,5.170871426658159e-07,0.0,0.0,0.0,5.170871426658159e-07,0.0,24.09500501430359,3.595167362462479,-0.0015866695210933228,0.0
4108,1.0344827586206897,3.1034482758620694,4.642857142857143,0,115744.08205806151,297495.9883038477,170592.7781714861,197734.96331611587,14577.117413662583,7.716272137204101e-07,0.0,0.0,0.0,7.716272137204101e-07,0.0,24.11261503072883,3.8969965232772945,0.000486672118472385,0.0
4109,1.0344827586206897,3.1034482758620694,5.0,0,330437.4603138446,465754.44432103453,291518.32339438354,84663.1779324262,-45049.57859240581,2.2029164020922975e-06,0.0,0.0,0.0,2.2029164020922975e-06,0.0,23.5202151953086,4.200108188316117,-0.0015023745226548052,0.0
4110,1.3793103448275863,3.1034482758620694,0.0,0,114636.55717069317,280515.90378035384,148260.88260715577,219183.9401706181,60360.25332264197,7.642437144712877e-07,0.0,0.0,0.0,7.642437144712877e-07,0.0,23.7482681227889,-0.04988585870123936,0.00201297569492058,0.0
4111,1.3793103448275863,3.1034482758620694,0.35714285714285715,0,147053.4344757118,352143.4484346122,220473.71855386527,193453.72758486358,-12854.033200424337,9.803562298380786e-07,0.0,0.0,0.0,9.803562298380786e-07,0.0,24.204459815130964,0.25417063155354075,-0.0004291451726046778,0.0
4112,1.3793103448275863,3.1034482758620694,0.7142857142857143,0,154746.66095865154,309900.2624539867,294330.63434239425,147957.3506926146,13027.747911754888,1.0316444063910102e-06,0.0,0.0,0.0,1.0316444063910102e-06,0.0,23.576472308395143,0.5595801948854213,0.0004365160970847505,0.0
4113,1.3793103448275863,3.1034482758620694,1.0714285714285714,0,381625.89779892366,438673.4068807321,348828.7433504031,20141.281082841517,-63270.14715686718,2.5441726519928244e-06,0.0,0.0,0.0,2.5441726519928244e-06,0.0,23.38993784452842,0.8683961751578172,-0.0021450659764868617,0.0
4114,1.3793103448275863,3.1034482758620694,1.4285714285714286,0,318241.1509701335,520699.7863518969,267792.0703051575,163365.66597634673,-56478.60781791837,2.1216076731342233e-06,0.0,0.0,0.0,2.1216076731342233e-06,0.0,23.53034289052627,1.183045634320888,-0.0019884824819642274,0.0
4115,1.3793103448275863,3.1034482758620694,1.7857142857142858,0,317270.58632329275,693053.1978263471,336837.76389717474,440827.00530461967,16544.35828417063,2.115137242155285e-06,0.0,0.0,0.0,2.115137242155285e-06,0.0,23.55193265641109,1.5033551934853588,0.0006534607649274543,0.0
4116,1.3793103448275863,3.1034482758620694,2.142857142857143,0,468046.2792943245,929128.9001413606,668980.642858303,388799.38428876555,404678.1082924978,3.12030852862883e-06,0.0,0.0,0.0,3.12030852862883e-06,0.0,23.875948076863285,1.8234747224346624,0.021692808608995265,0.0
4117,1.3793103448275863,3.1034482758620694,2.5,0,583210.0238593223,982553.1766652459,499927.10456831654,334499.4519351489,662298.4003550813,3.8880668257288154e-06,0.0,0.0,0.0,3.8880668257288154e-06,0.0,23.851897231380388,2.1341266565823114,0.06622984003550814,0.0
4118,1.3793103448275863,3.1034482758620694,2.857142857142857,0,322829.5438881451,666820.4947095239,582524.4195476493,310205.37905640504,425241.68484646495,2.152196959254301e-06,0.0,0.0,0.0,2.152196959254301e-06,0.0,23.786361335939578,2.4306175795775196,0.022795121092326356,0.0
4119,1.3793103448275863,3.1034482758620694,3.2142857142857144,0,533006.561496367,820630.5364565329,412706.83002129075,217551.30464674724,-26967.987180763892,3.5533770766424465e-06,0.0,0.0,0.0,3.5533770766424465e-06,0.0,23.474755432215645,2.7176409077710733,-0.0010651680306365638,0.0
4120,1.3793103448275863,3.1034482758620694,3.5714285714285716,0,225886.6889532295,349846.391195904,286457.2179041571,99037.32356281987,26094.927722899727,1.5059112596881966e-06,0.0,0.0,0.0,1.5059112596881966e-06,0.0,23.41340878262711,3.0044742057494593,0.0009187426646987285,0.0
4121,1.3793103448275863,3.1034482758620694,3.928571428571429,0,228340.1111779379,402094.9902033222,254768.60325244843,139063.35122084178,-19647.672065748095,1.5222674078529195e-06,0.0,0.0,0.0,1.5222674078529195e-06,0.0,24.208870986622326,3.2969676037292466,-0.0006661206707946339,0.0
4122,1.3793103448275863,3.1034482758620694,4.285714285714286,0,212238.6846659158,417568.6361935754,183680.32876507178,237241.09344962297,-27838.68912153233,1.4149245644394385e-06,0.0,0.0,0.0,1.4149245644394385e-06,0.0,24.06058344714865,3.595294480599707,-0.0009327810152299814,0.0
4123,1.3793103448275863,3.1034482758620694,4.642857142857143,0,101282.7479248008,305313.82115063764,190481.618673954,228704.7789452582,-18451.404420401108,6.75218319498672e-07,0.0,0.0,0.0,6.75218319498672e-07,0.0,23.676335281881883,3.897027774410684,-0.0006160191911228569,0.0
4124,1.3793103448275863,3.1034482758620694,5.0,0,291498.0164729147,414677.19809637906,189061.89915898137,85549.42410921291,-3999.3736474044035,1.9433201098194316e-06,0.0,0.0,0.0,1.9433201098194316e-06,0.0,23.870036496957535,4.20011414129876,-0.0001333765434034556,0.0
4125,1.7241379310344829,3.1034482758620694,0.0,0,223551.72928553424,378114.953700644,123316.1260386942,214888.96128442363,21681.2574305247,1.4903448619035615e-06,0.0,0.0,0.0,1.4903448619035615e-06,0.0,24.524565666141534,-0.04988002726266219,0.0007230560151839361,0.0
4126,1.7241379310344829,3.1034482758620694,0.35714285714285715,0,233046.2493670428,441421.44277164433,252062.33639882968,181158.37298617244,36833.648461139855,1.553641662446952e-06,0.0,0.0,0.0,1.553641662446952e-06,0.0,23.887271212862903,0.2542012446219339,0.0012297293915495774,0.0
4127,1.7241379310344829,3.1034482758620694,0.7142857142857143,0,120653.8687131275,298204.98938409716,289253.8061048712,173324.81612953532,17152.927607398986,8.043591247541832e-07,0.0,0.0,0.0,8.043591247541832e-07,0.0,23.924841127571494,0.5597047176085015,0.0005747370200495746,0.0
4128,1.7241379310344829,3.1034482758620694,1.0714285714285714,0,112031.97546926932,251859.30867455647,291337.12183755264,164910.39857370025,21688.66484152684,7.468798364617955e-07,0.0,0.0,0.0,7.468798364617955e-07,0.0,24.696400502798298,0.8687886401720843,0.0007353170352463212,0.0
4129,1.7241379310344829,3.1034482758620694,1.4285714285714286,0,236473.76251822224,354183.31403481506,255126.7054178302,84290.12691488038,76784.17387565286,1.5764917501214817e-06,0.0,0.0,0.0,1.5764917501214817e-06,0.0,24.47260928025188,1.1840040719993232,0.002703394976308013,0.0
4130,1.7241379310344829,3.1034482758620694,1.7857142857142858,0,362392.38310978125,587999.890726017,303546.3778059651,179985.8347639872,98798.96229125059,2.415949220731875e-06,0.0,0.0,0.0,2.415949220731875e-06,0.0,23.621757732176093,1.505168776334822,0.0039023118554347594,0.0
4131,1.7241379310344829,3.1034482758620694,2.142857142857143,0,326167.05006179615,845984.6281351629,709860.4068550176,473804.7905673925,297518.4530245108,2.1744470004119745e-06,0.0,0.0,0.0,2.1744470004119745e-06,0.0,24.482103357140428,1.8261337418786818,0.015948505063288865,0.0
4132,1.7241379310344829,3.1034482758620694,2.5,0,708924.1180942997,906522.8711943653,814496.4286622932,156079.55714271512,624915.2372012121,4.7261607872953315e-06,0.0,0.0,0.0,4.7261607872953315e-06,0.0,23.866673922302716,2.1371474165515516,0.062491523720121206,0.0
4133,1.7241379310344829,3.1034482758620694,2.857142857142857,0,418858.15451793117,516935.8386817377,621737.5364570279,160430.0885596216,458202.0040516811,2.792387696786208e-06,0.0,0.0,0.0,2.792387696786208e-06,0.0,23.431076179765068,2.433276599021539,0.024561962148362294,0.0
4134,1.7241379310344829,3.1034482758620694,3.2142857142857144,0,345142.7416176582,617533.8541727192,592002.5238140549,260334.41383633149,10329.314387231287,2.3009516107843878e-06,0.0,0.0,0.0,2.3009516107843878e-06,0.0,24.61319512035549,2.7194544906205365,0.0004079820785260927,0.0
4135,1.7241379310344829,3.1034482758620694,3.5714285714285716,0,396226.9596157243,549445.4211524251,273729.96243123355,95389.11037037037,-12026.88307613409,2.6415130641048284e-06,0.0,0.0,0.0,2.6415130641048284e-06,0.0,23.61109320041793,3.005432643427895,-0.00042343901936508675,0.0
4136,1.7241379310344829,3.1034482758620694,3.928571428571429,0,166659.91702414904,370536.3900677067,219918.56259553693,191491.1255274364,49384.613989544414,1.111066113494327e-06,0.0,0.0,0.0,1.111066113494327e-06,0.0,23.715601034466943,3.297360068743514,0.0016743007562202436,0.0
4137,1.7241379310344829,3.1034482758620694,4.285714285714286,0,249647.8625574501,369190.04852575716,204052.22624615996,81996.65200097921,-9554.78464268725,1.664319083716334e-06,0.0,0.0,0.0,1.664319083716334e-06,0.0,23.784652116932772,3.595419003322787,-0.0003201487570194567,0.0
4138,1.7241379310344829,3.1034482758620694,4.642857142857143,0,229025.9265716212,365607.9174910556,127225.73745334818,147253.6930807248,25072.550405976148,1.5268395104774747e-06,0.0,0.0,0.0,1.5268395104774747e-06,0.0,24.998544381733353,3.897058387479077,0.0008370729874306623,0.0
4139,1.7241379310344829,3.1034482758620694,5.0,0,175442.4949778002,354029.93951034703,272971.31670336047,152714.45396395223,42280.11293613147,1.1696166331853347e-06,0.0,0.0,0.0,1.1696166331853347e-06,0.0,23.50880407459307,4.200119972737338,0.0014100146211116764,0.0
4140,2.0689655172413794,3.1034482758620694,0.0,0,242665.7575716984,375172.21817649115,214699.81478211825,96006.06471368561,-39714.72394266492,1.617771717144656e-06,0.0,0.0,0.0,1.617771717144656e-06,0.0,23.701221390010296,-0.04987434892611723,-0.0013244605452488467,0.0
4141,2.0689655172413794,3.1034482758620694,0.35714285714285715,0,201015.67717305347,341319.79331565934,253674.53366253834,111362.71258171307,-12918.686059290729,1.3401045144870231e-06,0.0,0.0,0.0,1.3401045144870231e-06,0.0,23.836125170141504,0.25423105395675066,-0.0004313036750641772,0.0
4142,2.0689655172413794,3.1034482758620694,0.7142857142857143,0,237216.86709314314,297474.0500606119,339014.4314199555,83771.13019053183,38231.34729102578,1.5814457806209542e-06,0.0,0.0,0.0,1.5814457806209542e-06,0.0,24.275614529287882,0.5598259710384721,0.0012810041013084205,0.0
4143,2.0689655172413794,3.1034482758620694,1.0714285714285714,0,125858.17939572867,274874.3574015535,203294.56582170087,129551.2182612814,-3923.6046694783568,8.390545293048578e-07,0.0,0.0,0.0,8.390545293048578e-07,0.0,23.98199577671244,0.8691708011780938,-0.00013302309635563266,0.0
4144,2.0689655172413794,3.1034482758620694,1.4285714285714286,0,277523.39081145317,360996.7803104832,88291.4725264227,78894.01912076618,-71913.74111369812,1.850155938743021e-06,0.0,0.0,0.0,1.850155938743021e-06,0.0,23.687821797126226,1.1849373462889363,-0.0025319181888851638,0.0
4145,2.0689655172413794,3.1034482758620694,1.7857142857142858,0,336820.3630897172,578412.1397446096,433316.3940473362,193360.8662307912,29572.822676548047,2.2454690872647814e-06,0.0,0.0,0.0,2.2454690872647814e-06,0.0,24.338109758328155,1.50693474430913,0.0011680525164744885,0.0
4146,2.0689655172413794,3.1034482758620694,2.142857142857143,0,270415.06159803335,755343.9298026233,591329.8546080207,443230.7365018889,368169.975645375,1.8027670773202223e-06,0.0,0.0,0.0,1.8027670773202223e-06,0.0,24.709198086501893,1.8287229498559139,0.01973578667487714,0.0
4147,2.0689655172413794,3.1034482758620694,2.5,0,733959.1837647464,1008373.0520874537,525130.0487749858,163797.79329492617,668520.974765557,4.893061225098309e-06,0.0,0.0,0.0,4.893061225098309e-06,0.0,23.224107196030584,2.140088867704627,0.0668520974765557,0.0
4148,2.0689655172413794,3.1034482758620694,2.857142857142857,0,552519.9694572572,877135.3127468579,628486.0395694764,243980.18290887462,308210.89648216264,3.6834664630483812e-06,0.0,0.0,0.0,3.6834664630483812e-06,0.0,23.699651836884076,2.435865806998771,0.016521674515098433,0.0
4149,2.0689655172413794,3.1034482758620694,3.2142857142857144,0,312701.0309473327,634907.7113398777,466516.69766777253,274098.24129627954,83654.85654925928,2.0846735396488844e-06,0.0,0.0,0.0,2.0846735396488844e-06,0.0,24.30112136535327,2.7212204585948445,0.0033041575630575015,0.0
4150,2.0689655172413794,3.1034482758620694,3.5714285714285716,0,420611.8724344016,477385.0091617971,194013.99495813187,-5899.676019642305,-9245.611130343364,2.8040791495626772e-06,0.0,0.0,0.0,2.8040791495626772e-06,0.0,23.43347267299368,3.006365917717508,-0.000325516801458915,0.0
4151,2.0689655172413794,3.1034482758620694,3.928571428571429,0,108009.79266502617,332019.5870457619,209141.1821512105,252092.8612524574,29736.345841367518,7.200652844335078e-07,0.0,0.0,0.0,7.200652844335078e-07,0.0,23.97717605617762,3.297742229749523,0.0010081598762717722,0.0
4152,2.0689655172413794,3.1034482758620694,4.285714285714286,0,108067.58802690914,234321.53035915052,315842.35644868243,193262.81503399325,45228.400461666955,7.204505868460609e-07,0.0,0.0,0.0,7.204505868460609e-07,0.0,24.694723848329247,3.595540256752758,0.001515451863257119,0.0
4153,2.0689655172413794,3.1034482758620694,4.642857142857143,0,230152.46373550236,294476.0087924871,175764.53374291759,29205.614596089214,24298.805815353462,1.5343497582366823e-06,0.0,0.0,0.0,1.5343497582366823e-06,0.0,24.375419728019732,3.8970881968138937,0.0008112407252358092,0.0
4154,2.0689655172413794,3.1034482758620694,5.0,0,290403.7387910324,319032.14924864005,225588.46218174932,-6590.28502336744,-3736.9668751061413,1.936024925273549e-06,0.0,0.0,0.0,1.936024925273549e-06,0.0,24.329330099859117,4.200125651073883,-0.00012462544602161578,0.0
4155,2.413793103448276,3.1034482758620694,0.0,0,122045.85831287704,194839.71175825156,53914.98372939424,124975.0967055992,13365.343635185838,8.136390554191802e-07,0.0,0.0,0.0,8.136390554191802e-07,0.0,24.457360590625438,-0.049868865832292705,0.00044572562921631166,0.0
4156,2.413793103448276,3.1034482758620694,0.35714285714285715,0,310226.2197890949,393464.27598213893,124293.84830562469,54182.29105805448,29330.893222790324,2.068174798593966e-06,0.0,0.0,0.0,2.068174798593966e-06,0.0,24.25088834435911,0.2542598383337162,0.0009792421599104162,0.0
4157,2.413793103448276,3.1034482758620694,0.7142857142857143,0,119209.7995381686,317719.221406925,225977.87080325105,182974.36679528694,860.0805989732554,7.94731996921124e-07,0.0,0.0,0.0,7.94731996921124e-07,0.0,23.92454260273146,0.5599430553162018,2.881841349596293e-05,0.0
4158,2.413793103448276,3.1034482758620694,1.0714285714285714,0,173149.6197308756,342544.5967222322,300955.3038661597,152387.79734157876,25682.414111207934,1.1543307982058373e-06,0.0,0.0,0.0,1.1543307982058373e-06,0.0,24.580328830038706,0.869539822041058,0.0008707182641350759,0.0
4159,2.413793103448276,3.1034482758620694,1.4285714285714286,0,313264.59850979835,470874.8524270147,158151.32713808308,157071.9699070462,18345.54254838546,2.088430656731989e-06,0.0,0.0,0.0,2.088430656731989e-06,0.0,23.864714134421394,1.1858385310731494,0.0006459045537595615,0.0
4160,2.413793103448276,3.1034482758620694,1.7857142857142858,0,279121.66975004,463049.8923790496,378777.0263193863,151502.12039219128,131010.57564050259,1.8608111316669333e-06,0.0,0.0,0.0,1.8608111316669333e-06,0.0,24.02660838956904,1.5086399916148432,0.005174590002293376,0.0
4161,2.413793103448276,3.1034482758620694,2.142857142857143,0,353233.2188529034,875106.8026095873,490502.3221855776,565189.7158453028,351025.0718057373,2.3548881256860227e-06,0.0,0.0,0.0,2.3548881256860227e-06,0.0,23.28415072876583,1.8312231310547464,0.01881673246860397,0.0
4162,2.413793103448276,3.1034482758620694,2.5,0,361165.6565743896,903333.6914021164,822599.7338557986,508633.3208028527,486885.41848326335,2.407771043829264e-06,0.0,0.0,0.0,2.407771043829264e-06,0.0,23.87795273080918,2.142929180624589,0.04868854184832634,0.0
4163,2.413793103448276,3.1034482758620694,2.857142857142857,0,375136.8209311727,756082.9996811342,358297.6011248941,408688.7282229978,406315.92295845127,2.5009121395411513e-06,0.0,0.0,0.0,2.5009121395411513e-06,0.0,24.160883087224722,2.4383659881976034,0.021780603820442317,0.0
4164,2.413793103448276,3.1034482758620694,3.2142857142857144,0,97055.88763950828,447997.6767502174,416448.8589399713,339092.4491190959,80184.54707605555,6.470392509300552e-07,0.0,0.0,0.0,6.470392509300552e-07,0.0,24.13951274869943,2.7229257059005576,0.003167089020177576,0.0
4165,2.413793103448276,3.1034482758620694,3.5714285714285716,0,371262.36944586784,493072.3245059053,210549.03873424037,72577.46061271009,-519.1441459839134,2.475082462972452e-06,0.0,0.0,0.0,2.475082462972452e-06,0.0,24.592955584420025,3.007267102501721,-1.8277876877407404e-05,0.0
4166,2.413793103448276,3.1034482758620694,3.928571428571429,0,75312.4273284121,294367.8889878706,236986.23710392462,209086.6819692554,-42889.89109421011,5.020828488560807e-07,0.0,0.0,0.0,5.020828488560807e-07,0.0,23.91683770403909,3.298111250612487,-0.0014541082999746323,0.0
4167,2.413793103448276,3.1034482758620694,4.285714285714286,0,212303.7393740554,352138.5191381776,220504.60205109196,107220.29969332361,7152.128323457378,1.4153582624937027e-06,0.0,0.0,0.0,1.4153582624937027e-06,0.0,23.941730585711177,3.5956573410304875,0.0002396438097169449,0.0
4168,2.413793103448276,3.1034482758620694,4.642857142857143,0,52875.386752703445,192461.6564023561,200051.02643924806,143791.04221189342,56503.494542783745,3.525025783513563e-07,0.0,0.0,0.0,3.525025783513563e-07,0.0,23.874662061729644,3.8971169811908593,0.0018864275158033603,0.0
4169,2.413793103448276,3.1034482758620694,5.0,0,231255.53672740544,380537.0375963105,244936.49605055896,113517.05616092385,-84031.60828977101,1.541703578182703e-06,0.0,0.0,0.0,1.541703578182703e-06,0.0,24.270659390966383,4.200131134167708,-0.002802400185238187,0.0
4170,2.7586206896551726,3.1034482758620694,0.0,0,312031.91368814564,366280.0644311831,214462.00709052655,7391.578451904237,-81390.77376374691,2.080212757920971e-06,0.0,0.0,0.0,2.080212757920971e-06,0.0,24.934265647720363,-0.04986363467145917,-0.002714330049303228,0.0
4171,2.7586206896551726,3.1034482758620694,0.35714285714285715,0,119093.36684967099,308557.98600675043,203823.03791372402,179014.26552680662,23224.340046103775,7.939557789978065e-07,0.0,0.0,0.0,7.939557789978065e-07,0.0,23.01066018678215,0.2542873001481987,0.0007753685759412786,0.0
4172,2.7586206896551726,3.1034482758620694,0.7142857142857143,0,245175.1732058548,289845.20190502045,190894.9510743088,10658.297401335438,7175.052748226586,1.6345011547056987e-06,0.0,0.0,0.0,1.6345011547056987e-06,0.0,23.926747553954534,0.5600547598953108,0.00024041193023139997,0.0
4173,2.7586206896551726,3.1034482758620694,1.0714285714285714,0,237656.77770050603,337838.6709229841,223824.2747835778,64657.27899168089,21233.558819080154,1.5843785180033735e-06,0.0,0.0,0.0,1.5843785180033735e-06,0.0,23.99982702480549,0.8698918874163507,0.0007198874450159672,0.0
4174,2.7586206896551726,3.1034482758620694,1.4285714285714286,0,365038.28836989653,529927.6650408001,270609.2050681846,112486.56589992422,-14565.835369742334,2.4335885891326435e-06,0.0,0.0,0.0,2.4335885891326435e-06,0.0,23.114245844153654,1.1866983089098648,-0.0005128297170724255,0.0
4175,2.7586206896551726,3.1034482758620694,1.7857142857142858,0,301661.32511933544,337102.08062557003,261500.56405832156,4830.843189446687,-56677.81609822138,2.0110755007955695e-06,0.0,0.0,0.0,2.0110755007955695e-06,0.0,24.122754717035086,1.5102668875248213,-0.002238631950892738,0.0
4176,2.7586206896551726,3.1034482758620694,2.142857142857143,0,653139.2423682514,892197.3297744053,486143.20903223887,138778.6740890377,226799.83635214495,4.354261615788343e-06,0.0,0.0,0.0,4.354261615788343e-06,0.0,24.012866875098982,1.8336084358448246,0.012157626868667793,0.0
4177,2.7586206896551726,3.1034482758620694,2.5,0,318117.66000203154,742281.7272267477,443877.4287748236,407566.77088432416,665413.367346012,2.1207844000135435e-06,0.0,0.0,0.0,2.1207844000135435e-06,0.0,23.97482506016694,2.145638989024265,0.0665413367346012,0.0
4178,2.7586206896551726,3.1034482758620694,2.857142857142857,0,445109.56007736764,768452.8645486383,533920.1057809051,255120.44361252643,256148.37327260856,2.967397067182451e-06,0.0,0.0,0.0,2.967397067182451e-06,0.0,23.647314814432484,2.440751292987682,0.013730857990696965,0.0
4179,2.7586206896551726,3.1034482758620694,3.2142857142857144,0,274297.4430989222,494923.2768111365,302827.4768129062,180784.8222070903,31787.939124099677,1.8286496206594814e-06,0.0,0.0,0.0,1.8286496206594814e-06,0.0,24.160038005353492,2.724552601810536,0.0012555440748267639,0.0
4180,2.7586206896551726,3.1034482758620694,3.5714285714285716,0,243298.2613917241,332381.70002021984,310505.0270756398,78883.88139583457,-91015.0973170424,1.6219884092781608e-06,0.0,0.0,0.0,1.6219884092781608e-06,0.0,23.625239254856112,3.0081268803384367,-0.0032044332111137823,0.0
4181,2.7586206896551726,3.1034482758620694,3.928571428571429,0,164652.3153904649,312158.8569578489,261057.13607858116,128014.66262355162,-56246.10226949097,1.0976821026030993e-06,0.0,0.0,0.0,1.0976821026030993e-06,0.0,23.792170503678598,3.29846331598778,-0.0019069277646715623,0.0
4182,2.7586206896551726,3.1034482758620694,4.285714285714286,0,115822.64527481176,234753.49647012888,156504.28633095857,101699.7639005938,33711.83899833016,7.721509684987451e-07,0.0,0.0,0.0,7.721509684987451e-07,0.0,24.11821142449037,3.5957690456095968,0.0011295705508564985,0.0
4183,2.7586206896551726,3.1034482758620694,4.642857142857143,0,297809.4162180454,364958.4736926484,211722.4034331864,21733.08970187996,-7851.812835615826,1.9853961081203028e-06,0.0,0.0,0.0,1.9853961081203028e-06,0.0,24.733466550575407,3.897144443005342,-0.0002621408799915611,0.0
4184,2.7586206896551726,3.1034482758620694,5.0,0,123450.7100958161,194018.5646231994,250463.19109414847,108880.47502736116,29993.789301123972,8.230047339721073e-07,0.0,0.0,0.0,8.230047339721073e-07,0.0,24.432568344211028,4.200136365328541,0.001000273616132809,0.0
4185,3.1034482758620694,3.1034482758620694,0.0,0,248789.493587413,332522.99505318375,199563.79597858086,45504.05513516589,-22620.30904949118,1.6585966239160865e-06,0.0,0.0,0.0,1.6585966239160865e-06,0.0,24.540608692466225,-0.04985873185987881,-0.0007543727837725509,0.0
4186,3.1034482758620694,3.1034482758620694,0.35714285714285715,0,110584.7777345573,280579.0595644218,166408.4917884691,173967.98283181872,-44060.307967287685,7.372318515637153e-07,0.0,0.0,0.0,7.372318515637153e-07,0.0,25.219212276198085,0.25431303824082235,-0.0014709988820483778,0.0
4187,3.1034482758620694,3.1034482758620694,0.7142857142857143,0,117330.475350238,230618.68986756192,145005.44614393185,96876.81730365915,-7853.28748077257,7.822031690015867e-07,0.0,0.0,0.0,7.822031690015867e-07,0.0,24.463390904562637,0.560159453006737,-0.0002631372992179427,0.0
4188,3.1034482758620694,3.1034482758620694,1.0714285714285714,0,48280.9604504155,322811.59218602424,270185.40238708124,280563.81020306074,-17577.23238250753,3.218730696694367e-07,0.0,0.0,0.0,3.218730696694367e-07,0.0,23.724469843992637,0.8702218543689936,-0.000595925959379212,0.0
4189,3.1034482758620694,3.1034482758620694,1.4285714285714286,0,91343.4120590038,248276.42167039306,317477.29806480283,213941.76027192626,-25504.770448703886,6.089560803933586e-07,0.0,0.0,0.0,6.089560803933586e-07,0.0,23.97124204695619,1.187504120252417,-0.0008979645781508892,0.0
4190,3.1034482758620694,3.1034482758620694,1.7857142857142858,0,284073.2299574467,520580.06950873707,340054.4015850057,193134.8955761763,12723.830060109802,1.8938215330496447e-06,0.0,0.0,0.0,1.8938215330496447e-06,0.0,23.828802797822096,1.511791666510077,0.0005025594574944311,0.0
4191,3.1034482758620694,3.1034482758620694,2.142857142857143,0,224791.52708019837,547451.7256265851,652900.2000265874,394769.7918334011,278282.6241143252,1.4986101805346559e-06,0.0,0.0,0.0,1.4986101805346559e-06,0.0,24.194223600622532,1.835844019937841,0.01491736661909502,0.0
4192,3.1034482758620694,3.1034482758620694,2.5,0,948377.0038862102,983427.1895383787,96301.09935371795,-16170.401769780161,475251.2646081936,6.322513359241401e-06,0.0,0.0,0.0,6.322513359241401e-06,0.0,24.061124616071957,2.1481787082998207,0.047525126460819356,0.0
4193,3.1034482758620694,3.1034482758620694,2.857142857142857,0,248749.45294281957,623746.3887149469,738820.8501571434,453369.8384086722,217269.93373935594,1.6583296862854638e-06,0.0,0.0,0.0,1.6583296862854638e-06,0.0,23.80023806330119,2.442986877080698,0.011646775529775569,0.0
4194,3.1034482758620694,3.1034482758620694,3.2142857142857144,0,305434.86824423407,469892.12772452604,345322.76379267126,121858.75561884933,147613.56614711034,2.0362324549615606e-06,0.0,0.0,0.0,2.0362324549615606e-06,0.0,24.73830397243692,2.7260773807957914,0.005830366593332973,0.0
4195,3.1034482758620694,3.1034482758620694,3.5714285714285716,0,200131.48589545407,381743.8681942551,262606.5663916192,150689.53527804394,21043.52014752922,1.3342099059696938e-06,0.0,0.0,0.0,1.3342099059696938e-06,0.0,24.77880088078419,3.0089326916809886,0.0007408941684102119,0.0
4196,3.1034482758620694,3.1034482758620694,3.928571428571429,0,161020.11350689005,262316.77186422487,197289.13900332508,78951.92899658835,5115.825972204721,1.073467423379267e-06,0.0,0.0,0.0,1.073467423379267e-06,0.0,24.37547069723942,3.298793282940423,0.0001734433177055303,0.0
4197,3.1034482758620694,3.1034482758620694,4.285714285714286,0,213233.33027833453,297650.43413006124,294860.1461530931,83035.65253438235,-1999.7537027576066,1.4215555351888969e-06,0.0,0.0,0.0,1.4215555351888969e-06,0.0,23.789521666679274,3.5958737387210227,-6.700503320845594e-05,0.0
4198,3.1034482758620694,3.1034482758620694,4.642857142857143,0,87628.74149081105,209297.88451963867,146445.46430231357,109198.70818785467,19980.671286498015,5.841916099387404e-07,0.0,0.0,0.0,5.841916099387404e-07,0.0,24.356011485504904,3.8971701810979655,0.0006670753447033616,0.0
4199,3.1034482758620694,3.1034482758620694,5.0,0,196613.5806575318,337991.91574728885,298590.75105920463,124661.37377692081,15961.285196388155,1.3107572043835454e-06,0.0,0.0,0.0,1.3107572043835454e-06,0.0,23.99406264838985,4.200141268140121,0.0005322986135973143,0.0
4200,3.4482758620689657,3.1034482758620694,0.0,0,250729.0516126691,406102.0926905595,233895.62973986182,118445.49877465013,-31044.21869110896,1.6715270107511274e-06,0.0,0.0,0.0,1.6715270107511274e-06,0.0,24.94276060177287,-0.049854259600803745,-0.0010353047618764741,0.0
4201,3.4482758620689657,3.1034482758620694,0.35714285714285715,0,304837.3906798258,467863.86632482376,247535.15367919358,119965.88060889098,-46000.64173782441,2.0322492711988388e-06,0.0,0.0,0.0,2.0322492711988388e-06,0.0,23.706765560508103,0.254336516079288,-0.0015357789287375506,0.0
4202,3.4482758620689657,3.1034482758620694,0.7142857142857143,0,247462.19164396738,306662.4752168014,190990.34818804226,22546.705222327593,-68484.63562947164,1.6497479442931159e-06,0.0,0.0,0.0,1.6497479442931159e-06,0.0,24.638142059795843,0.5602549522340678,-0.0022946902302488047,0.0
4203,3.4482758620689657,3.1034482758620694,1.0714285714285714,0,194443.8445722652,359197.4038217729,136014.8942075145,268833.1187407804,55799.61335947349,1.2962922971484346e-06,0.0,0.0,0.0,1.2962922971484346e-06,0.0,24.63231885527107,0.8705228444589131,0.0018917903228795805,0.0
4204,3.4482758620689657,3.1034482758620694,1.4285714285714286,0,137545.488200865,232170.12847993328,319513.09451958793,160962.6924721118,-11524.587216515622,9.169699213390999e-07,0.0,0.0,0.0,9.169699213390999e-07,0.0,24.76703124704738,1.1882391672821586,-0.0004057543320789811,0.0
4205,3.4482758620689657,3.1034482758620694,1.7857142857142858,0,370003.55259654264,671769.454499492,393740.16843894386,251814.5758254801,84990.96756049758,2.4666903506436175e-06,0.0,0.0,0.0,2.4666903506436175e-06,0.0,24.421690309711543,1.513182543263654,0.003356930605591714,0.0
4206,3.4482758620689657,3.1034482758620694,2.142857142857143,0,572996.365184446,884094.9093490555,744107.7767521717,254076.7573893556,304100.0448948595,3.819975767896306e-06,0.0,0.0,0.0,3.819975767896306e-06,0.0,24.163226207179473,1.837883280693472,0.01630131192350775,0.0
4207,3.4482758620689657,3.1034482758620694,2.5,0,535922.5792520397,813301.009727742,595419.7141200694,202754.12519991898,601732.9132772987,3.5728171950135976e-06,0.0,0.0,0.0,3.5728171950135976e-06,0.0,25.52956931775753,2.150495395855945,0.060173291327729875,0.0
4208,3.4482758620689657,3.1034482758620694,2.857142857142857,0,567799.0882122506,954647.1005631663,471534.6445470775,329232.0824952352,283697.55084614904,3.7853272547483375e-06,0.0,0.0,0.0,3.7853272547483375e-06,0.0,23.899217352607874,2.445026137836329,0.01520763428324127,0.0
4209,3.4482758620689657,3.1034482758620694,3.2142857142857144,0,261419.47491505445,490239.62187878485,504967.3265890281,236495.3301626449,-14183.972213031986,1.7427964994336963e-06,0.0,0.0,0.0,1.7427964994336963e-06,0.0,24.701536173867577,2.7274682575493685,-0.0005602314198493723,0.0
4210,3.4482758620689657,3.1034482758620694,3.5714285714285716,0,132459.36284892054,327551.49593445513,390287.06693636585,238115.02279921772,-32864.11871254382,8.830624189928036e-07,0.0,0.0,0.0,8.830624189928036e-07,0.0,24.35643315887438,3.0096677387107302,-0.001157070382396241,0.0
4211,3.4482758620689657,3.1034482758620694,3.928571428571429,0,108746.9232109999,339781.7427353841,217778.84196845704,253043.88892796438,-10684.604087454005,7.249794880733327e-07,0.0,0.0,0.0,7.249794880733327e-07,0.0,24.52339889804523,3.2990942730303425,-0.00036224320204923763,0.0
4212,3.4482758620689657,3.1034482758620694,4.285714285714286,0,62575.65294600895,237120.71932324098,165477.9731811121,209435.6866783273,-47739.53793702317,4.1717101964005967e-07,0.0,0.0,0.0,4.1717101964005967e-07,0.0,24.52545712196508,3.5959692379483537,-0.0015995916499194549,0.0
4213,3.4482758620689657,3.1034482758620694,4.642857142857143,0,309242.2469301115,361553.5327128784,258815.13480679368,14018.192070492529,-25647.945834408954,2.0616149795340764e-06,0.0,0.0,0.0,2.0616149795340764e-06,0.0,23.82017687576701,3.8971936589364313,-0.0008562831580129656,0.0
4214,3.4482758620689657,3.1034482758620694,5.0,0,128613.55971978448,236761.44840976203,194858.21679309398,92422.08147168875,-35983.03749378125,8.574237314652298e-07,0.0,0.0,0.0,8.574237314652298e-07,0.0,23.69502016139381,4.200145740399196,-0.0012000111980515326,0.0
4215,3.793103448275862,3.1034482758620694,0.0,0,102430.07891522981,238876.96426921408,247907.09930620797,141260.92211739338,-9938.833537171384,6.828671927681987e-07,0.0,0.0,0.0,6.828671927681987e-07,0.0,23.719116514297475,-0.049850351211370436,-0.00033145371738661615,0.0
4216,3.793103448275862,3.1034482758620694,0.35714285714285715,0,132645.19374461359,247414.64697977906,196024.88546851883,96763.50694752079,-15001.956231588008,8.843012916307572e-07,0.0,0.0,0.0,8.843012916307572e-07,0.0,24.139436346451514,0.25435703379399005,-0.0005008558011348629,0.0
4217,3.793103448275862,3.1034482758620694,0.7142857142857143,0,212850.0175504533,349492.79030144395,307289.9345120492,118702.73802849626,3629.378194554542,1.419000117003022e-06,0.0,0.0,0.0,1.419000117003022e-06,0.0,24.491293118714808,0.560338410764695,0.00012160827911798595,0.0
4218,3.793103448275862,3.1034482758620694,1.0714285714285714,0,248846.26253008217,274026.9757839726,175080.10309238988,-9073.513069886367,26909.79426404482,1.6589750835338811e-06,0.0,0.0,0.0,1.6589750835338811e-06,0.0,24.028239319823445,0.8707858852325415,0.0009123304860813606,0.0
4219,3.793103448275862,3.1034482758620694,1.4285714285714286,0,68718.11073447288,265323.90168319264,289191.7967413953,211722.19912752527,-4247.043139162967,4.581207382298192e-07,0.0,0.0,0.0,4.581207382298192e-07,0.0,23.65846063330195,1.1888815383961318,-0.00014952866596142637,0.0
4220,3.793103448275862,3.1034482758620694,1.7857142857142858,0,392705.6695845809,457326.2823570572,313392.2274669922,12961.639712824184,-23366.41850773937,2.618037797230539e-06,0.0,0.0,0.0,2.618037797230539e-06,0.0,24.840664497863575,1.5143980560314678,-0.0009229150777211806,0.0
4221,3.793103448275862,3.1034482758620694,2.142857142857143,0,611603.0559114129,766024.4776833577,496269.27988769376,65919.1388904941,132858.33365929365,4.077353706076086e-06,0.0,0.0,0.0,4.077353706076086e-06,0.0,23.616803790471455,1.839665428161964,0.007121883653014299,0.0
4222,3.793103448275862,3.1034482758620694,2.5,0,462287.9060244602,692873.5855205879,560235.5733815142,178765.0347335282,538140.4419734105,3.0819193734964015e-06,0.0,0.0,0.0,3.0819193734964015e-06,0.0,24.630738480837426,2.152519991706198,0.05381404419734105,0.0
4223,3.793103448275862,3.1034482758620694,2.857142857142857,0,334215.4715545505,593383.9795680293,653563.8530351992,293347.01865687955,239470.3176625375,2.2281031436970035e-06,0.0,0.0,0.0,2.2281031436970035e-06,0.0,24.01989294313534,2.446808285304821,0.012836829228315902,0.0
4224,3.793103448275862,3.1034482758620694,3.2142857142857144,0,610972.3028114844,740087.8213615795,459828.5007525013,39263.77931991996,46624.6162223777,4.0731486854098965e-06,0.0,0.0,0.0,4.0731486854098965e-06,0.0,25.00911445548055,2.7286837703171822,0.0018415557048395517,0.0
4225,3.793103448275862,3.1034482758620694,3.5714285714285716,0,229562.38734039635,300736.4923405968,294801.16520543664,68263.99527212692,16536.989927198258,1.5304159156026424e-06,0.0,0.0,0.0,1.5304159156026424e-06,0.0,24.142260273142817,3.0103101098247036,0.0005822295563776274,0.0
4226,3.793103448275862,3.1034482758620694,3.928571428571429,0,88908.39542756179,292390.3430145102,212059.41038406294,196863.25890730362,45312.03732100036,5.927226361837453e-07,0.0,0.0,0.0,5.927226361837453e-07,0.0,23.52951402738119,3.299357313803971,0.0015362270193808331,0.0
4227,3.793103448275862,3.1034482758620694,4.285714285714286,0,146091.05873393553,281121.1488582982,220890.12378633604,114544.04774850745,-53016.040298908614,9.7394039155957e-07,0.0,0.0,0.0,9.7394039155957e-07,0.0,24.394747928545073,3.596052696478981,-0.0017763895303259728,0.0
4228,3.793103448275862,3.1034482758620694,4.642857142857143,0,124641.6091378641,276952.92788344,266009.3423457853,147200.3675752982,-30620.724527473263,8.30944060919094e-07,0.0,0.0,0.0,8.30944060919094e-07,0.0,23.999083018921425,3.8972141766511332,-0.0010223045100108347,0.0
4229,3.793103448275862,3.1034482758620694,5.0,0,265176.8736104272,339956.67607965454,267867.13472090015,46188.99641115815,-2577.3152629494207,1.7678458240695145e-06,0.0,0.0,0.0,1.7678458240695145e-06,0.0,24.829424347744627,4.20014964878863,-8.595180929300223e-05,0.0
4230,4.137931034482759,3.1034482758620694,0.0,0,286560.4130554898,364601.81563581503,49633.47004793076,119293.52150407506,-34945.078904592396,1.9104027537032653e-06,0.0,0.0,0.0,1.9104027537032653e-06,0.0,24.56964478452712,-0.04984717142444267,-0.0011653959455077288,0.0
4231,4.137931034482759,3.1034482758620694,0.35714285714285715,0,150287.25277998523,287786.6814581466,197891.44696624845,114287.9325178785,-45646.137780414145,1.001915018533235e-06,0.0,0.0,0.0,1.001915018533235e-06,0.0,24.094969325075205,0.25437372659344376,-0.0015239434480273527,0.0
4232,4.137931034482759,3.1034482758620694,0.7142857142857143,0,144728.30946002915,231473.93345224546,201473.18396379444,74096.41927982253,40276.81602171404,9.648553964001943e-07,0.0,0.0,0.0,9.648553964001943e-07,0.0,23.912898140814086,0.560406310944354,0.0013495408916329628,0.0
4233,4.137931034482759,3.1034482758620694,1.0714285714285714,0,237396.21500714833,397583.9147453145,264187.3531044079,123494.74476502361,-32999.17798340799,1.5826414333809888e-06,0.0,0.0,0.0,1.5826414333809888e-06,0.0,23.870196022057687,0.8709998899083101,-0.0011187806117906262,0.0
4234,4.137931034482759,3.1034482758620694,1.4285714285714286,0,313423.7110166254,361167.06924638466,252814.5881037649,7943.629223028808,-43574.48284274498,2.0894914067775026e-06,0.0,0.0,0.0,2.0894914067775026e-06,0.0,24.130761479064056,1.189404158597071,-0.0015341577836477686,0.0
4235,4.137931034482759,3.1034482758620694,1.7857142857142858,0,393946.62977355666,709944.7337964221,445058.5134895067,257235.46116465805,-4999.036409460859,2.6263108651570442e-06,0.0,0.0,0.0,2.6263108651570442e-06,0.0,25.110315623393426,1.5153869727388676,-0.00019744943260519135,0.0
4236,4.137931034482759,3.1034482758620694,2.142857142857143,0,160761.79797482802,430475.2902194786,378420.4801990519,250136.25812497071,379586.80161669804,1.0717453198321868e-06,0.0,0.0,0.0,1.0717453198321868e-06,0.0,24.361309519830005,1.8411153474497814,0.020347786720451903,0.0
4237,4.137931034482759,3.1034482758620694,2.5,0,552435.6966547786,955376.8351904136,691432.1815116047,320477.9592563817,466582.9207552817,3.6829046443651905e-06,0.0,0.0,0.0,3.6829046443651905e-06,0.0,24.911435010200538,2.154167162114492,0.04665829207552817,0.0
4238,4.137931034482759,3.1034482758620694,2.857142857142857,0,555629.9639026375,1081278.6163333054,687688.8279144671,445689.96006048046,186448.27421610465,3.7041997593509166e-06,0.0,0.0,0.0,3.7041997593509166e-06,0.0,23.702217212595283,2.4482582045926384,0.009994577530060096,0.0
4239,4.137931034482759,3.1034482758620694,3.2142857142857144,0,257740.18673739725,490158.6799469638,213671.2410156747,256541.8723256928,11244.924259531283,1.7182679115826482e-06,0.0,0.0,0.0,1.7182679115826482e-06,0.0,23.48690000175362,2.729672687024582,0.00044414637799612667,0.0
4240,4.137931034482759,3.1034482758620694,3.5714285714285716,0,284565.2092191912,351582.9702849921,442829.9760065477,123833.38328852027,2854.5289520548395,1.8971013947946082e-06,0.0,0.0,0.0,1.8971013947946082e-06,0.0,23.979412264278455,3.0108327300256423,0.00010050142938579888,0.0
4241,4.137931034482759,3.1034482758620694,3.928571428571429,0,262524.3142355781,335553.4824568529,297240.98486665974,55978.09081476506,28456.875316597838,1.7501620949038542e-06,0.0,0.0,0.0,1.7501620949038542e-06,0.0,24.78540282669211,3.2995713184797393,0.0009647816194803568,0.0
4242,4.137931034482759,3.1034482758620694,4.285714285714286,0,63782.58713087065,273154.5290159738,215349.3677053603,204728.0199691525,24845.036118612596,4.2521724753913765e-07,0.0,0.0,0.0,4.2521724753913765e-07,0.0,24.317158368933264,3.59612059665864,0.0008324737530913377,0.0
4243,4.137931034482759,3.1034482758620694,4.642857142857143,0,213869.56066749163,287411.6243462976,163792.30960024672,40456.381699430174,-23842.033901367588,1.4257970711166109e-06,0.0,0.0,0.0,1.4257970711166109e-06,0.0,24.911168731561094,3.897230869450587,-0.0007959909231844215,0.0
4244,4.137931034482759,3.1034482758620694,5.0,0,109688.87392805958,285776.77026958554,203806.46550340272,161171.63871877323,-16278.090533354614,7.312591595203972e-07,0.0,0.0,0.0,7.312591595203972e-07,0.0,25.102969268177063,4.200152828575558,-0.0005428638681850613,0.0
4245,4.482758620689656,3.1034482758620694,0.0,0,227249.5153099444,272966.4252789078,223725.5540937318,25133.434792339143,65638.23251431365,1.5149967687329626e-06,0.0,0.0,0.0,1.5149967687329626e-06,0.0,23.95972425128733,-0.049844903834056674,0.0021889929123159596,0.0
4246,4.482758620689656,3.1034482758620694,0.35714285714285715,0,183344.67735079548,388924.9734713476,246051.91466775874,182189.74668503663,31084.925614447446,1.2222978490053031e-06,0.0,0.0,0.0,1.2222978490053031e-06,0.0,24.86023699841725,0.2543856306714265,0.0010378023426744565,0.0
4247,4.482758620689656,3.1034482758620694,0.7142857142857143,0,141299.33103221108,342074.0735124547,313234.20337755594,188579.7074085923,-7881.201691358042,9.419955402147405e-07,0.0,0.0,0.0,9.419955402147405e-07,0.0,25.141825658768703,0.5604547323631786,-0.0002640726107038963,0.0
4248,4.482758620689656,3.1034482758620694,1.0714285714285714,0,289470.54005716904,338843.53205171635,195144.1674971016,5639.5633528179005,-73850.7727439717,1.9298036003811268e-06,0.0,0.0,0.0,1.9298036003811268e-06,0.0,24.969301182120685,0.871152502317995,-0.0025037839655658685,0.0
4249,4.482758620689656,3.1034482758620694,1.4285714285714286,0,218231.35420557606,435614.92318846384,304683.72199149866,183688.36320909782,-12491.531023327312,1.4548756947038405e-06,0.0,0.0,0.0,1.4548756947038405e-06,0.0,23.6603056175106,1.1897768529222248,-0.00043979820984395036,0.0
4250,4.482758620689656,3.1034482758620694,1.7857142857142858,0,263467.43382035,508747.02794240095,237157.8317420831,254231.87532732476,-14677.6514832584,1.7564495588023331e-06,0.0,0.0,0.0,1.7564495588023331e-06,0.0,23.534545186671934,1.516092195468941,-0.0005797305160373242,0.0
4251,4.482758620689656,3.1034482758620694,2.142857142857143,0,218353.16199084508,672607.4171092988,491253.00001963746,430236.32304843253,231502.7743416589,1.455687746605634e-06,0.0,0.0,0.0,1.455687746605634e-06,0.0,24.242433312571766,1.8421493233457185,0.012409728308345276,0.0
4252,4.482758620689656,3.1034482758620694,2.5,0,342398.9779651085,823537.0280581315,726028.4525762759,442960.3203510788,449907.2203967938,2.2826598531007234e-06,0.0,0.0,0.0,2.2826598531007234e-06,0.0,24.266093497762224,2.1553418030155322,0.04499072203967938,0.0
4253,4.482758620689656,3.1034482758620694,2.857142857142857,0,577362.6530431417,796118.9389184354,667110.7922213417,165165.12667564984,281757.63226832997,3.849084353620945e-06,0.0,0.0,0.0,3.849084353620945e-06,0.0,24.89764843412516,2.4492921804885754,0.015103644762772211,0.0
4254,4.482758620689656,3.1034482758620694,3.2142857142857144,0,201154.5982206933,423356.202556854,295083.3645279716,191521.44826939757,60328.36990229608,1.341030654804622e-06,0.0,0.0,0.0,1.341030654804622e-06,0.0,23.997130042659222,2.7303779097546554,0.0023828196939436044,0.0
4255,4.482758620689656,3.1034482758620694,3.5714285714285716,0,93954.69743911391,337458.8085955394,229425.9274404168,274830.8865619335,-22719.082790007997,6.263646495940927e-07,0.0,0.0,0.0,6.263646495940927e-07,0.0,24.693557084246912,3.0112054243507966,-0.0007998868931024393,0.0
4256,4.482758620689656,3.1034482758620694,3.928571428571429,0,248598.5442955313,289362.492870225,320124.0798323269,57576.27843651194,-41020.88791064002,1.6573236286368753e-06,0.0,0.0,0.0,1.6573236286368753e-06,0.0,23.948819604320526,3.2997239308894244,-0.001390742948079972,0.0
4257,4.482758620689656,3.1034482758620694,4.285714285714286,0,260504.4988323909,446271.95529768185,292015.25091345306,145500.4816457232,-5599.625790428807,1.736696658882606e-06,0.0,0.0,0.0,1.736696658882606e-06,0.0,24.66768698906583,3.596169018077464,-0.0001876246617397,0.0
4258,4.482758620689656,3.1034482758620694,4.642857142857143,0,80970.9234379188,139001.26908535624,231553.19329280086,196761.84857556026,-15556.029678702458,5.39806156252792e-07,0.0,0.0,0.0,5.39806156252792e-07,0.0,24.27134291659355,3.8972427735285695,-0.000519354115351894,0.0
4259,4.482758620689656,3.1034482758620694,5.0,0,230395.46885722052,300921.2396656767,78867.28528839676,63004.14040680576,-59228.71349966994,1.53596979238147e-06,0.0,0.0,0.0,1.53596979238147e-06,0.0,24.68387721232032,4.200155096165943,-0.0019752395683125257,0.0
4260,4.827586206896552,3.1034482758620694,0.0,0,371200.5847781625,429098.3834433355,383509.4695558404,37208.935558815785,19381.47345940128,2.47467056518775e-06,0.0,0.0,0.0,2.47467056518775e-06,0.0,24.27398043555868,-0.04984371762579406,0.0006463596962885543,0.0
4261,4.827586206896552,3.1034482758620694,0.35714285714285715,0,245038.99438000648,326837.6910819862,222071.8612524086,46831.84357503779,-23254.740031493457,1.6335932958667098e-06,0.0,0.0,0.0,1.6335932958667098e-06,0.0,23.356921735118604,0.25439185786119994,-0.0007763835108472196,0.0
4262,4.827586206896552,3.1034482758620694,0.7142857142857143,0,194652.6412566829,368312.03613014665,204047.40700841293,153317.01249398154,-8620.18813574204,1.2976842750445526e-06,0.0,0.0,0.0,1.2976842750445526e-06,0.0,24.719848407275016,0.5604800622849546,-0.0002888335656046262,0.0
4263,4.827586206896552,3.1034482758620694,1.0714285714285714,0,249891.9475938542,336350.10107864963,196385.0292213752,47842.236029471846,-7038.443074189385,1.6659463172923612e-06,0.0,0.0,0.0,1.6659463172923612e-06,0.0,25.055117027125704,0.8712323360050952,-0.000238626357679406,0.0
4264,4.827586206896552,3.1034482758620694,1.4285714285714286,0,174325.7540904503,332075.5999026635,297102.69046322885,142914.62685477384,4225.376624736386,1.1621716939363354e-06,0.0,0.0,0.0,1.1621716939363354e-06,0.0,24.056913915039967,1.1899718145390408,0.00014876583759070272,0.0
4265,4.827586206896552,3.1034482758620694,1.7857142857142858,0,107435.17559542002,302815.82555378956,426716.04177997576,370138.94674586947,65842.8917424898,7.162345039694668e-07,0.0,0.0,0.0,7.162345039694668e-07,0.0,24.88433278303698,1.5164611073476335,0.0026006295115265526,0.0
4266,4.827586206896552,3.1034482758620694,2.142857142857143,0,480296.34015462984,846759.5545854821,723973.4428745037,316989.2443248432,200651.62907907466,3.2019756010308658e-06,0.0,0.0,0.0,3.2019756010308658e-06,0.0,24.17762324173861,1.8426902106059078,0.010755949722759362,0.0
4267,4.827586206896552,3.1034482758620694,2.5,0,498453.1060375863,808541.2103813936,492647.01894266467,233924.40880381456,582076.1748771906,3.323020706917242e-06,0.0,0.0,0.0,3.323020706917242e-06,0.0,23.81408475862581,2.155956274108298,0.05820761748771906,0.0
4268,4.827586206896552,3.1034482758620694,2.857142857142857,0,292237.57751922176,683149.8210118345,518504.1578484241,345735.52364694455,278769.8984663421,1.948250516794812e-06,0.0,0.0,0.0,1.948250516794812e-06,0.0,24.18811801774126,2.4498330677487647,0.014943487007230114,0.0
4269,4.827586206896552,3.1034482758620694,3.2142857142857144,0,352512.96153091645,494175.6152259011,607210.1970695094,212044.4519538645,117357.3240699569,2.3500864102061096e-06,0.0,0.0,0.0,2.3500864102061096e-06,0.0,24.406600774572627,2.730746821633348,0.004635320720173678,0.0
4270,4.827586206896552,3.1034482758620694,3.5714285714285716,0,292672.3996044005,516957.3601981145,285469.84519099706,187983.02025603675,36048.988022117876,1.9511493306960034e-06,0.0,0.0,0.0,1.9511493306960034e-06,0.0,23.843032414053592,3.0114003859676126,0.0012692023395055713,0.0
4271,4.827586206896552,3.1034482758620694,3.928571428571429,0,259831.61074579498,488373.07428172254,219457.8195838806,238694.33217578137,43831.59919259044,1.7322107383052998e-06,0.0,0.0,0.0,1.7322107383052998e-06,0.0,25.182793223138543,3.2998037645765246,0.001486035300185482,0.0
4272,4.827586206896552,3.1034482758620694,4.285714285714286,0,175609.62670264678,333985.9287566788,163777.95880623994,153432.0814732516,-30030.835256776205,1.170730844684312e-06,0.0,0.0,0.0,1.170730844684312e-06,0.0,23.747296250456813,3.5961943479992406,-0.0010062324729706292,0.0
4273,4.827586206896552,3.1034482758620694,4.642857142857143,0,32923.31503695776,289404.53374487796,255628.67601883397,257405.7396129412,41052.69555625392,2.1948876691305177e-07,0.0,0.0,0.0,2.1948876691305177e-07,0.0,24.246734119268258,3.897249000718343,0.0013705866357801447,0.0
4274,4.827586206896552,3.1034482758620694,5.0,0,116600.15156082601,243892.45408317534,289078.36903938616,156647.93998993968,3000.9715816707503,7.773343437388401e-07,0.0,0.0,0.0,7.773343437388401e-07,0.0,24.06105428242515,4.2001562823742065,0.00010008047552021407,0.0
4275,5.172413793103448,3.1034482758620694,0.0,0,248894.10174196816,357371.32825291523,285881.0855107357,80555.4023939336,22552.02636955678,1.6592940116131211e-06,0.0,0.0,0.0,1.6592940116131211e-06,0.0,25.132793818357307,-0.04984371762579406,0.0007520956002366025,0.0
4276,5.172413793103448,3.1034482758620694,0.35714285714285715,0,205988.68266880783,443353.3899164616,211855.61310177945,280297.82243496104,22039.938020033034,1.373257884458719e-06,0.0,0.0,0.0,1.373257884458719e-06,0.0,23.70694181085715,0.25439185786119994,0.0007358260911829012,0.0
4277,5.172413793103448,3.1034482758620694,0.7142857142857143,0,167298.359021709,311641.47227213776,253190.09657591805,122959.46300411313,15055.15833743199,1.11532239347806e-06,0.0,0.0,0.0,1.11532239347806e-06,0.0,24.877952068283097,0.5604800622849546,0.0005044478142318847,0.0
4278,5.172413793103448,3.1034482758620694,1.0714285714285714,0,249034.84635266245,177064.85445075156,349377.2385151991,63847.81251859901,-36541.61414991899,1.6602323090177498e-06,0.0,0.0,0.0,1.6602323090177498e-06,0.0,24.568673845299028,0.8712323360050952,-0.0012388808428809618,0.0
4279,5.172413793103448,3.1034482758620694,1.4285714285714286,0,97454.03737598332,445140.45880031056,358847.7629699364,339444.3915762053,42424.593544889955,6.496935825065555e-07,0.0,0.0,0.0,6.496935825065555e-07,0.0,23.850966300491045,1.1899718145390408,0.0014936728139694358,0.0
4280,5.172413793103448,3.1034482758620694,1.7857142857142858,0,470817.70995488367,673120.3805679651,305424.11479025707,142474.1679453735,79005.98890365366,3.1387847330325577e-06,0.0,0.0,0.0,3.1387847330325577e-06,0.0,24.303782020020854,1.5164611073476335,0.0031205389206438823,0.0
4281,5.172413793103448,3.1034482758620694,2.142857142857143,0,389127.4642971828,568869.9815082676,158955.63705827817,204545.7608354936,191491.30182538048,2.594183095314552e-06,0.0,0.0,0.0,2.594183095314552e-06,0.0,24.393018579710652,1.8426902106059078,0.010264909506255922,0.0
4282,5.172413793103448,3.1034482758620694,2.5,0,640028.0962067213,1014848.489237064,744356.3442059458,283983.86131767224,518190.83050606085,4.266853974711475e-06,0.0,0.0,0.0,4.266853974711475e-06,0.0,24.781513582309348,2.155956274108298,0.05181908305060609,0.0
4283,5.172413793103448,3.1034482758620694,2.857142857142857,0,481244.51839718485,908288.9982007701,716231.9313095633,360672.32410021295,213152.3525996341,3.2082967893145655e-06,0.0,0.0,0.0,3.2082967893145655e-06,0.0,24.171290930340575,2.4498330677487647,0.01142605219988535,0.0
4284,5.172413793103448,3.1034482758620694,3.2142857142857144,0,258725.8246656756,554080.2699517333,271116.75171666447,329605.8132038783,-20964.87528790377,1.724838831104504e-06,0.0,0.0,0.0,1.724838831104504e-06,0.0,24.814228726585903,2.730746821633348,-0.0008280601282281192,0.0
4285,5.172413793103448,3.1034482758620694,3.5714285714285716,0,356563.0282153859,330455.33508950815,274085.61191547883,-50934.89709949576,38430.2827991942,2.3770868547692394e-06,0.0,0.0,0.0,2.3770868547692394e-06,0.0,24.5276295152208,3.0114003859676126,0.001353042276989068,0.0
4286,5.172413793103448,3.1034482758620694,3.928571428571429,0,199072.72611113914,406413.36886086187,218631.929890214,197703.01401248146,-49753.88230506296,1.3271515074075943e-06,0.0,0.0,0.0,1.3271515074075943e-06,0.0,24.73358326824162,3.2998037645765246,-0.0016868201660115557,0.0
4287,5.172413793103448,3.1034482758620694,4.285714285714286,0,182985.9412506477,301409.6569279871,236340.32045642243,94782.08021012956,-43309.617392646374,1.2199062750043181e-06,0.0,0.0,0.0,1.2199062750043181e-06,0.0,24.07210101711883,3.5961943479992406,-0.0014511598841587656,0.0
4288,5.172413793103448,3.1034482758620694,4.642857142857143,0,112275.47551429199,229739.98483442044,193168.53227702252,103738.52597527679,64651.67628992734,7.4850317009528e-07,0.0,0.0,0.0,7.4850317009528e-07,0.0,24.396884063623844,3.897249000718343,0.002158462977962956,0.0
4289,5.172413793103448,3.1034482758620694,5.0,0,104627.7421263256,192818.04484402502,313061.8460610334,242789.29896492444,-14634.759667622799,6.975182808421707e-07,0.0,0.0,0.0,6.975182808421707e-07,0.0,24.577297007444205,4.2001562823742065,-0.00048805983888868204,0.0
4290,5.517241379310345,3.1034482758620694,0.0,0,238205.18980493245,419579.3969938758,244473.62587122,148327.87469384223,22037.019162724948,1.5880345986995497e-06,0.0,0.0,0.0,1.5880345986995497e-06,0.0,24.479160626115572,-0.049844903834056674,0.0007349204405413643,0.0
4291,5.517241379310345,3.1034482758620694,0.35714285714285715,0,206851.61858184543,376482.931564896,175683.53927036078,164068.5258900924,37698.56668516007,1.3790107905456362e-06,0.0,0.0,0.0,1.3790107905456362e-06,0.0,24.42329420143647,0.2543856306714265,0.001258605579649343,0.0
4292,5.517241379310345,3.1034482758620694,0.7142857142857143,0,192372.57230728256,342133.79094570066,297046.1734851094,131221.89404780645,26035.15952445644,1.2824838153818838e-06,0.0,0.0,0.0,1.2824838153818838e-06,0.0,25.49395658390803,0.5604547323631786,0.0008723507930591908,0.0
4293,5.517241379310345,3.1034482758620694,1.0714285714285714,0,146184.532959751,315890.06249206676,154893.30250691433,191460.48478792183,5403.0798084516955,9.745635530650066e-07,0.0,0.0,0.0,9.745635530650066e-07,0.0,24.73968907627313,0.871152502317995,0.0001831821670434496,0.0
4294,5.517241379310345,3.1034482758620694,1.4285714285714286,0,84179.83790283342,359954.50888027955,385193.4048462582,291281.31447073014,3559.923420629766,5.611989193522228e-07,0.0,0.0,0.0,5.611989193522228e-07,0.0,24.821002194532497,1.1897768529222248,0.00012533675372944708,0.0
4295,5.517241379310345,3.1034482758620694,1.7857142857142858,0,543005.1797485768,452574.7445133482,517941.8121122368,-54788.00219372671,91741.34657228546,3.620034531657179e-06,0.0,0.0,0.0,3.620034531657179e-06,0.0,24.585459757480987,1.516092195468941,0.003623553689837515,0.0
4296,5.517241379310345,3.1034482758620694,2.142857142857143,0,284992.8590376037,780621.12366597,835509.4289414407,527064.5909657199,303031.1214358974,1.8999523935840248e-06,0.0,0.0,0.0,1.8999523935840248e-06,0.0,24.733377282393246,1.8421493233457185,0.01624401217949449,0.0
4297,5.517241379310345,3.1034482758620694,2.5,0,118982.65696827888,578999.5717021847,671851.5676061577,713122.5068966859,649875.0204646279,7.932177131218592e-07,0.0,0.0,0.0,7.932177131218592e-07,0.0,24.57078388629598,2.1553418030155322,0.06498750204646278,0.0
4298,5.517241379310345,3.1034482758620694,2.857142857142857,0,268766.1377407183,728573.1565911268,513270.02608035336,427353.3648876517,300101.034057813,1.7917742516047887e-06,0.0,0.0,0.0,1.7917742516047887e-06,0.0,25.38510351093574,2.4492921804885754,0.0160869445660063,0.0
4299,5.517241379310345,3.1034482758620694,3.2142857142857144,0,342774.32772947225,540776.9727538261,413335.5963840797,152536.23674119523,52348.855222843005,2.2851621848631484e-06,0.0,0.0,0.0,2.2851621848631484e-06,0.0,24.450911191041133,2.7303779097546554,0.002067648825625659,0.0
4300,5.517241379310345,3.1034482758620694,3.5714285714285716,0,332369.80858981196,451644.1290646072,274982.54150089226,68249.44004710906,80808.99178498695,2.21579872393208e-06,0.0,0.0,0.0,2.21579872393208e-06,0.0,24.90135715683482,3.0112054243507966,0.0028450996006785093,0.0
4301,5.517241379310345,3.1034482758620694,3.928571428571429,0,130675.49712290625,343625.5069467803,197253.6153062398,302181.29314440856,-16418.30904624504,8.71169980819375e-07,0.0,0.0,0.0,8.71169980819375e-07,0.0,25.533077748488715,3.2997239308894244,-0.0005566346485527998,0.0
4302,5.517241379310345,3.1034482758620694,4.285714285714286,0,275743.4571686023,389671.6433024285,198125.05229336486,73632.86757937103,651.624706441695,1.8382897144573489e-06,0.0,0.0,0.0,1.8382897144573489e-06,0.0,24.821680562790508,3.596169018077464,2.1833756344277406e-05,0.0
4303,5.517241379310345,3.1034482758620694,4.642857142857143,0,203886.44200018275,425580.2033534719,210045.88165406094,235786.22762792837,14430.274587002481,1.359242946667885e-06,0.0,0.0,0.0,1.359242946667885e-06,0.0,24.35764043403927,3.8972427735285695,0.000481769619061482,0.0
4304,5.517241379310345,3.1034482758620694,5.0,0,247845.80508513615,405996.55793249747,156147.89097209024,160203.3872283016,16579.63043368971,1.652305367234241e-06,0.0,0.0,0.0,1.652305367234241e-06,0.0,24.137614090454928,4.200155096165943,0.0005529200302620953,0.0
4305,5.862068965517242,3.1034482758620694,0.0,0,93723.2638154151,376049.061891368,287197.9430625239,278115.0060267478,10065.847810372947,6.24821758769434e-07,0.0,0.0,0.0,6.24821758769434e-07,0.0,24.156996893173904,-0.04984717142444267,0.0003356895618502914,0.0
4306,5.862068965517242,3.1034482758620694,0.35714285714285715,0,198408.00831823068,344589.3325640397,237045.92569518043,115627.59090230006,-42985.082693426724,1.3227200554548712e-06,0.0,0.0,0.0,1.3227200554548712e-06,0.0,24.60536581380101,0.25437372659344376,-0.0014351013759080686,0.0
4307,5.862068965517242,3.1034482758620694,0.7142857142857143,0,227060.79358030655,277222.1037339261,220139.67835827023,27066.80865004852,5593.2244364354165,1.5137386238687102e-06,0.0,0.0,0.0,1.5137386238687102e-06,0.0,25.30637292266703,0.560406310944354,0.0001874101738573599,0.0
4308,5.862068965517242,3.1034482758620694,1.0714285714285714,0,252970.13008501823,407887.83612948196,169811.31901017326,142276.8457521881,8855.585398453855,1.6864675339001215e-06,0.0,0.0,0.0,1.6864675339001215e-06,0.0,24.720792987617724,0.8709998899083101,0.00030023345596147323,0.0
4309,5.862068965517242,3.1034482758620694,1.4285714285714286,0,453040.6424361296,551618.2792224261,193208.05986111175,42409.51851352355,52259.554581777105,3.0202709495741974e-06,0.0,0.0,0.0,3.0202709495741974e-06,0.0,24.23043954522874,1.189404158597071,0.0018399392764095086,0.0
4310,5.862068965517242,3.1034482758620694,1.7857142857142858,0,84766.91908220907,631946.7597731595,643043.8192844662,553274.9118085623,106028.70981206911,5.651127938813938e-07,0.0,0.0,0.0,5.651127938813938e-07,0.0,24.275987797835977,1.5153869727388676,0.0041878687966010195,0.0
4311,5.862068965517242,3.1034482758620694,2.142857142857143,0,731116.3103668047,1212362.0025055436,503494.7831613974,460862.2669944065,436191.2728482321,4.874108735778698e-06,0.0,0.0,0.0,4.874108735778698e-06,0.0,24.358462459152577,1.8411153474497814,0.0233820748019597,0.0
4312,5.862068965517242,3.1034482758620694,2.5,0,238038.3921931163,716503.1038191441,847680.8571991343,572911.2597877551,491508.65197078744,1.5869226146207753e-06,0.0,0.0,0.0,1.5869226146207753e-06,0.0,23.767605252189625,2.154167162114492,0.049150865197078744,0.0
4313,5.862068965517242,3.1034482758620694,2.857142857142857,0,173212.77446073634,674045.3234571501,641936.1722748723,487024.61951261153,243233.59296074777,1.1547518297382424e-06,0.0,0.0,0.0,1.1547518297382424e-06,0.0,24.213793086271867,2.4482582045926384,0.013038559959764388,0.0
4314,5.862068965517242,3.1034482758620694,3.2142857142857144,0,575593.665679849,692643.6115600894,85741.89655713117,154542.37750741694,81710.60736696534,3.837291104532327e-06,0.0,0.0,0.0,3.837291104532327e-06,0.0,24.19661285531781,2.729672687024582,0.00322736458408249,0.0
4315,5.862068965517242,3.1034482758620694,3.5714285714285716,0,281640.53642565955,434728.82144929806,437054.34485429496,154258.2475648975,51966.0509699949,1.8776035761710637e-06,0.0,0.0,0.0,1.8776035761710637e-06,0.0,25.841180839499643,3.0108327300256423,0.001829605686171171,0.0
4316,5.862068965517242,3.1034482758620694,3.928571428571429,0,258689.67562268703,448665.5142877069,297326.41032919404,149965.23576265166,-6893.830079849873,1.7245978374845802e-06,0.0,0.0,0.0,1.7245978374845802e-06,0.0,24.920296781331203,3.2995713184797393,-0.0002337235017851961,0.0
4317,5.862068965517242,3.1034482758620694,4.285714285714286,0,134660.65092078163,343804.0692483412,188460.38216054218,272026.72041430406,-25525.640002130407,8.977376728052109e-07,0.0,0.0,0.0,8.977376728052109e-07,0.0,23.925051091489994,3.59612059665864,-0.0008552785043734724,0.0
4318,5.862068965517242,3.1034482758620694,4.642857142857143,0,207205.1676126572,284096.28962976823,238691.27023669958,57953.937115201654,-55054.18858722707,1.3813677840843815e-06,0.0,0.0,0.0,1.3813677840843815e-06,0.0,23.681726417383572,3.897230869450587,-0.0018380409397959307,0.0
4319,5.862068965517242,3.1034482758620694,5.0,0,214381.79427443023,329023.0383118336,161597.80606008696,87398.58785929982,12477.522255222739,1.4292119618295348e-06,0.0,0.0,0.0,1.4292119618295348e-06,0.0,23.818057907605763,4.200152828575558,0.000416117356206858,0.0
4320,6.206896551724139,3.1034482758620694,0.0,0,225165.7147729216,244362.29212020393,375370.2960849156,115373.93877184951,-3978.852357180508,1.5011047651528108e-06,0.0,0.0,0.0,1.5011047651528108e-06,0.0,25.064527951074542,-0.049850351211370436,-0.00013269217154987333,0.0
4321,6.206896551724139,3.1034482758620694,0.35714285714285715,0,155366.22243058897,272895.14863619633,182733.87681050933,93494.47747383323,-15294.364541154127,1.0357748162039264e-06,0.0,0.0,0.0,1.0357748162039264e-06,0.0,23.687928989016925,0.25435703379399005,-0.0005106181545163409,0.0
4322,6.206896551724139,3.1034482758620694,0.7142857142857143,0,333210.21155816136,422340.8454783229,210512.35008519326,38261.96758725112,32010.15303844267,2.2214014103877423e-06,0.0,0.0,0.0,2.2214014103877423e-06,0.0,25.17205166268075,0.560338410764695,0.0010725527670687291,0.0
4323,6.206896551724139,3.1034482758620694,1.0714285714285714,0,415222.13734219625,427859.7495962357,201839.30044103088,-51340.98654847608,-2928.23167014485,2.7681475822813084e-06,0.0,0.0,0.0,2.7681475822813084e-06,0.0,24.49178536394434,0.8707858852325415,-9.927667958991408e-05,0.0
4324,6.206896551724139,3.1034482758620694,1.4285714285714286,0,386693.9686504601,454057.45653521374,303131.95320313534,14660.171300825023,5358.7167229223305,2.5779597910030676e-06,0.0,0.0,0.0,2.5779597910030676e-06,0.0,24.253663997751136,1.1888815383961318,0.0001886681478355984,0.0
4325,6.206896551724139,3.1034482758620694,1.7857142857142858,0,204787.79578176554,397670.33347879886,590675.8696305085,375852.82196468883,118445.3032526299,1.365251971878437e-06,0.0,0.0,0.0,1.365251971878437e-06,0.0,23.809074950805975,1.5143980560314678,0.0046782931762051035,0.0
4326,6.206896551724139,3.1034482758620694,2.142857142857143,0,543768.277591896,834045.4246522489,950444.2340714267,357901.84251761454,535685.0218048648,3.62512185061264e-06,0.0,0.0,0.0,3.62512185061264e-06,0.0,25.018043429396805,1.839665428161964,0.028715446708372918,0.0
4327,6.206896551724139,3.1034482758620694,2.5,0,177354.3087178575,798133.8852667339,655633.4258651095,599507.1855114662,562979.050801364,1.18236205811905e-06,0.0,0.0,0.0,1.18236205811905e-06,0.0,24.663966735462292,2.152519991706198,0.0562979050801364,0.0
4328,6.206896551724139,3.1034482758620694,2.857142857142857,0,740725.5289776612,1109857.2192439989,696881.8190987322,254707.20453039726,260133.60648666506,4.938170193184408e-06,0.0,0.0,0.0,4.938170193184408e-06,0.0,24.84564464534911,2.446808285304821,0.013944486797403385,0.0
4329,6.206896551724139,3.1034482758620694,3.2142857142857144,0,269050.29891347553,535609.7020005288,434416.345316288,230635.36786359895,3899.6715067829355,1.7936686594231702e-06,0.0,0.0,0.0,1.7936686594231702e-06,0.0,24.264067912488912,2.7286837703171822,0.00015402726911604235,0.0
4330,6.206896551724139,3.1034482758620694,3.5714285714285716,0,107720.75483195066,331399.2203427697,213218.94058298794,305907.10315008485,25506.274124957163,7.181383655463377e-07,0.0,0.0,0.0,7.181383655463377e-07,0.0,24.73838584668811,3.0103101098247036,0.0008980175191493257,0.0
4331,6.206896551724139,3.1034482758620694,3.928571428571429,0,151029.54385901403,366443.93468536896,431485.59044943156,258832.2881731196,-39491.21487959265,1.0068636257267601e-06,0.0,0.0,0.0,1.0068636257267601e-06,0.0,25.150606982947444,3.299357313803971,-0.0013388820038353828,0.0
4332,6.206896551724139,3.1034482758620694,4.285714285714286,0,121998.20249353698,308306.0893492276,343869.60942855774,208041.2973794021,-13191.256008125105,8.133213499569132e-07,0.0,0.0,0.0,8.133213499569132e-07,0.0,24.71216756665158,3.596052696478981,-0.00044199470448126637,0.0
4333,6.206896551724139,3.1034482758620694,4.642857142857143,0,265392.1244064354,457038.27952223714,260045.30472844877,155248.14832804838,-10054.628869522112,1.7692808293762361e-06,0.0,0.0,0.0,1.7692808293762361e-06,0.0,23.891414601288506,3.8972141766511332,-0.00033568416810566507,0.0
4334,6.206896551724139,3.1034482758620694,5.0,0,159883.84771480155,300593.1321703976,358149.90040267986,177456.21559868386,54844.3302144972,1.065892318098677e-06,0.0,0.0,0.0,1.065892318098677e-06,0.0,24.683965395334642,4.20014964878863,0.0018290232006791223,0.0
4335,6.551724137931035,3.1034482758620694,0.0,0,146431.3789536771,259910.9402283814,340129.33180130617,171117.4363442586,43051.52403382447,9.76209193024514e-07,0.0,0.0,0.0,9.76209193024514e-07,0.0,24.677266000469416,-0.049854259600803745,0.001435740685946887,0.0
4336,6.551724137931035,3.1034482758620694,0.35714285714285715,0,109804.57599959426,205549.10429742167,258597.12883741493,132341.09949289064,-55472.527217666204,7.320305066639618e-07,0.0,0.0,0.0,7.320305066639618e-07,0.0,25.143033090328778,0.254336516079288,-0.0018520076069865117,0.0
4337,6.551724137931035,3.1034482758620694,0.7142857142857143,0,215233.53937878608,359904.1553391097,277102.2417134037,115566.36402236407,57396.918676621106,1.4348902625252405e-06,0.0,0.0,0.0,1.4348902625252405e-06,0.0,24.601831181294138,0.5602549522340678,0.0019231780577211451,0.0
4338,6.551724137931035,3.1034482758620694,1.0714285714285714,0,125214.29242276614,331161.2360810373,373996.3387882529,232985.7922008911,-45134.45400521766,8.347619494851076e-07,0.0,0.0,0.0,8.347619494851076e-07,0.0,24.864830949196037,0.8705228444589131,-0.0015302063612064058,0.0
4339,6.551724137931035,3.1034482758620694,1.4285714285714286,0,218284.70274355848,309665.1452239845,221455.08171562295,61079.18532800416,12399.751872721889,1.4552313516237233e-06,0.0,0.0,0.0,1.4552313516237233e-06,0.0,24.62695558867683,1.1882391672821586,0.0004365668760657381,0.0
4340,6.551724137931035,3.1034482758620694,1.7857142857142858,0,293623.8854232054,768805.7519076318,642659.1742265333,433188.39911497664,13590.776426688688,1.9574925694880358e-06,0.0,0.0,0.0,1.9574925694880358e-06,0.0,23.64605752760835,1.513182543263654,0.000536801670224903,0.0
4341,6.551724137931035,3.1034482758620694,2.142857142857143,0,633155.1527307017,1042995.7350243733,602707.9371076317,317386.26979698543,311330.56578608695,4.221034351538011e-06,0.0,0.0,0.0,4.221034351538011e-06,0.0,24.742969951964657,1.837883280693472,0.01668890468581099,0.0
4342,6.551724137931035,3.1034482758620694,2.5,0,933853.4689873366,1076611.6495131135,1088065.6844292555,148537.88235340157,518579.59583539807,6.225689793248911e-06,0.0,0.0,0.0,6.225689793248911e-06,0.0,24.392997240191082,2.150495395855945,0.05185795958353981,0.0
4343,6.551724137931035,3.1034482758620694,2.857142857142857,0,786253.9684923684,1171286.040446829,643175.5921792698,267684.24350308086,501243.1986045621,5.241693123282456e-06,0.0,0.0,0.0,5.241693123282456e-06,0.0,25.336230317878655,2.445026137836329,0.02686918948931675,0.0
4344,6.551724137931035,3.1034482758620694,3.2142857142857144,0,491161.12019368965,703381.9654383402,476695.0693859587,139817.42243933212,56721.8247015571,3.274407467957931e-06,0.0,0.0,0.0,3.274407467957931e-06,0.0,23.622846320088808,2.7274682575493685,0.0022403701806327607,0.0
4345,6.551724137931035,3.1034482758620694,3.5714285714285716,0,214618.8357275531,362218.2527625755,300525.12963402667,123509.44458282094,15230.923224235248,1.4307922381836873e-06,0.0,0.0,0.0,1.4307922381836873e-06,0.0,23.781144006997884,3.0096677387107302,0.0005362459378101959,0.0
4346,6.551724137931035,3.1034482758620694,3.928571428571429,0,166451.93281310808,295546.6632991359,221478.78694314478,104916.80002446126,-39766.599902448506,1.1096795520873872e-06,0.0,0.0,0.0,1.1096795520873872e-06,0.0,24.714650757369714,3.2990942730303425,-0.0013482184613830093,0.0
4347,6.551724137931035,3.1034482758620694,4.285714285714286,0,280453.9996863733,421377.69579676044,233934.53797862522,98957.09441392167,-51239.2431987766,1.8696933312424885e-06,0.0,0.0,0.0,1.8696933312424885e-06,0.0,25.11249183203278,3.5959692379483537,-0.0017168550243841355,0.0
4348,6.551724137931035,3.1034482758620694,4.642857142857143,0,250859.931552124,389597.7169998732,352253.78092280636,122159.23576665697,-16032.746465021526,1.6723995436808267e-06,0.0,0.0,0.0,1.6723995436808267e-06,0.0,24.30128909074414,3.8971936589364313,-0.0005352697975629599,0.0
4349,6.551724137931035,3.1034482758620694,5.0,0,264698.7511540202,373162.78282818676,85596.02674339733,139688.54985257526,18820.018012621786,1.7646583410268014e-06,0.0,0.0,0.0,1.7646583410268014e-06,0.0,24.30866345581787,4.200145740399196,0.0006276355176124528,0.0
4350,6.8965517241379315,3.1034482758620694,0.0,0,125356.90556585314,306664.77905824385,166938.5198492301,204063.55026276608,-4483.577211163558,8.357127037723543e-07,0.0,0.0,0.0,8.357127037723543e-07,0.0,24.337251674838225,-0.04985873185987881,-0.00014952442137923419,0.0
4351,6.8965517241379315,3.1034482758620694,0.35714285714285715,0,255347.9756894589,414132.5433471773,204891.79755397068,129605.74640287219,35983.669036083724,1.7023198379297259e-06,0.0,0.0,0.0,1.7023198379297259e-06,0.0,23.996340244685697,0.25431303824082235,0.0012013519506803491,0.0
4352,6.8965517241379315,3.1034482758620694,0.7142857142857143,0,138720.45549004953,314446.19441497885,179403.94954259114,172319.04778344024,4604.659796880829,9.248030366003302e-07,0.0,0.0,0.0,9.248030366003302e-07,0.0,24.736915823866287,0.560159453006737,0.0001542866914951476,0.0
4353,6.8965517241379315,3.1034482758620694,1.0714285714285714,0,225010.1976215043,373840.0347833135,382385.84089975484,153224.48564348652,491.31191488591344,1.500067984143362e-06,0.0,0.0,0.0,1.500067984143362e-06,0.0,24.006574449248248,0.8702218543689936,1.6657089003624905e-05,0.0
4354,6.8965517241379315,3.1034482758620694,1.4285714285714286,0,300976.1955101094,571827.8034417294,421994.0353067516,225343.15304584336,29306.207681831096,2.006507970067396e-06,0.0,0.0,0.0,2.006507970067396e-06,0.0,24.6027835132206,1.187504120252417,0.001031804480308708,0.0
4355,6.8965517241379315,3.1034482758620694,1.7857142857142858,0,276916.70513367775,551324.1006571592,519923.8470660705,260045.70977334585,73291.07254612709,1.8461113675578517e-06,0.0,0.0,0.0,1.8461113675578517e-06,0.0,23.59572257116534,1.511791666510077,0.0028948140209323703,0.0
4356,6.8965517241379315,3.1034482758620694,2.142857142857143,0,349577.9077110029,645128.8817573988,538803.4645440417,254733.4748541188,443855.50385632634,2.3305193847400196e-06,0.0,0.0,0.0,2.3305193847400196e-06,0.0,25.121353420938544,1.835844019937841,0.023792916636461763,0.0
4357,6.8965517241379315,3.1034482758620694,2.5,0,752546.4988502241,874348.1981956607,1070948.5568028388,239615.32423468042,700507.0008818583,5.016976659001494e-06,0.0,0.0,0.0,5.016976659001494e-06,0.0,23.20663917568085,2.1481787082998207,0.07005070008818583,0.0
4358,6.8965517241379315,3.1034482758620694,2.857142857142857,0,742023.324840207,1128416.4506813427,359906.25516815105,416071.92281289096,440743.35664393473,4.94682216560138e-06,0.0,0.0,0.0,4.94682216560138e-06,0.0,23.73992862613542,2.442986877080698,0.023626089688183572,0.0
4359,6.8965517241379315,3.1034482758620694,3.2142857142857144,0,279613.50447063474,667653.6633884995,716856.9199807057,415907.6998045741,112434.80919419041,1.8640900298042315e-06,0.0,0.0,0.0,1.8640900298042315e-06,0.0,25.40301230442591,2.7260773807957914,0.004440893696723467,0.0
4360,6.8965517241379315,3.1034482758620694,3.5714285714285716,0,242329.45226121295,432056.3798277602,249716.28765505698,157072.2115335188,65900.92864610555,1.6155296817414196e-06,0.0,0.0,0.0,1.6155296817414196e-06,0.0,24.331536356491323,3.0089326916809886,0.002320220827333864,0.0
4361,6.8965517241379315,3.1034482758620694,3.928571428571429,0,212591.11387954635,342767.6508079515,247137.11048362267,99156.36046533518,31878.712802105005,1.417274092530309e-06,0.0,0.0,0.0,1.417274092530309e-06,0.0,23.955859099973495,3.298793282940423,0.001080793158840782,0.0
4362,6.8965517241379315,3.1034482758620694,4.285714285714286,0,243407.62564589942,406372.9753946096,227484.011426486,129188.44400610442,64738.900400727034,1.622717504305996e-06,0.0,0.0,0.0,1.622717504305996e-06,0.0,23.651943189424216,3.5958737387210227,0.0021691832175371804,0.0
4363,6.8965517241379315,3.1034482758620694,4.642857142857143,0,175575.3743764122,306532.9596411891,179219.79245008365,106237.32532350742,-19982.531932294034,1.170502495842748e-06,0.0,0.0,0.0,1.170502495842748e-06,0.0,24.077198602304367,3.8971701810979655,-0.0006671374642847288,0.0
4364,6.8965517241379315,3.1034482758620694,5.0,0,297819.18722204334,391732.2495913345,400551.39941113774,98420.58705764964,30817.23408781404,1.9854612481469555e-06,0.0,0.0,0.0,1.9854612481469555e-06,0.0,24.444847619021463,4.200141268140121,0.0010277349710886268,0.0
4365,7.241379310344828,3.1034482758620694,0.0,0,280731.5661226735,321930.39953461615,323449.9654073705,41961.700824834385,-52063.85693453321,1.8715437741511568e-06,0.0,0.0,0.0,1.8715437741511568e-06,0.0,24.4044639544434,-0.04986363467145917,-0.0017362962019532224,0.0
4366,7.241379310344828,3.1034482758620694,0.35714285714285715,0,204109.47640719978,309442.10685293097,355690.87903295323,132425.37607011775,35719.203742537014,1.3607298427146652e-06,0.0,0.0,0.0,1.3607298427146652e-06,0.0,24.32698080605875,0.2542873001481987,0.0011925225037451022,0.0
4367,7.241379310344828,3.1034482758620694,0.7142857142857143,0,159420.89962052464,330117.5848825829,172253.2121282653,169184.46499255614,2140.903849275298,1.0628059974701643e-06,0.0,0.0,0.0,1.0628059974701643e-06,0.0,23.277461773443754,0.5600547598953108,7.173450076326247e-05,0.0
4368,7.241379310344828,3.1034482758620694,1.0714285714285714,0,260102.31504724408,360538.4583377411,286970.07012565876,71575.78877266502,36766.84321375885,1.7340154336482938e-06,0.0,0.0,0.0,1.7340154336482938e-06,0.0,24.244784500014937,0.8698918874163507,0.0012465168485403296,0.0
4369,7.241379310344828,3.1034482758620694,1.4285714285714286,0,313429.8065370792,448571.30687681714,364301.37409803853,101621.35160406269,81775.19399612433,2.089532043580528e-06,0.0,0.0,0.0,2.089532043580528e-06,0.0,24.349543787230633,1.1866983089098648,0.0028791173685575582,0.0
4370,7.241379310344828,3.1034482758620694,1.7857142857142858,0,477193.4201681351,679465.6575091155,489374.6907333412,136522.16283467336,120337.61099394625,3.1812894677875674e-06,0.0,0.0,0.0,3.1812894677875674e-06,0.0,24.359104385976696,1.5102668875248213,0.004753034598197991,0.0
4371,7.241379310344828,3.1034482758620694,2.142857142857143,0,289211.31479134865,252206.45476495207,449872.905561273,117932.05421421787,322928.06849858793,1.9280754319423243e-06,0.0,0.0,0.0,1.9280754319423243e-06,0.0,24.204254897430594,1.8336084358448246,0.017310589925336586,0.0
4372,7.241379310344828,3.1034482758620694,2.5,0,759270.7837291054,948499.7595539527,1035185.8139833396,236292.47805306572,529643.6313335437,5.061805224860702e-06,0.0,0.0,0.0,5.061805224860702e-06,0.0,23.579768226062512,2.145638989024265,0.05296436313335437,0.0
4373,7.241379310344828,3.1034482758620694,2.857142857142857,0,474116.04446658154,886127.6622583318,696366.3748481335,346523.4932355858,414143.44310950127,3.16077362977721e-06,0.0,0.0,0.0,3.16077362977721e-06,0.0,23.738223829316237,2.440751292987682,0.02220019878503341,0.0
4374,7.241379310344828,3.1034482758620694,3.2142857142857144,0,670807.1363281689,844237.1453748064,330298.7557493972,85388.7689847729,49799.13876348541,4.472047575521126e-06,0.0,0.0,0.0,4.472047575521126e-06,0.0,24.810275628817543,2.724552601810536,0.0019669414038410334,0.0
4375,7.241379310344828,3.1034482758620694,3.5714285714285716,0,197015.12799053537,355148.0346350293,149012.73648649378,168736.88071462614,35754.865771175755,1.3134341866035691e-06,0.0,0.0,0.0,1.3134341866035691e-06,0.0,23.82061692064349,3.0081268803384367,0.0012588469683986947,0.0
4376,7.241379310344828,3.1034482758620694,3.928571428571429,0,269841.5491876228,402497.4550430068,320160.3593283415,101079.19312256172,-19503.206094888967,1.7989436612508187e-06,0.0,0.0,0.0,1.7989436612508187e-06,0.0,23.85218458438332,3.29846331598778,-0.0006612227994797192,0.0
4377,7.241379310344828,3.1034482758620694,4.285714285714286,0,391468.5431779778,491488.26222421764,450279.52276474744,81045.46424245737,-35162.17884869047,2.6097902878531854e-06,0.0,0.0,0.0,2.6097902878531854e-06,0.0,24.069802544112306,3.5957690456095968,-0.0011781665703077594,0.0
4378,7.241379310344828,3.1034482758620694,4.642857142857143,0,95005.02013615867,278115.07948192937,187425.91726530629,179314.34116598475,-9117.243326111044,6.333668009077244e-07,0.0,0.0,0.0,6.333668009077244e-07,0.0,23.614351300275423,3.897144443005342,-0.00030438858371188953,0.0
4379,7.241379310344828,3.1034482758620694,5.0,0,264403.08304679126,406790.3854972843,276809.3118828861,102555.87133394633,18889.828237115562,1.7626872203119418e-06,0.0,0.0,0.0,1.7626872203119418e-06,0.0,24.544305168976635,4.200136365328541,0.0006299636437787193,0.0
4380,7.586206896551724,3.1034482758620694,0.0,0,222819.93147510383,322945.4038203114,354701.1256339295,117707.00014750609,4700.579707550877,1.4854662098340256e-06,0.0,0.0,0.0,1.4854662098340256e-06,0.0,23.44946244890614,-0.049868865832292705,0.00015676131531057404,0.0
4381,7.586206896551724,3.1034482758620694,0.35714285714285715,0,151022.04877816638,345912.16723610566,171622.14914072855,253777.0267883724,-31282.856558203057,1.0068136585211093e-06,0.0,0.0,0.0,1.0068136585211093e-06,0.0,24.630428541570044,0.2542598383337162,-0.001044410471632689,0.0
4382,7.586206896551724,3.1034482758620694,0.7142857142857143,0,210446.73412241653,323975.77157953085,233130.0154063526,83365.51085312133,69500.07014772933,1.4029782274827769e-06,0.0,0.0,0.0,1.4029782274827769e-06,0.0,23.420762054555297,0.5599430553162018,0.0023287140320415174,0.0
4383,7.586206896551724,3.1034482758620694,1.0714285714285714,0,112501.75188480043,339445.5474135742,209946.6707205967,283594.1357355079,-5262.259252663956,7.500116792320029e-07,0.0,0.0,0.0,7.500116792320029e-07,0.0,23.958105275403714,0.869539822041058,-0.0001784078872830229,0.0
4384,7.586206896551724,3.1034482758620694,1.4285714285714286,0,486179.2816203876,713676.7657763944,414484.0679109354,152700.9192566955,-98712.74628283028,3.2411952108025842e-06,0.0,0.0,0.0,3.2411952108025842e-06,0.0,24.27451987566084,1.1858385310731494,-0.0034754498085859866,0.0
4385,7.586206896551724,3.1034482758620694,1.7857142857142858,0,603365.2938475743,773766.9256351602,638866.9612366585,114370.00533779584,131444.3594184739,4.022435292317162e-06,0.0,0.0,0.0,4.022435292317162e-06,0.0,24.502649194222005,1.5086399916148432,0.005191723376371563,0.0
4386,7.586206896551724,3.1034482758620694,2.142857142857143,0,791201.024334114,1196878.0628404683,717733.264783866,283648.28963830374,368818.48776332464,5.27467349556076e-06,0.0,0.0,0.0,5.27467349556076e-06,0.0,23.999596492141407,1.8312231310547464,0.0197705502288402,0.0
4387,7.586206896551724,3.1034482758620694,2.5,0,731597.0517198674,1267543.369910706,613523.552856018,477469.9611374274,646175.3153689257,4.877313678132449e-06,0.0,0.0,0.0,4.877313678132449e-06,0.0,23.7654682521935,2.142929180624589,0.06461753153689256,0.0
4388,7.586206896551724,3.1034482758620694,2.857142857142857,0,57451.26475032042,665695.0680090971,599682.6711988711,638382.7629941307,351234.2556029153,3.8300843166880283e-07,0.0,0.0,0.0,3.8300843166880283e-07,0.0,24.831092215748424,2.4383659881976034,0.018827945786011806,0.0
4389,7.586206896551724,3.1034482758620694,3.2142857142857144,0,339128.9631198169,714256.4053868487,379902.832930413,370545.7128801587,57498.69634756166,2.2608597541321127e-06,0.0,0.0,0.0,2.2608597541321127e-06,0.0,24.217038458896397,2.7229257059005576,0.00227105466723109,0.0
4390,7.586206896551724,3.1034482758620694,3.5714285714285716,0,351245.373904946,561274.0320082919,233156.57641202357,190750.98722197098,82934.05008309378,2.3416358260329736e-06,0.0,0.0,0.0,2.3416358260329736e-06,0.0,24.04571337019386,3.007267102501721,0.002919918038352491,0.0
4391,7.586206896551724,3.1034482758620694,3.928571428571429,0,65718.09323333437,329779.2944494553,270240.0285932096,259264.42076612645,18726.983784520427,4.3812062155556244e-07,0.0,0.0,0.0,4.3812062155556244e-07,0.0,23.226454120228926,3.298111250612487,0.000634906311483676,0.0
4392,7.586206896551724,3.1034482758620694,4.285714285714286,0,398889.0492143491,460489.00346299465,314553.23267442075,9183.25757046724,10055.227602663455,2.6592603280956607e-06,0.0,0.0,0.0,2.6592603280956607e-06,0.0,24.236294690029972,3.5956573410304875,0.00033691692057175005,0.0
4393,7.586206896551724,3.1034482758620694,4.642857142857143,0,230234.5712018226,438940.7198155318,307044.74814810103,173091.39013962177,-10108.650800886586,1.534897141345484e-06,0.0,0.0,0.0,1.534897141345484e-06,0.0,24.14275240044207,3.8971169811908593,-0.00033748774607207947,0.0
4394,7.586206896551724,3.1034482758620694,5.0,0,314010.8291286234,527150.5804386996,268633.4761232853,177711.46398812524,66488.66453595212,2.0934055275241562e-06,0.0,0.0,0.0,2.0934055275241562e-06,0.0,23.472038253335196,4.200131134167708,0.0022173542742305596,0.0
4395,7.931034482758621,3.1034482758620694,0.0,0,153681.2145108198,359269.63489724684,278891.5140326269,182068.04234387496,33045.069478819656,1.0245414300721319e-06,0.0,0.0,0.0,1.0245414300721319e-06,0.0,23.6119750677244,-0.04987434892611723,0.0011020318510305798,0.0
4396,7.931034482758621,3.1034482758620694,0.35714285714285715,0,258577.71957373188,306028.15401296667,268077.245762607,30572.226006867168,38781.214731073655,1.7238514638248792e-06,0.0,0.0,0.0,1.7238514638248792e-06,0.0,24.053951317655432,0.25423105395675066,0.0012947509027000385,0.0
4397,7.931034482758621,3.1034482758620694,0.7142857142857143,0,253589.72340248726,364905.7137528417,173295.7413723718,77340.56048243167,10947.379070942321,1.6905981560165818e-06,0.0,0.0,0.0,1.6905981560165818e-06,0.0,24.245706674733754,0.5598259710384721,0.00036680992123306396,0.0
4398,7.931034482758621,3.1034482758620694,1.0714285714285714,0,325310.46145634865,521612.9158314417,296659.5563905248,148610.06489180087,40782.96661861933,2.168736409708991e-06,0.0,0.0,0.0,2.168736409708991e-06,0.0,23.50754443259823,0.8691708011780938,0.0013826766341621295,0.0
4399,7.931034482758621,3.1034482758620694,1.4285714285714286,0,21860.802376876367,298733.8051285601,274694.5521099629,293383.54262880114,24436.95564774788,1.457386825125091e-07,0.0,0.0,0.0,1.457386825125091e-07,0.0,23.51706066833763,1.1849373462889363,0.0008603692636111159,0.0
4400,7.931034482758621,3.1034482758620694,1.7857142857142858,0,206422.12105347792,395552.7914252025,290449.70159505546,528271.5826174879,46015.0724645618,1.3761474736898528e-06,0.0,0.0,0.0,1.3761474736898528e-06,0.0,24.084040538577973,1.50693474430913,0.0018174802512379317,0.0
4401,7.931034482758621,3.1034482758620694,2.142857142857143,0,663065.1450933402,1017402.050785371,773778.3304574529,266987.7735024189,413908.5397484082,4.420434300622268e-06,0.0,0.0,0.0,4.420434300622268e-06,0.0,23.610339332858175,1.8287229498559139,0.022187606767947773,0.0
4402,7.931034482758621,3.1034482758620694,2.5,0,790217.5048438894,1071966.0909770955,679361.0805447077,162333.58898574783,925223.7166532442,5.268116698959263e-06,0.0,0.0,0.0,5.268116698959263e-06,0.0,23.935340067524088,2.140088867704627,0.09252237166532443,0.0
4403,7.931034482758621,3.1034482758620694,2.857142857142857,0,381260.1184958518,1001076.2279328365,745201.3994692334,562888.3792540994,397356.5518496495,2.541734123305679e-06,0.0,0.0,0.0,2.541734123305679e-06,0.0,24.928077203503566,2.435865806998771,0.021300335877260868,0.0
4404,7.931034482758621,3.1034482758620694,3.2142857142857144,0,200016.68376277335,802178.0551429787,586610.0519457689,622599.2014891388,156752.94552382635,1.333444558418489e-06,0.0,0.0,0.0,1.333444558418489e-06,0.0,24.023822952450455,2.7212204585948445,0.0061913492156801435,0.0
4405,7.931034482758621,3.1034482758620694,3.5714285714285716,0,159130.4184465884,418905.39342783816,240163.1042259458,292644.06567287893,62028.14260504815,1.0608694563105892e-06,0.0,0.0,0.0,1.0608694563105892e-06,0.0,24.56126271369589,3.006365917717508,0.0021838688969912216,0.0
4406,7.931034482758621,3.1034482758620694,3.928571428571429,0,173963.19141733123,253447.68133998654,291146.94841415767,101425.24017012719,23070.456422535775,1.1597546094488748e-06,0.0,0.0,0.0,1.1597546094488748e-06,0.0,23.431871471740003,3.297742229749523,0.0007821643122041171,0.0
4407,7.931034482758621,3.1034482758620694,4.285714285714286,0,366900.81786629814,554196.9534273462,132920.85214824163,382431.0653114649,65175.604345825384,2.4460054524419876e-06,0.0,0.0,0.0,2.4460054524419876e-06,0.0,23.675433174441082,3.595540256752758,0.0021838157006790937,0.0
4408,7.931034482758621,3.1034482758620694,4.642857142857143,0,159703.71850950219,313900.2371539022,394654.8651949757,210700.75902743766,-85201.10291489719,1.0646914567300146e-06,0.0,0.0,0.0,1.0646914567300146e-06,0.0,23.669562376205505,3.8970881968138937,-0.0028445268069881313,0.0
4409,7.931034482758621,3.1034482758620694,5.0,0,188599.3328796874,308991.9788139507,167860.31741896793,94790.84961159294,-71990.78275089749,1.2573288858645827e-06,0.0,0.0,0.0,1.2573288858645827e-06,0.0,23.51685890132532,4.200125651073883,-0.0024008463841470404,0.0
4410,8.275862068965518,3.1034482758620694,0.0,0,221138.52694210084,487492.10576267034,238420.47891899935,314224.9715685883,68999.05295843608,1.4742568462806724e-06,0.0,0.0,0.0,1.4742568462806724e-06,0.0,23.034290747355566,-0.04988002726266219,0.0023010741163634065,0.0
4411,8.275862068965518,3.1034482758620694,0.35714285714285715,0,287750.5383495724,368704.74165727204,386508.37561444164,90269.39556099796,-25859.388520854038,1.918336922330483e-06,0.0,0.0,0.0,1.918336922330483e-06,0.0,24.019765974480414,0.2542012446219339,-0.0008633423904543036,0.0
4412,8.275862068965518,3.1034482758620694,0.7142857142857143,0,247063.31265693225,395614.36363579397,261691.64585504855,110504.40927049927,4484.238355722117,1.647088751046215e-06,0.0,0.0,0.0,1.647088751046215e-06,0.0,24.121410961056565,0.5597047176085015,0.00015025177326860654,0.0
4413,8.275862068965518,3.1034482758620694,1.0714285714285714,0,246932.23693138844,452679.67443793296,190111.46553858934,225120.02069103645,72531.72148158161,1.646214912875923e-06,0.0,0.0,0.0,1.646214912875923e-06,0.0,23.459863404626535,0.8687886401720843,0.0024590637916554157,0.0
4414,8.275862068965518,3.1034482758620694,1.4285714285714286,0,341842.34465052927,583706.2370076269,404234.9847080028,189505.93179852772,15608.306449412466,2.2789489643368617e-06,0.0,0.0,0.0,2.2789489643368617e-06,0.0,23.56485618345362,1.1840040719993232,0.0005495327372063733,0.0
4415,8.275862068965518,3.1034482758620694,1.7857142857142858,0,333547.6033602635,641385.5826151666,575961.5269451537,279973.4278983152,188502.12848835567,2.2236506890684235e-06,0.0,0.0,0.0,2.2236506890684235e-06,0.0,23.981156565496534,1.505168776334822,0.007445362519156127,0.0
4416,8.275862068965518,3.1034482758620694,2.142857142857143,0,841005.5895250024,1327696.9175332014,583786.4537828139,415150.9735159014,344488.00925338286,5.606703930166683e-06,0.0,0.0,0.0,5.606703930166683e-06,0.0,23.957310813575585,1.8261337418786818,0.018466312606725117,0.0
4417,8.275862068965518,3.1034482758620694,2.5,0,52045.851577875415,686268.9735797624,712834.4791150624,746236.5858117687,765037.5181787328,3.469723438525028e-07,0.0,0.0,0.0,3.469723438525028e-07,0.0,24.468186541614955,2.1371474165515516,0.07650375181787329,0.0
4418,8.275862068965518,3.1034482758620694,2.857142857142857,0,1075291.57626713,1172900.0080388314,624061.0451609741,-66057.6108583408,389937.00688893604,7.168610508447533e-06,0.0,0.0,0.0,7.168610508447533e-06,0.0,24.523230505747588,2.433276599021539,0.02090261046167634,0.0
4419,8.275862068965518,3.1034482758620694,3.2142857142857144,0,223504.59746617777,571829.9720000903,452598.21393280756,313991.6270609495,174828.20541546622,1.4900306497745185e-06,0.0,0.0,0.0,1.4900306497745185e-06,0.0,23.62695494154498,2.7194544906205365,0.006905276764405593,0.0
4420,8.275862068965518,3.1034482758620694,3.5714285714285716,0,452364.8243701828,611405.2275389184,154190.8427243902,164051.1744308187,-6520.387851309794,3.015765495801219e-06,0.0,0.0,0.0,3.015765495801219e-06,0.0,23.93202215303063,3.005432643427895,-0.0002295679287942436,0.0
4421,8.275862068965518,3.1034482758620694,3.928571428571429,0,278656.13386620744,424546.43857470644,273994.0672823069,102998.59689611157,-39543.67070393156,1.8577075591080497e-06,0.0,0.0,0.0,1.8577075591080497e-06,0.0,23.470169263515476,3.297360068743514,-0.0013406604287184323,0.0
4422,8.275862068965518,3.1034482758620694,4.285714285714286,0,292970.7784641003,346768.48123697715,423446.9181006722,99761.96196810796,-18731.63537044294,1.953138523094002e-06,0.0,0.0,0.0,1.953138523094002e-06,0.0,24.72643612713496,3.595419003322787,-0.0006276342173110862,0.0
4423,8.275862068965518,3.1034482758620694,4.642857142857143,0,435900.4823901146,452369.502966024,208019.923617735,-50894.7681323265,-16905.470962565723,2.906003215934097e-06,0.0,0.0,0.0,2.906003215934097e-06,0.0,24.113204894668335,3.897058387479077,-0.0005644066061657703,0.0
4424,8.275862068965518,3.1034482758620694,5.0,0,328396.39221280144,470677.3558710391,232935.62719018265,95967.98142851028,-25843.29980946776,2.189309281418676e-06,0.0,0.0,0.0,2.189309281418676e-06,0.0,24.481667814747542,4.200119972737338,-0.0008618574563452022,0.0
4425,8.620689655172415,3.1034482758620694,0.0,0,240971.81082983612,459121.2507590817,188500.5873117413,267768.4708278133,-28023.15825556539,1.606478738865574e-06,0.0,0.0,0.0,1.606478738865574e-06,0.0,23.65055733970357,-0.04988585870123936,-0.0009345543359773471,0.0
4426,8.620689655172415,3.1034482758620694,0.35714285714285715,0,98925.59788966017,323155.9512825989,334702.2493386147,230510.16834765582,45650.16371735198,6.595039859310678e-07,0.0,0.0,0.0,6.595039859310678e-07,0.0,24.347304326054868,0.25417063155354075,0.00152407785808956,0.0
4427,8.620689655172415,3.1034482758620694,0.7142857142857143,0,229090.88249895317,368744.01958573767,384030.6631404754,147679.29309901074,57482.11666947335,1.5272725499930212e-06,0.0,0.0,0.0,1.5272725499930212e-06,0.0,24.213837441462204,0.5595801948854213,0.0019260327564435357,0.0
4428,8.620689655172415,3.1034482758620694,1.0714285714285714,0,358212.53252253373,420276.34870578087,393726.0948974156,49527.4025179466,16754.789541892715,2.388083550150225e-06,0.0,0.0,0.0,2.388083550150225e-06,0.0,24.485846068691103,0.8683961751578172,0.0005680424434671336,0.0
4429,8.620689655172415,3.1034482758620694,1.4285714285714286,0,241624.06742097324,484770.0007961335,220156.09452072467,275868.00596964295,-25497.446832969043,1.6108271161398216e-06,0.0,0.0,0.0,1.6108271161398216e-06,0.0,23.17922332368084,1.183045634320888,-0.0008977067304071855,0.0
4430,8.620689655172415,3.1034482758620694,1.7857142857142858,0,305074.0040498212,805197.4015517272,560132.9523023287,463512.9245257418,32863.07331537239,2.0338266936654745e-06,0.0,0.0,0.0,2.0338266936654745e-06,0.0,23.893264266804998,1.5033551934853588,0.0012980091858308535,0.0
4431,8.620689655172415,3.1034482758620694,2.142857142857143,0,399317.57453412586,619359.3991858902,1023672.8145146907,629545.9998786898,176226.18175241424,2.662117163560839e-06,0.0,0.0,0.0,2.662117163560839e-06,0.0,24.409369737507532,1.8234747224346624,0.009446621288162245,0.0
4432,8.620689655172415,3.1034482758620694,2.5,0,931887.8192408101,1302267.2539406903,978877.543709592,251764.64169378186,750660.2278047131,6.212585461605401e-06,0.0,0.0,0.0,6.212585461605401e-06,0.0,23.397499499133932,2.1341266565823114,0.07506602278047131,0.0
4433,8.620689655172415,3.1034482758620694,2.857142857142857,0,678687.9611710786,977252.1935413386,825455.2439014345,235519.1948353306,320446.1531783377,4.52458640780719e-06,0.0,0.0,0.0,4.52458640780719e-06,0.0,24.131008978533686,2.4306175795775196,0.017177546617772724,0.0
4434,8.620689655172415,3.1034482758620694,3.2142857142857144,0,137691.03198035705,582778.5776884835,424092.77716192434,511975.74892663234,176763.88059331878,9.179402132023803e-07,0.0,0.0,0.0,9.179402132023803e-07,0.0,24.160470305648133,2.7176409077710733,0.006981731091653864,0.0
4435,8.620689655172415,3.1034482758620694,3.5714285714285716,0,315940.09328561387,416217.53581697034,363680.5954572583,77302.22818540999,-61218.447514622516,2.106267288570759e-06,0.0,0.0,0.0,2.106267288570759e-06,0.0,24.23006261350922,3.0044742057494593,-0.002155361386532846,0.0
4436,8.620689655172415,3.1034482758620694,3.928571428571429,0,192060.81545775657,402571.24887037004,398437.0560216277,208476.7112522583,-24645.89156531054,1.280405436385044e-06,0.0,0.0,0.0,1.280405436385044e-06,0.0,24.051142587361554,3.2969676037292466,-0.0008355767424699928,0.0
4437,8.620689655172415,3.1034482758620694,4.285714285714286,0,260067.49197727605,114225.74348946489,312585.1451334117,18148.533504311923,-3895.7532207366553,1.733783279848507e-06,0.0,0.0,0.0,1.733783279848507e-06,0.0,24.19781023288596,3.595294480599707,-0.00013053361199804177,0.0
4438,8.620689655172415,3.1034482758620694,4.642857142857143,0,193039.61789414368,349886.03942759754,183275.2497443684,138342.86681529213,18933.326999719367,1.286930785960958e-06,0.0,0.0,0.0,1.286930785960958e-06,0.0,24.110116962210157,3.897027774410684,0.0006321086741091618,0.0
4439,8.620689655172415,3.1034482758620694,5.0,0,111371.1420594167,335614.42572960875,247708.64594889554,210372.16571943057,73359.28786685367,7.424742803961113e-07,0.0,0.0,0.0,7.424742803961113e-07,0.0,24.49093467676784,4.20011414129876,0.0024464851511361266,0.0
4440,8.965517241379311,3.1034482758620694,0.0,0,268170.99314034614,459260.64328947925,390903.93905474024,163526.93890130857,-56877.79107558986,1.787806620935641e-06,0.0,0.0,0.0,1.787806620935641e-06,0.0,23.385234094051334,-0.049891811683883444,-0.0018968378148437111,0.0
4441,8.965517241379311,3.1034482758620694,0.35714285714285715,0,126179.88262585965,348240.2552382039,317543.9415828449,209544.35815779588,-12533.934624707994,8.41199217505731e-07,0.0,0.0,0.0,8.41199217505731e-07,0.0,23.919025215740053,0.25413938042015144,-0.00041845835109236316,0.0
4442,8.965517241379311,3.1034482758620694,0.7142857142857143,0,297653.77371998096,398526.70220926346,301426.7873673164,64448.33304436104,-59469.32147470025,1.9843584914665397e-06,0.0,0.0,0.0,1.9843584914665397e-06,0.0,24.362950009158055,0.5594530767481931,-0.001992617318223628,0.0
4443,8.965517241379311,3.1034482758620694,1.0714285714285714,0,406148.9470924818,561385.0838185909,252791.47167272423,101254.24737721343,34167.38493590115,2.707659647283212e-06,0.0,0.0,0.0,2.707659647283212e-06,0.0,23.36642703118285,0.8679955300361334,0.001158386667725277,0.0
4444,8.965517241379311,3.1034482758620694,1.4285714285714286,0,306647.85874008754,597750.1429050509,467541.9552764666,247484.20000196455,-25986.463902082185,2.0443190582672503e-06,0.0,0.0,0.0,2.0443190582672503e-06,0.0,23.41746788155195,1.1820672200257434,-0.0009149239018793986,0.0
4445,8.965517241379311,3.1034482758620694,1.7857142857142858,0,415244.60347027733,843113.4802984425,737427.9081995698,385238.59601630026,67856.18623282482,2.7682973564685155e-06,0.0,0.0,0.0,2.7682973564685155e-06,0.0,24.029941738890912,1.5015038103174514,0.002680149607445735,0.0
4446,8.965517241379311,3.1034482758620694,2.142857142857143,0,512714.364565326,952405.656331519,1008079.9250216173,469800.5299986408,380882.3242524704,3.4180957637688403e-06,0.0,0.0,0.0,3.4180957637688403e-06,0.0,24.463539560964254,1.8207602813253114,0.02041723333495994,0.0
4447,8.965517241379311,3.1034482758620694,2.5,0,586169.3795901391,1380323.8805868188,1230802.3665241348,733875.2461316236,732900.5154224929,3.907795863934261e-06,0.0,0.0,0.0,3.907795863934261e-06,0.0,23.71009936957714,2.1310429352276485,0.07329005154224928,0.0
4448,8.965517241379311,3.1034482758620694,2.857142857142857,0,820186.2673486093,1008696.4476690413,664822.4740807395,72548.40961765546,382574.7215415898,5.467908448990729e-06,0.0,0.0,0.0,5.467908448990729e-06,0.0,23.8297304285967,2.4279031384681686,0.020507954453130025,0.0
4449,8.965517241379311,3.1034482758620694,3.2142857142857144,0,405257.7086990967,686216.9320465821,428512.63543118944,219096.86907727295,5834.176835955921,2.701718057993978e-06,0.0,0.0,0.0,2.701718057993978e-06,0.0,23.96862312391326,2.715789524603166,0.00023043539026795847,0.0
4450,8.965517241379311,3.1034482758620694,3.5714285714285716,0,186777.05196491096,539447.8746544092,333425.5830274642,381193.82291366346,10500.390421774635,1.2451803464327398e-06,0.0,0.0,0.0,1.2451803464327398e-06,0.0,23.548046054356764,3.003495791454315,0.00036969470768115315,0.0
4451,8.965517241379311,3.1034482758620694,3.928571428571429,0,87206.58187736114,377816.81578048866,303640.8194123068,281750.60895266646,-33807.74065918295,5.81377212515741e-07,0.0,0.0,0.0,5.81377212515741e-07,0.0,24.89303585409,3.2965669586075625,-0.001146193544486386,0.0
4452,8.965517241379311,3.1034482758620694,4.285714285714286,0,280055.8459071172,540793.44974609,410697.97053313104,219352.16196997752,33927.74830532489,1.8670389727141146e-06,0.0,0.0,0.0,1.8670389727141146e-06,0.0,23.338588074039667,3.595167362462479,0.0011368049469049951,0.0
4453,8.965517241379311,3.1034482758620694,4.642857142857143,0,241776.814430968,401823.3966296609,387378.69240697776,153148.06589447602,2383.3940641149816,1.6118454295397867e-06,0.0,0.0,0.0,1.6118454295397867e-06,0.0,23.850659754011282,3.8969965232772945,7.957207213342368e-05,0.0
4454,8.965517241379311,3.1034482758620694,5.0,0,187255.0502357126,466364.176992317,335221.8907782651,251911.43860335898,-43153.049509166856,1.2483670015714173e-06,0.0,0.0,0.0,1.2483670015714173e-06,0.0,23.8634306777364,4.200108188316117,-0.0014391264953666568,0.0
4455,9.310344827586208,3.1034482758620694,0.0,0,357926.7416350201,547779.1881364887,175545.68896444372,206120.74334283426,102115.70600523017,2.386178277566801e-06,0.0,0.0,0.0,2.386178277566801e-06,0.0,22.5603469402815,-0.04989786233623639,0.0034054932334267843,0.0
4456,9.310344827586208,3.1034482758620694,0.35714285714285715,0,425898.64168540377,511907.2112928474,153782.812993324,40954.89669478008,70393.53821822358,2.839324277902692e-06,0.0,0.0,0.0,2.839324277902692e-06,0.0,23.238107878714068,0.2541076165540226,0.0023501609679922315,0.0
4457,9.310344827586208,3.1034482758620694,0.7142857142857143,0,58098.95832345832,305748.4806068265,318467.0113798895,255062.4290120147,104025.88465001933,3.8732638882305544e-07,0.0,0.0,0.0,3.8732638882305544e-07,0.0,22.987908267398208,0.5593238730024228,0.0034855581694394435,0.0
4458,9.310344827586208,3.1034482758620694,1.0714285714285714,0,341174.91057456896,477611.5853474963,384224.876692976,99467.61389821011,-14757.8349816903,2.2744994038304595e-06,0.0,0.0,0.0,2.2744994038304595e-06,0.0,24.028874422616177,0.8675883115889873,-0.0005003391192902505,0.0
4459,9.310344827586208,3.1034482758620694,1.4285714285714286,0,287394.2988018599,596403.3271340972,348667.8226535971,281313.65447503957,-36161.361464959045,1.9159619920123994e-06,0.0,0.0,0.0,1.9159619920123994e-06,0.0,22.826870339042898,1.1810727530314624,-0.0012731587511658601,0.0
4460,9.310344827586208,3.1034482758620694,1.7857142857142858,0,771805.7196859877,860345.3304191675,790698.5936369214,56076.663139492055,135791.28201976093,5.145371464573251e-06,0.0,0.0,0.0,5.145371464573251e-06,0.0,24.14914594356141,1.4996220517787746,0.005363415944879056,0.0
4461,9.310344827586208,3.1034482758620694,2.142857142857143,0,291747.56500298163,840876.1699040205,523031.1096056583,778636.2644508872,527847.0295044256,1.944983766686544e-06,0.0,0.0,0.0,1.944983766686544e-06,0.0,23.09305692031198,1.8180013047807486,0.028295290383214575,0.0
4462,9.310344827586208,3.1034482758620694,2.5,0,607270.9763879465,1105536.8071981026,583357.5465706575,439139.0797642991,759439.3401024198,4.048473175919643e-06,0.0,0.0,0.0,4.048473175919643e-06,0.0,24.168435749275474,2.127908619711215,0.07594393401024199,0.0
4463,9.310344827586208,3.1034482758620694,2.857142857142857,0,965246.7112744099,1296903.4064586114,613498.6965405238,192692.22173272824,180419.1434120435,6.434978075162732e-06,0.0,0.0,0.0,6.434978075162732e-06,0.0,22.994183190536976,2.4251441619236056,0.00967138539801483,0.0
4464,9.310344827586208,3.1034482758620694,3.2142857142857144,0,370129.1465000382,618878.8945985045,408527.9171423923,191507.91427987634,5275.983087463901,2.467527643333588e-06,0.0,0.0,0.0,2.467527643333588e-06,0.0,23.909163706573004,2.7139077660644895,0.00020838813357766344,0.0
4465,9.310344827586208,3.1034482758620694,3.5714285714285716,0,281602.05855769024,479133.7135397419,410426.5007732943,169536.1997410616,27941.091510623195,1.8773470570512683e-06,0.0,0.0,0.0,1.8773470570512683e-06,0.0,24.169450603369178,3.002501324460034,0.000983741865149278,0.0
4466,9.310344827586208,3.1034482758620694,3.928571428571429,0,363787.76252322557,576818.0936761112,270019.1355255955,174928.50288617492,-28673.220495235582,2.425251750154837e-06,0.0,0.0,0.0,2.425251750154837e-06,0.0,23.993170902674105,3.2961597401604164,-0.000972116432227389,0.0
4467,9.310344827586208,3.1034482758620694,4.285714285714286,0,221500.20315095803,421635.68523038813,166208.95767437643,282510.47964503546,-58103.27461627056,1.4766680210063868e-06,0.0,0.0,0.0,1.4766680210063868e-06,0.0,23.100791025076532,3.595038158716709,-0.0019468456739520517,0.0
4468,9.310344827586208,3.1034482758620694,4.642857142857143,0,192195.21007579262,362669.21412942366,372713.81365036685,175693.2631389419,-10933.578062102972,1.281301400505284e-06,0.0,0.0,0.0,1.281301400505284e-06,0.0,24.28097081939479,3.8969647594111656,-0.00036502879458044364,0.0
4469,9.310344827586208,3.1034482758620694,5.0,0,316126.9078987108,349797.88862420205,147648.87082422557,-14502.859183457753,-137744.0363185696,2.1075127193247387e-06,0.0,0.0,0.0,2.1075127193247387e-06,0.0,23.99371315025949,4.200102137663764,-0.004593675174744973,0.0
4470,9.655172413793103,3.1034482758620694,0.0,0,348131.3287575105,464124.82536400354,211385.19551152032,67038.49507715042,-26253.875442761328,2.32087552505007e-06,0.0,0.0,0.0,2.32087552505007e-06,0.0,22.384878680267253,-0.0499039923898561,-0.0008755498901116547,0.0
4471,9.655172413793103,3.1034482758620694,0.35714285714285715,0,219256.20521951406,319201.8597170575,163419.61858250934,414146.5095724155,-18542.74633300062,1.4617080347967603e-06,0.0,0.0,0.0,1.4617080347967603e-06,0.0,23.623886612788258,0.2540754358582593,-0.0006190687352027077,0.0
4472,9.655172413793103,3.1034482758620694,0.7142857142857143,0,199270.2339119247,415043.3152683991,323737.5697607554,186480.43253348506,13559.355209161251,1.328468226079498e-06,0.0,0.0,0.0,1.328468226079498e-06,0.0,24.990130267494052,0.5591929737467328,0.00045432847296256553,0.0
4473,9.655172413793103,3.1034482758620694,1.0714285714285714,0,190111.87190197574,479835.9895600082,331637.33311760734,265485.48483902344,24923.319295511155,1.2674124793465049e-06,0.0,0.0,0.0,1.2674124793465049e-06,0.0,24.136250356310597,0.8671757493113467,0.0008449824545115954,0.0
4474,9.655172413793103,3.1034482758620694,1.4285714285714286,0,442866.84631200565,658612.4184950736,566321.5166586586,176872.1608573558,26317.18982031559,2.952445642080038e-06,0.0,0.0,0.0,2.952445642080038e-06,0.0,23.333238878454836,1.1800652358841561,0.0009265680043129932,0.0
4475,9.655172413793103,3.1034482758620694,1.7857142857142858,0,627325.6630889478,848853.1543924945,661077.8818070883,149083.6625998141,146076.08756679238,4.182171087259651e-06,0.0,0.0,0.0,4.182171087259651e-06,0.0,23.859495771006692,1.4977155993718982,0.005769640035560382,0.0
4476,9.655172413793103,3.1034482758620694,2.142857142857143,0,698277.189474037,951071.581799052,1096577.381985285,337011.494301017,399832.3753461599,4.655181263160247e-06,0.0,0.0,0.0,4.655181263160247e-06,0.0,23.395794281716444,1.8152061228454521,0.021433052632031883,0.0
4477,9.655172413793103,3.1034482758620694,2.5,0,920737.0136124155,1613174.9508663274,989199.6437844732,555702.3810796128,563242.8717093619,6.138246757416103e-06,0.0,0.0,0.0,6.138246757416103e-06,0.0,24.10423553140673,2.1247331733202994,0.056324287170936196,0.0
4478,9.655172413793103,3.1034482758620694,2.857142857142857,0,621695.0935772966,1043062.4336405373,559882.1517261384,341681.6873476861,423373.60466989875,4.144633957181977e-06,0.0,0.0,0.0,4.144633957181977e-06,0.0,23.19458234074126,2.422348979988309,0.0226949824762112,0.0
4479,9.655172413793103,3.1034482758620694,3.2142857142857144,0,37686.207390865005,563795.0165558879,543397.3455107438,586885.841431972,13319.918970537066,2.512413826057667e-07,0.0,0.0,0.0,2.512413826057667e-07,0.0,24.21070558797261,2.7120013136576127,0.00052610347828279,0.0
4480,9.655172413793103,3.1034482758620694,3.5714285714285716,0,328482.5424911956,504790.90152707254,427886.2027353811,144678.7455042571,-64363.86018433585,2.189883616607971e-06,0.0,0.0,0.0,2.189883616607971e-06,0.0,24.07135448427222,3.0014938073127277,-0.002266104165682741,0.0
4481,9.655172413793103,3.1034482758620694,3.928571428571429,0,430472.5026582487,579248.406630578,378220.67918279587,85037.36849119645,26335.65353065218,2.869816684388325e-06,0.0,0.0,0.0,2.869816684388325e-06,0.0,23.937198186049287,3.295747177882776,0.0008928652278472947,0.0
4482,9.655172413793103,3.1034482758620694,4.285714285714286,0,196927.55794811746,451072.9852248566,264394.8933545512,245288.7055483152,-61686.41571546647,1.312850386320783e-06,0.0,0.0,0.0,1.312850386320783e-06,0.0,24.65603498031659,3.5949072594610185,-0.0020669047032270717,0.0
4483,9.655172413793103,3.1034482758620694,4.642857142857143,0,156852.94920597132,436343.30064738187,347226.4665683527,255232.73207809785,29606.398312166606,1.0456863280398088e-06,0.0,0.0,0.0,1.0456863280398088e-06,0.0,24.12828056311091,3.8969325787154023,0.0009884401818301004,0.0
4484,9.655172413793103,3.1034482758620694,5.0,0,379778.12431331596,577659.2588346971,223412.36639586164,176675.86062517553,-56230.49946269797,2.531854162088773e-06,0.0,0.0,0.0,2.531854162088773e-06,0.0,24.140885173157212,4.200096007610144,-0.001875251055137576,0.0
4485,10.0,3.1034482758620694,0.0,0,168631.42521463174,320074.03346063656,220344.98131512446,125374.619710442,-13029.613816826512,1.1242095014308783e-06,0.0,0.0,0.0,1.1242095014308783e-06,0.0,24.035312963495343,-0.04991018770100537,-0.0004345292553242903,0.0
4486,10.0,3.1034482758620694,0.35714285714285715,0,284098.82055266795,333212.9035946647,213884.1023110076,8911.737314402719,-25298.72579146946,1.8939921370177864e-06,0.0,0.0,0.0,1.8939921370177864e-06,0.0,23.83372232360699,0.25404291258266964,-0.0008446240862440101,0.0
4487,10.0,3.1034482758620694,0.7142857142857143,0,23708.155275611556,304556.147328922,317197.93521215575,289848.1200925754,51163.58930112994,1.5805436850407704e-07,0.0,0.0,0.0,1.5805436850407704e-07,0.0,23.713679992457948,0.5590606810020822,0.0017143201162516124,0.0
4488,10.0,3.1034482758620694,1.0714285714285714,0,261214.89332221885,498140.5189519513,215306.07682158885,265966.8697290733,27849.92880088226,1.7414326221481257e-06,0.0,0.0,0.0,1.7414326221481257e-06,0.0,23.147682569919663,0.8667587950990354,0.0009442041373831395,0.0
4489,10.0,3.1034482758620694,1.4285714285714286,0,337948.4823429605,556678.9991823522,331352.4615549874,168098.8220456059,-37633.39961781156,2.2529898822864032e-06,0.0,0.0,0.0,2.2529898822864032e-06,0.0,23.15928453797294,1.179046993205869,-0.001324985844517151,0.0
4490,10.0,3.1034482758620694,1.7857142857142858,0,599463.4779226932,1009852.114692148,679577.219784426,317888.9543991725,69129.88412363912,3.996423186151288e-06,0.0,0.0,0.0,3.996423186151288e-06,0.0,23.711811656344775,1.4957888518123204,0.0027304574878555983,0.0
4491,10.0,3.1034482758620694,2.142857142857143,0,727042.5391851304,1199079.1437813696,565039.2204443355,405523.8890905647,583251.5501944204,4.846950261234202e-06,0.0,0.0,0.0,4.846950261234202e-06,0.0,23.805122942166264,1.8123811847809177,0.03126525500144509,0.0
4492,10.0,3.1034482758620694,2.5,0,375569.17507182754,1236602.90805016,806049.4189047863,976382.0314612513,977129.9275837918,2.50379450047885e-06,0.0,0.0,0.0,2.50379450047885e-06,0.0,23.514168403455063,2.1215239226921696,0.09771299275837919,0.0
4493,10.0,3.1034482758620694,2.857142857142857,0,811321.9070720085,1143811.6564512632,816761.5007713748,220009.0742438142,274736.52589989704,5.40881271381339e-06,0.0,0.0,0.0,5.40881271381339e-06,0.0,23.269201330888507,2.4195240419237747,0.014727277685945492,0.0
4494,10.0,3.1034482758620694,3.2142857142857144,0,505501.46336694114,789903.0877591671,578320.9728497483,212989.44970153,182867.60565193917,3.3700097557796077e-06,0.0,0.0,0.0,3.3700097557796077e-06,0.0,23.446671994486113,2.7100745660980348,0.007222812962416366,0.0
4495,10.0,3.1034482758620694,3.5714285714285716,0,204986.63396741528,358610.8715948625,323320.26185819507,138270.1061123311,73556.70508339613,1.3665775597827685e-06,0.0,0.0,0.0,1.3665775597827685e-06,0.0,23.493043521859786,3.0004755646344408,0.0025897631889385537,0.0
4496,10.0,3.1034482758620694,3.928571428571429,0,438768.840497586,714885.5598372975,397468.55278703733,214193.2436571861,8577.433314488137,2.92512560331724e-06,0.0,0.0,0.0,2.92512560331724e-06,0.0,23.66172547384604,3.2953302236704647,0.00029080318594606645,0.0
4497,10.0,3.1034482758620694,4.285714285714286,0,271325.025834926,496759.56974268117,368119.3488628839,185040.9147975228,-4077.6837515283714,1.8088335055661734e-06,0.0,0.0,0.0,1.8088335055661734e-06,0.0,23.417854636310473,3.594774966716368,-0.00013662949332608778,0.0
4498,10.0,3.1034482758620694,4.642857142857143,0,248424.0465911829,467381.4295695809,416234.0412020379,197364.5611670904,-24689.28829639008,1.656160310607886e-06,0.0,0.0,0.0,1.656160310607886e-06,0.0,24.116519658882616,3.8969000554398128,-0.0008242773861118704,0.0
4499,10.0,3.1034482758620694,5.0,0,349236.26160892396,503627.59757928626,306598.2783817009,100399.05258145438,-56209.290747255356,2.328241744059493e-06,0.0,0.0,0.0,2.328241744059493e-06,0.0,23.483053029274632,4.2000898122989945,-0.0018745437580943004,0.0
4500,0.0,3.4482758620689657,0.0,0,225181.71198764714,512080.6700919623,267922.1641148238,312562.5936170669,15200.010204953207,1.5012114132509809e-06,0.0,0.0,0.0,1.5012114132509809e-06,0.0,23.182555167080583,-0.04990801869620095,0.0005069105813980759,0.0
4501,0.0,3.4482758620689657,0.35714285714285715,0,259734.84370468836,435933.09733604046,252741.53040176394,138685.11624528753,-7627.698030765338,1.7315656246979224e-06,0.0,0.0,0.0,1.7315656246979224e-06,0.0,23.468550464528025,0.2540542991198927,-0.00025465857579091137,0.0
4502,0.0,3.4482758620689657,0.7142857142857143,0,92094.27827380293,393165.4863589289,342612.59830224194,286866.451514081,19576.568949889213,6.139618551586862e-07,0.0,0.0,0.0,6.139618551586862e-07,0.0,22.962989977349867,0.5591069972551037,0.0006559451050327425,0.0
4503,0.0,3.4482758620689657,1.0714285714285714,0,211539.3737587419,519169.1646122098,289543.47743652837,476487.7253643843,21567.092654321652,1.410262491724946e-06,0.0,0.0,0.0,1.410262491724946e-06,0.0,24.5250801418087,0.8669047725435793,0.000731195338455979,0.0
4504,0.0,3.4482758620689657,1.4285714285714286,0,398965.2917358425,580299.2565416776,315790.92331921216,121395.72095543717,142421.31644073504,2.659768611572283e-06,0.0,0.0,0.0,2.659768611572283e-06,0.0,23.85091129568011,1.179403484301805,0.0050143284996277265,0.0
4505,0.0,3.4482758620689657,1.7857142857142858,0,249192.40060698308,646731.1391894462,471022.8850189954,361540.21983640693,173644.3606269966,1.6612826707132205e-06,0.0,0.0,0.0,1.6612826707132205e-06,0.0,23.521576134605404,1.4964634143343525,0.006858517856762203,0.0
4506,0.0,3.4482758620689657,2.142857142857143,0,950970.1878084902,1467906.6099391729,644034.338304618,427265.330096253,493780.87722041167,6.339801252056602e-06,0.0,0.0,0.0,6.339801252056602e-06,0.0,24.240852159618264,1.8133702076219869,0.026469171039472206,0.0
4507,0.0,3.4482758620689657,2.5,0,392042.0333014681,1424281.627678247,995295.1882190744,1084588.8394779358,488770.60237284645,2.6136135553431208e-06,0.0,0.0,0.0,2.6136135553431208e-06,0.0,23.43483573196458,2.1226474949976244,0.04887706023728465,0.0
4508,0.0,3.4482758620689657,2.857142857142857,0,878061.6776838434,1310296.4720643745,477350.98066999187,393180.47404943383,476103.0677161113,5.853744517892289e-06,0.0,0.0,0.0,5.853744517892289e-06,0.0,23.52536198574522,2.420513064764844,0.025521550374195474,0.0
4509,0.0,3.4482758620689657,3.2142857142857144,0,559544.8382915484,986574.188996733,586984.3792531199,347078.91566873295,203401.22911056614,3.730298921943656e-06,0.0,0.0,0.0,3.730298921943656e-06,0.0,23.194752410705945,2.710749128620067,0.008033839722205819,0.0
4510,0.0,3.4482758620689657,3.5714285714285716,0,267510.0963709778,541098.1828852413,450014.5314769137,239940.47740244455,-16230.102732034193,1.7834006424731854e-06,0.0,0.0,0.0,1.7834006424731854e-06,0.0,23.08128875045655,3.0008320557303767,-0.0005714247608081221,0.0
4511,0.0,3.4482758620689657,3.928571428571429,0,281741.0831209836,492976.4875851542,270654.6809915945,176126.98797609238,101854.75826176905,1.878273887473224e-06,0.0,0.0,0.0,1.878273887473224e-06,0.0,23.66171030993534,3.2954762011150085,0.0034532111320828666,0.0
4512,0.0,3.4482758620689657,4.285714285714286,0,259205.21428502206,522872.11453466426,487955.01351661177,247978.25146165516,24478.760500748922,1.728034761900147e-06,0.0,0.0,0.0,1.728034761900147e-06,0.0,24.093041549889428,3.5948212829693893,0.0008202010867601991,0.0
4513,0.0,3.4482758620689657,4.642857142857143,0,172116.82138050755,383515.80652669794,315560.1257827508,187795.20961490404,13212.083982818911,1.1474454758700503e-06,0.0,0.0,0.0,1.1474454758700503e-06,0.0,23.126633660400937,3.896911441977036,0.0004410990677297415,0.0
4514,0.0,3.4482758620689657,5.0,0,258528.1411482047,453301.0797417964,173879.36998549983,222598.84695784314,-44431.384816726,1.7235209409880314e-06,0.0,0.0,0.0,1.7235209409880314e-06,0.0,23.45086590666775,4.2000919813038,-0.001481758157137866,0.0
4515,0.3448275862068966,3.4482758620689657,0.0,0,209882.67042130505,419925.31250541174,263705.9342205351,181355.76941379046,61597.48733514798,1.3992178028087003e-06,0.0,0.0,0.0,1.3992178028087003e-06,0.0,23.496224873612015,-0.04990168163448198,0.002054236654890233,0.0
4516,0.3448275862068966,3.4482758620689657,0.35714285714285715,0,200242.3181284211,331377.1194974981,291938.63119861274,114349.89223544081,-34032.408683081354,1.3349487875228073e-06,0.0,0.0,0.0,1.3349487875228073e-06,0.0,23.9885140671035,0.2540875665377429,-0.0011362071087518079,0.0
4517,0.3448275862068966,3.4482758620689657,0.7142857142857143,0,400524.9988520448,601551.4594805592,324627.6448390293,142301.18677115018,-23191.62655892653,2.670166659013632e-06,0.0,0.0,0.0,2.670166659013632e-06,0.0,23.391757161616617,0.5592423168972693,-0.0007770735494056682,0.0
4518,0.3448275862068966,3.4482758620689657,1.0714285714285714,0,77407.92728809446,304277.4972151791,274623.29838287196,216426.71276636358,-79385.7324202188,5.160528485872964e-07,0.0,0.0,0.0,5.160528485872964e-07,0.0,23.988771768595367,0.8673312667928175,-0.002691437293656093,0.0
4519,0.3448275862068966,3.4482758620689657,1.4285714285714286,0,116458.88533005313,364349.20781021065,244917.0303946493,251110.80393714705,50286.6053790313,7.763925688670209e-07,0.0,0.0,0.0,7.763925688670209e-07,0.0,23.974654038967042,1.1804450246767326,0.0017704762517522213,0.0
4520,0.3448275862068966,3.4482758620689657,1.7857142857142858,0,502515.6964433164,890231.8799860566,339079.5214696959,457508.2112528576,115683.15039203348,3.3501046429554426e-06,0.0,0.0,0.0,3.3501046429554426e-06,0.0,23.290697446673995,1.4984342464536358,0.004569195048001554,0.0
4521,0.3448275862068966,3.4482758620689657,2.142857142857143,0,526011.2265111184,1193432.1344581395,594578.6405692549,806149.3686047022,394987.396933045,3.5067415100741224e-06,0.0,0.0,0.0,3.5067415100741224e-06,0.0,23.479894445986318,1.8162597811132801,0.021173337101893917,0.0
4522,0.3448275862068966,3.4482758620689657,2.5,0,533731.6055197398,976745.5130383116,723145.261937215,363494.3506795614,800049.8521938842,3.5582107034649318e-06,0.0,0.0,0.0,3.5582107034649318e-06,0.0,23.6713893248253,2.125930174238767,0.08000498521938842,0.0
4523,0.3448275862068966,3.4482758620689657,2.857142857142857,0,702542.2616234502,1171294.7732627562,494025.257450484,445949.3592058617,461391.59500242386,4.683615077489668e-06,0.0,0.0,0.0,4.683615077489668e-06,0.0,23.417383927899877,2.423402638256137,0.024732940475624406,0.0
4524,0.3448275862068966,3.4482758620689657,3.2142857142857144,0,601021.5941775072,911891.0435166033,390140.8846084734,254708.58912841202,48489.41799842841,4.006810627850048e-06,0.0,0.0,0.0,4.006810627850048e-06,0.0,23.19319337889491,2.71271996073935,0.0019152107100132542,0.0
4525,0.3448275862068966,3.4482758620689657,3.5714285714285716,0,367937.634121223,489133.0471952433,409383.5642249301,87860.8547268254,-32436.913959258094,2.4529175608081533e-06,0.0,0.0,0.0,2.4529175608081533e-06,0.0,24.38655873304269,3.001873596105304,-0.0011420294810542818,0.0
4526,0.3448275862068966,3.4482758620689657,3.928571428571429,0,369288.5870430362,643567.9556483679,436035.08337267645,217200.154488622,-72364.47275838224,2.461923913620241e-06,0.0,0.0,0.0,2.461923913620241e-06,0.0,22.75876555499647,3.2959026953642465,-0.002453393510142456,0.0
4527,0.3448275862068966,3.4482758620689657,4.285714285714286,0,107040.30259290828,269300.7941977343,349823.21187420236,228354.0504215003,-7297.265255857584,7.136020172860551e-07,0.0,0.0,0.0,7.136020172860551e-07,0.0,23.771228832420427,3.594956602611555,-0.00024450686108264,0.0
4528,0.3448275862068966,3.4482758620689657,4.642857142857143,0,360114.6571721023,466575.2061896335,393811.9341734397,75635.11802688295,-53597.5016216905,2.400764381147349e-06,0.0,0.0,0.0,2.400764381147349e-06,0.0,24.34182481857221,3.8969447093948864,-0.0017894079411480402,0.0
4529,0.3448275862068966,3.4482758620689657,5.0,0,325655.8739635531,505210.5730506706,366555.02610049554,133173.81767724824,6663.526200817253,2.1710391597570208e-06,0.0,0.0,0.0,2.1710391597570208e-06,0.0,23.26144035909215,4.2000983183655185,0.0002222243205808416,0.0
4530,0.6896551724137931,3.4482758620689657,0.0,0,288555.6565970028,443866.43481435697,326467.2955058821,115116.03934884859,-6043.093494064527,1.923704377313352e-06,0.0,0.0,0.0,1.923704377313352e-06,0.0,23.704275943361765,-0.04989539155445671,-0.00020153328815009238,0.0
4531,0.6896551724137931,3.4482758620689657,0.35714285714285715,0,283593.89152704395,361385.6064036953,238294.34584974666,37043.66433204847,-15147.878364397062,1.8906259435136263e-06,0.0,0.0,0.0,1.8906259435136263e-06,0.0,24.14722820231449,0.2541205873176866,-0.000505727562230759,0.0
4532,0.6896551724137931,3.4482758620689657,0.7142857142857143,0,181241.01314250036,356031.45031074504,275244.2241736558,148445.21505232598,39562.34687358584,1.2082734209500024e-06,0.0,0.0,0.0,1.2082734209500024e-06,0.0,22.179336423020455,0.5593766333069808,0.0013256014290227765,0.0
4533,0.6896551724137931,3.4482758620689657,1.0714285714285714,0,309604.38328654715,424017.73004157905,239837.83593430097,66572.92792548393,-38161.94820663467,2.0640292219103144e-06,0.0,0.0,0.0,2.0640292219103144e-06,0.0,23.680109186673945,0.8677545990999644,-0.0012938154939255734,0.0
4534,0.6896551724137931,3.4482758620689657,1.4285714285714286,0,293679.48266194994,526387.9023036767,296955.84682367614,195411.9904537079,-77942.48793644294,1.957863217746333e-06,0.0,0.0,0.0,1.957863217746333e-06,0.0,22.923895535906507,1.181478843282007,-0.0027441765626020566,0.0
4535,0.6896551724137931,3.4482758620689657,1.7857142857142858,0,377306.65514962137,726388.5962169871,462630.64351757854,294202.9119650821,53675.481627270965,2.515377700997476e-06,0.0,0.0,0.0,2.515377700997476e-06,0.0,24.196445310479263,1.5003904672222537,0.002120047249917515,0.0
4536,0.6896551724137931,3.4482758620689657,2.142857142857143,0,606722.726056322,1160274.0937046323,809411.3891258901,459691.3458968046,291186.33272897225,4.044818173708814e-06,0.0,0.0,0.0,4.044818173708814e-06,0.0,23.323294314814728,1.8191279318912221,0.015609071150642003,0.0
4537,0.6896551724137931,3.4482758620689657,2.5,0,341689.187924724,899833.8193986759,886768.084702844,551799.1715615494,665820.1469708873,2.27792791949816e-06,0.0,0.0,0.0,2.27792791949816e-06,0.0,24.616469730572582,2.129188516360047,0.06658201469708873,0.0
4538,0.6896551724137931,3.4482758620689657,2.857142857142857,0,258955.8002703583,916728.5814575109,641250.9774767375,678281.4194744165,274507.28192208963,1.7263720018023887e-06,0.0,0.0,0.0,1.7263720018023887e-06,0.0,23.251513017587325,2.426270789034079,0.014714989040640898,0.0
4539,0.6896551724137931,3.4482758620689657,3.2142857142857144,0,343926.48504328605,526397.1639078241,460993.3137862793,154464.96395079696,95548.92412205177,2.292843233621907e-06,0.0,0.0,0.0,2.292843233621907e-06,0.0,23.958539578772882,2.714676181507968,0.0037739434780332563,0.0
4540,0.6896551724137931,3.4482758620689657,3.5714285714285716,0,279577.07620328903,417606.0772228138,356020.47799620486,112370.65698671987,-38339.45708708885,1.8638471746885936e-06,0.0,0.0,0.0,1.8638471746885936e-06,0.0,23.300256352234534,3.0029074147105783,-0.0013498445115976887,0.0
4541,0.6896551724137931,3.4482758620689657,3.928571428571429,0,227013.90380168793,468496.01325682655,324577.885835525,206797.67588639408,-38058.28789458881,1.5134260253445862e-06,0.0,0.0,0.0,1.5134260253445862e-06,0.0,23.62453522276478,3.2963260276713937,-0.0012903010685848153,0.0
4542,0.6896551724137931,3.4482758620689657,4.285714285714286,0,240776.60512187023,386151.46547459764,149759.26563055575,141217.76472439335,23305.78273780689,1.6051773674791348e-06,0.0,0.0,0.0,1.6051773674791348e-06,0.0,23.745787537604315,3.5950909190212665,0.0007808985397263666,0.0
4543,0.6896551724137931,3.4482758620689657,4.642857142857143,0,367068.4068711936,573230.4680679683,182560.82154093846,235515.3941206231,-1750.1938755267663,2.447122712474624e-06,0.0,0.0,0.0,2.447122712474624e-06,0.0,23.76555190056907,3.89697773017483,-5.843202993903806e-05,0.0
4544,0.6896551724137931,3.4482758620689657,5.0,0,180302.5161570596,391282.3300161744,347124.6179034068,193003.10597410452,-44718.093205093,1.2020167743803974e-06,0.0,0.0,0.0,1.2020167743803974e-06,0.0,24.58481417395316,4.200104608445543,-0.0014913196978131123,0.0
4545,1.0344827586206897,3.4482758620689657,0.0,0,100733.42277083734,353448.482189737,240242.97511593284,273702.5365815064,-33244.890077007236,6.715561518055823e-07,0.0,0.0,0.0,6.715561518055823e-07,0.0,24.497010281419037,-0.04988915924157275,-0.0011086957396883369,0.0
4546,1.0344827586206897,3.4482758620689657,0.35714285714285715,0,195812.5409445886,356766.75588718813,214913.4162358281,133358.04215635482,-13024.146936752555,1.3054169396305908e-06,0.0,0.0,0.0,1.3054169396305908e-06,0.0,23.413385792638525,0.25415330483979365,-0.0004348245953664449,0.0
4547,1.0344827586206897,3.4482758620689657,0.7142857142857143,0,239936.7250166245,305757.41250233236,226854.7977482811,36305.20284352524,-40051.69944150234,1.5995781667774965e-06,0.0,0.0,0.0,1.5995781667774965e-06,0.0,23.814235378351988,0.5595097161751492,-0.0013419979907686919,0.0
4548,1.0344827586206897,3.4482758620689657,1.0714285714285714,0,165303.954534338,356890.95306611963,233704.19132404757,169027.3711050522,-10164.987682191324,1.1020263635622533e-06,0.0,0.0,0.0,1.1020263635622533e-06,0.0,23.215689312281704,0.8681740435873838,-0.00034462649777652747,0.0
4549,1.0344827586206897,3.4482758620689657,1.4285714285714286,0,305212.92466655374,514242.1721426463,340540.9472322116,161824.53851956566,-5330.737624512615,2.0347528311103583e-06,0.0,0.0,0.0,2.0347528311103583e-06,0.0,23.106610254428556,1.182503167453947,-0.00018768306783454317,0.0
4550,1.0344827586206897,3.4482758620689657,1.7857142857142858,0,318999.38556460844,614768.4407259568,287548.7810048101,304679.67480432225,8192.68503300102,2.126662570430723e-06,0.0,0.0,0.0,2.126662570430723e-06,0.0,23.473560152315613,1.5023287223559145,0.0003235905640170273,0.0
4551,1.0344827586206897,3.4482758620689657,2.142857142857143,0,238687.00541740807,749218.7989831646,627791.3868252907,474231.846236308,393765.657002273,1.5912467027827204e-06,0.0,0.0,0.0,1.5912467027827204e-06,0.0,24.65341590312559,1.8219697420072585,0.021107845616327694,0.0
4552,1.0344827586206897,3.4482758620689657,2.5,0,515864.620665608,853962.2304422441,785057.5420087517,307108.2714852786,497678.30980997114,3.439097471104053e-06,0.0,0.0,0.0,3.439097471104053e-06,0.0,22.972688501975014,2.1324169343612813,0.049767830980997116,0.0
4553,1.0344827586206897,3.4482758620689657,2.857142857142857,0,584411.6645780202,810355.7925162953,693956.7866980094,176504.096631013,446808.9076426463,3.8960777638534685e-06,0.0,0.0,0.0,3.8960777638534685e-06,0.0,24.109372173492993,2.4291125991501157,0.023951234128238248,0.0
4554,1.0344827586206897,3.4482758620689657,3.2142857142857144,0,336649.34435576695,609947.0087831347,447538.604053609,222882.68543154612,50182.110930546914,2.2443289623717798e-06,0.0,0.0,0.0,2.2443289623717798e-06,0.0,24.056122223795896,2.716614436641629,0.001982067846398396,0.0
4555,1.0344827586206897,3.4482758620689657,3.5714285714285716,0,486822.7916984662,519763.9636464419,337013.6717949244,-31989.48176597493,-22404.825699331406,3.2454852779897745e-06,0.0,0.0,0.0,3.2454852779897745e-06,0.0,23.459084408064083,3.003931738882519,-0.0007888226203842086,0.0
4556,1.0344827586206897,3.4482758620689657,3.928571428571429,0,98825.31357784168,264266.1510969066,211390.87857342578,150252.28078485737,19706.144138253345,6.588354238522779e-07,0.0,0.0,0.0,6.588354238522779e-07,0.0,24.157917387426092,3.296745472158813,0.0006681030662677266,0.0
4557,1.0344827586206897,3.4482758620689657,4.285714285714286,0,191755.40905664768,328045.63270571764,179310.7459442615,111626.83594345752,1212.107418136288,1.2783693937109846e-06,0.0,0.0,0.0,1.2783693937109846e-06,0.0,24.160373957045206,3.5952240018894353,4.0613650417269535e-05,0.0
4558,1.0344827586206897,3.4482758620689657,4.642857142857143,0,194206.95676576535,359430.6796030359,416213.281731991,199943.9773573376,26546.729735937395,1.2947130451051025e-06,0.0,0.0,0.0,1.2947130451051025e-06,0.0,23.82615865491589,3.8970104476969367,0.0008862899867290292,0.0
4559,1.0344827586206897,3.4482758620689657,5.0,0,221337.04067366704,221183.802692204,223449.99830985832,988.5610543090634,-69892.6474945321,1.4755802711577802e-06,0.0,0.0,0.0,1.4755802711577802e-06,0.0,23.77443418057496,4.200110840758428,-0.002330874920423325,0.0
4560,1.3793103448275863,3.4482758620689657,0.0,0,123256.68709264448,272484.0649801637,216837.78589311853,131215.65391385317,16901.12825862615,8.217112472842966e-07,0.0,0.0,0.0,8.217112472842966e-07,0.0,23.751758598649264,-0.04988299890030544,0.0005636417763109,0.0
4561,1.3793103448275863,3.4482758620689657,0.35714285714285715,0,44738.830883556984,282592.6618119453,273286.2252972237,233932.56149761978,-16983.764856652055,2.9825887255704657e-07,0.0,0.0,0.0,2.9825887255704657e-07,0.0,23.457286478197442,0.2541856445354015,-0.0005670205286730237,0.0
4562,1.3793103448275863,3.4482758620689657,0.7142857142857143,0,139145.22557657637,275877.30315199256,334416.1425046766,175565.48569815894,1237.7610639467352,9.276348371771758e-07,0.0,0.0,0.0,9.276348371771758e-07,0.0,23.966681607830857,0.5596412621838326,4.147321796655154e-05,0.0
4563,1.3793103448275863,3.4482758620689657,1.0714285714285714,0,150354.50109515534,351011.8691259186,199812.746559408,201516.46898206815,-2763.837698424101,1.002363340634369e-06,0.0,0.0,0.0,1.002363340634369e-06,0.0,23.63616462891465,0.8685886442714812,-9.370318353650008e-05,0.0
4564,1.3793103448275863,3.4482758620689657,1.4285714285714286,0,190370.06641107297,380221.8040485244,196511.35136509052,183826.56447506836,57837.94909969626,1.2691337760738197e-06,0.0,0.0,0.0,1.2691337760738197e-06,0.0,23.97421805133243,1.1835156625877772,0.00203634177648757,0.0
4565,1.3793103448275863,3.4482758620689657,1.7857142857142858,0,400510.57106896106,500236.13546057814,254112.30246418685,38093.09052648939,-45419.708408531464,2.6700704737930736e-06,0.0,0.0,0.0,2.6700704737930736e-06,0.0,23.593161528649745,1.5042445942495117,-0.0017939648603849585,0.0
4566,1.3793103448275863,3.4482758620689657,2.142857142857143,0,518181.45189488167,905103.7854642031,849267.0340623395,361265.15431428,449028.6728343123,3.4545430126325446e-06,0.0,0.0,0.0,3.4545430126325446e-06,0.0,23.574286493913963,1.8247787345045319,0.024070224853145254,0.0
4567,1.3793103448275863,3.4482758620689657,2.5,0,841329.7128565615,1319064.170097422,483022.2779242487,472544.5056534414,635337.677923888,5.608864752377077e-06,0.0,0.0,0.0,5.608864752377077e-06,0.0,23.635291013089557,2.135608070142083,0.0635337677923888,0.0
4568,1.3793103448275863,3.4482758620689657,2.857142857142857,0,827248.2804142578,1107085.0371324986,579024.3011803064,153704.53184766998,327139.12886849366,5.514988536095052e-06,0.0,0.0,0.0,5.514988536095052e-06,0.0,24.546902572846054,2.431921591647389,0.017536324218280504,0.0
4569,1.3793103448275863,3.4482758620689657,3.2142857142857144,0,117451.28618607999,346330.6732913806,283922.27612785157,210849.44656163958,-21392.67946231181,7.830085745738666e-07,0.0,0.0,0.0,7.830085745738666e-07,0.0,23.228435645133544,2.718530308535226,-0.0008449573229241087,0.0
4570,1.3793103448275863,3.4482758620689657,3.5714285714285716,0,441354.9624448094,438175.5483981363,161192.152644547,-70794.6937052667,-60746.984689882636,2.942366416298729e-06,0.0,0.0,0.0,2.942366416298729e-06,0.0,24.80815673978782,3.0049442340163486,-0.002138762259817205,0.0
4571,1.3793103448275863,3.4482758620689657,3.928571428571429,0,184804.5319483968,326002.90186436963,216860.22266104564,112627.84155407235,-18745.517200287115,1.232030212989312e-06,0.0,0.0,0.0,1.232030212989312e-06,0.0,24.310640588326155,3.2971600728429107,-0.0006355346552030393,0.0
4572,1.3793103448275863,3.4482758620689657,4.285714285714286,0,210705.36595036165,338292.1814996517,168137.8504549911,102608.31307093061,20842.982012277058,1.4047024396690776e-06,0.0,0.0,0.0,1.4047024396690776e-06,0.0,23.149819628291286,3.5953555478981185,0.0006983783552794632,0.0
4573,1.3793103448275863,3.4482758620689657,4.642857142857143,0,103505.15516441433,301013.40171834134,183704.79695173563,222551.6365648171,-196.282891299634,6.900343677627622e-07,0.0,0.0,0.0,6.900343677627622e-07,0.0,23.64692060918405,3.897042787392545,-6.553107025065557e-06,0.0
4574,1.3793103448275863,3.4482758620689657,5.0,0,256990.70815771574,334692.0070301727,360101.1138744683,91349.67598301944,18908.549181396764,1.7132713877181048e-06,0.0,0.0,0.0,1.7132713877181048e-06,0.0,23.12950429654273,4.200117001099695,0.0006305879752509977,0.0
4575,1.7241379310344829,3.4482758620689657,0.0,0,185674.88833084545,318943.8891945497,243005.75200163835,107336.65184932823,-45301.074055259625,1.237832588872303e-06,0.0,0.0,0.0,1.237832588872303e-06,0.0,24.287772515990753,-0.049876929541597524,-0.0015107617348721143,0.0
4576,1.7241379310344829,3.4482758620689657,0.35714285714285715,0,155156.3070257771,273778.6658111105,274424.01576658094,118946.04035584912,1374.7914977113232,1.0343753801718472e-06,0.0,0.0,0.0,1.0343753801718472e-06,0.0,24.607402457043534,0.25421750660352915,4.5898833882060665e-05,0.0
4577,1.7241379310344829,3.4482758620689657,0.7142857142857143,0,174629.6781995981,254933.60075717384,268664.6641128419,87574.80022955165,34029.011552241296,1.1641978546639873e-06,0.0,0.0,0.0,1.1641978546639873e-06,0.0,24.08841103751969,0.5597708653792806,0.0011401979383584295,0.0
4578,1.7241379310344829,3.4482758620689657,1.0714285714285714,0,102639.96897491171,291300.11294608156,217557.32598351224,174076.59280087048,46668.1305636895,6.842664598327447e-07,0.0,0.0,0.0,6.842664598327447e-07,0.0,24.58807621229211,0.8689971216858228,0.0015822030381914748,0.0
4579,1.7241379310344829,3.4482758620689657,1.4285714285714286,0,338252.23457331874,389318.9327728325,227620.6664812672,565.8743474750787,-41959.69650607631,2.2550148971554582e-06,0.0,0.0,0.0,2.2550148971554582e-06,0.0,24.07512103075213,1.1845132041022122,-0.0014773048535448752,0.0
4580,1.7241379310344829,3.4482758620689657,1.7857142857142858,0,236586.53296197628,596554.1259632867,399436.30504312244,334191.64079943683,37368.28250421862,1.5772435530798418e-06,0.0,0.0,0.0,1.5772435530798418e-06,0.0,24.473508868132644,1.5061321704820738,0.0014759536785778707,0.0
4581,1.7241379310344829,3.4482758620689657,2.142857142857143,0,529914.2142473039,924005.1049323733,579098.7777651757,313843.3698410154,270792.74182530807,3.5327614283153594e-06,0.0,0.0,0.0,3.5327614283153594e-06,0.0,24.138742284232222,1.8275462407730971,0.014515870764315262,0.0
4582,1.7241379310344829,3.4482758620689657,2.5,0,264856.2184806635,836911.0049651052,544441.2917160364,613249.3016278024,477690.46666589257,1.7657081232044234e-06,0.0,0.0,0.0,1.7657081232044234e-06,0.0,24.00451081391881,2.1387520757902956,0.04776904666658926,0.0
4583,1.7241379310344829,3.4482758620689657,2.857142857142857,0,852062.7476919352,834103.5828817964,573004.9478449493,-117957.48323840566,369341.6525852313,5.680418317946234e-06,0.0,0.0,0.0,5.680418317946234e-06,0.0,24.389056427637534,2.434689097915954,0.019798594529038368,0.0
4584,1.7241379310344829,3.4482758620689657,3.2142857142857144,0,590433.2535989156,635284.4876527537,297656.1223381797,-46478.75890528532,209089.34735168001,3.936221690659437e-06,0.0,0.0,0.0,3.936221690659437e-06,0.0,23.92879830381018,2.7204178847677882,0.008258506163357085,0.0
4585,1.7241379310344829,3.4482758620689657,3.5714285714285716,0,290673.0517516886,458590.73905393534,247573.60701101494,127040.9146239152,-36743.77146897542,1.9378203450112574e-06,0.0,0.0,0.0,1.9378203450112574e-06,0.0,24.740164601250292,3.0059417755307836,-0.001293664074066894,0.0
4586,1.7241379310344829,3.4482758620689657,3.928571428571429,0,139641.30064247473,316252.75905641355,202553.4257937768,160387.74484278393,13798.455035349976,9.309420042831649e-07,0.0,0.0,0.0,9.309420042831649e-07,0.0,23.8586993767698,3.2975685502572523,0.00046781298534091516,0.0
4587,1.7241379310344829,3.4482758620689657,4.285714285714286,0,187535.21286257252,296894.29982449545,138606.30803170078,89773.19736577771,9184.150015102534,1.2502347524171501e-06,0.0,0.0,0.0,1.2502347524171501e-06,0.0,24.3047440171337,3.5954851510935666,0.00030773003490619267,0.0
4588,1.7241379310344829,3.4482758620689657,4.642857142857143,0,219803.88301165632,321466.53662101156,71143.39278360727,160007.72332613132,9814.832677456872,1.4653592200777088e-06,0.0,0.0,0.0,1.4653592200777088e-06,0.0,23.672565146343942,3.8970746494606723,0.00032767832459886713,0.0
4589,1.7241379310344829,3.4482758620689657,5.0,0,70515.08798405592,238386.75117545377,158557.66477881256,184584.6107332849,41265.55053284763,4.701005865603728e-07,0.0,0.0,0.0,4.701005865603728e-07,0.0,23.244033643610393,4.200123070458402,0.001376179616346637,0.0
4590,2.0689655172413794,3.4482758620689657,0.0,0,144060.78870266714,285199.5790000397,314732.733594034,158193.96076339233,11075.150969077373,9.604052580177809e-07,0.0,0.0,0.0,9.604052580177809e-07,0.0,24.231421065120777,-0.049870977046245824,0.000369349174185226,0.0
4591,2.0689655172413794,3.4482758620689657,0.35714285714285715,0,192154.1955306072,340937.3289176571,189343.23486175435,124827.56740686776,-63393.88505658,1.281027970204048e-06,0.0,0.0,0.0,1.281027970204048e-06,0.0,23.155186094868256,0.25424875517879925,-0.0021164703187314805,0.0
4592,2.0689655172413794,3.4482758620689657,0.7142857142857143,0,184457.16029193552,335914.7518747674,254586.0056532552,124769.67527680592,-42769.248219915506,1.229714401946237e-06,0.0,0.0,0.0,1.229714401946237e-06,0.0,25.136496154188386,0.5598979731110191,-0.0014330539272533085,0.0
4593,2.0689655172413794,3.4482758620689657,1.0714285714285714,0,205451.079794423,290123.4193483464,84377.01019939141,84968.94801192726,-32526.694484640735,1.3696738652961534e-06,0.0,0.0,0.0,1.3696738652961534e-06,0.0,23.88956767963305,0.8693977340119609,-0.0011027618679880504,0.0
4594,2.0689655172413794,3.4482758620689657,1.4285714285714286,0,216470.57521393735,371939.54352791305,177619.20187456414,138620.5920506789,-22200.181832701703,1.4431371680929156e-06,0.0,0.0,0.0,1.4431371680929156e-06,0.0,24.03249931533376,1.185491538307449,-0.0007816175783416267,0.0
4595,2.0689655172413794,3.4482758620689657,1.7857142857142858,0,286334.2400629633,426357.55283751106,219084.53923175027,99638.7284800466,46654.686655871556,1.9088949337530883e-06,0.0,0.0,0.0,1.9088949337530883e-06,0.0,23.921101346838217,1.5079834021015954,0.0018427434117384892,0.0
4596,2.0689655172413794,3.4482758620689657,2.142857142857143,0,588561.3145571529,862883.6519786138,498910.3756917456,183858.77425496775,269062.59125507314,3.923742097047686e-06,0.0,0.0,0.0,3.923742097047686e-06,0.0,24.15124011833526,1.8302604596868617,0.014423125877908602,0.0
4597,2.0689655172413794,3.4482758620689657,2.5,0,540064.479784644,876203.9587725755,1054175.6599027351,447585.52272220823,351270.12265526666,3.6004298652309597e-06,0.0,0.0,0.0,3.6004298652309597e-06,0.0,24.25568093153878,2.1418355447212565,0.03512701226552666,0.0
4598,2.0689655172413794,3.4482758620689657,2.857142857142857,0,436013.5581737362,714703.2305029623,599146.1640047847,232551.34017537607,163613.60985524533,2.906757054491575e-06,0.0,0.0,0.0,2.906757054491575e-06,0.0,23.670383941939832,2.4374033168297187,0.008770523168135647,0.0
4599,2.0689655172413794,3.4482758620689657,3.2142857142857144,0,376413.3446200813,473628.37505816435,530539.6734927745,128911.36438337449,-54406.56468410096,2.5094222974672085e-06,0.0,0.0,0.0,2.5094222974672085e-06,0.0,22.818001279197777,2.72226911638731,-0.0021489232017879913,0.0
4600,2.0689655172413794,3.4482758620689657,3.5714285714285716,0,156865.0566016018,351936.40797073185,231356.55768915048,174590.85177283525,-50907.918074060115,1.0457670440106786e-06,0.0,0.0,0.0,1.0457670440106786e-06,0.0,23.54940414214057,3.0069201097360208,-0.0017923512493419251,0.0
4601,2.0689655172413794,3.4482758620689657,3.928571428571429,0,143799.85579445134,279228.7580927223,298412.76828433725,145983.86725043185,30595.744628149438,9.586657052963423e-07,0.0,0.0,0.0,9.586657052963423e-07,0.0,23.861902576452508,3.29796916258339,0.0010372963202441474,0.0
4602,2.0689655172413794,3.4482758620689657,4.285714285714286,0,228135.09461280995,336879.0366878446,331825.0066523329,106258.91791792386,-8047.072916460976,1.5209006307520662e-06,0.0,0.0,0.0,1.5209006307520662e-06,0.0,24.249373887979214,3.5956122588253048,-0.00026963039861098865,0.0
4603,2.0689655172413794,3.4482758620689657,4.642857142857143,0,141861.44386997484,273286.81625883933,201231.65945434375,109859.43393098225,-28271.129639345032,9.457429591331656e-07,0.0,0.0,0.0,9.457429591331656e-07,0.0,24.205775417037234,3.8971058980359423,-0.0009438608582717392,0.0
4604,2.0689655172413794,3.4482758620689657,5.0,0,233376.08092802594,391210.53290751006,175682.8663478896,143356.50061346364,-56892.15209844844,1.5558405395201729e-06,0.0,0.0,0.0,1.5558405395201729e-06,0.0,24.495344951978126,4.200129022953754,-0.0018973167457357666,0.0
4605,2.413793103448276,3.4482758620689657,0.0,0,227502.8095600533,372475.0470245163,125720.72841608113,171048.17251400833,-29175.51397413386,1.516685397067022e-06,0.0,0.0,0.0,1.516685397067022e-06,0.0,23.316822810785848,-0.04986517726846455,-0.0009729846593390108,0.0
4606,2.413793103448276,3.4482758620689657,0.35714285714285715,0,95207.3179474912,236744.10197759906,183873.47211351513,126834.50499362232,17494.06633757623,6.347154529832747e-07,0.0,0.0,0.0,6.347154529832747e-07,0.0,23.696639253708085,0.25427920203878646,0.0005840574705959991,0.0
4607,2.413793103448276,3.4482758620689657,0.7142857142857143,0,216568.94315711546,293067.3087572338,207060.75996928968,46706.56015987733,13752.52724827172,1.4437929543807698e-06,0.0,0.0,0.0,1.4437929543807698e-06,0.0,23.92727531899293,0.5600218197593247,0.00046080101949551777,0.0
4608,2.413793103448276,3.4482758620689657,1.0714285714285714,0,197910.4979101671,259032.70432125844,329405.5557916301,105925.97692814542,-7327.08340645387,1.319403319401114e-06,0.0,0.0,0.0,1.319403319401114e-06,0.0,24.914544507641427,0.8697880682047247,-0.0002484122137901454,0.0
4609,2.413793103448276,3.4482758620689657,1.4285714285714286,0,195494.94441613555,323448.35987330816,152612.51129675156,110243.08126890907,-4891.117115382037,1.3032996294409036e-06,0.0,0.0,0.0,1.3032996294409036e-06,0.0,25.517478799761964,1.186444772312842,-0.00017220503615329822,0.0
4610,2.413793103448276,3.4482758620689657,1.7857142857142858,0,521550.37594547134,694247.6436163597,352918.59761330317,93890.60681589984,-35586.93920195511,3.4770025063031424e-06,0.0,0.0,0.0,3.4770025063031424e-06,0.0,23.48773273039461,1.509787138413932,-0.0014055950743393946,0.0
4611,2.413793103448276,3.4482758620689657,2.142857142857143,0,395735.2632108487,689276.9409635952,247613.4736997049,366924.5945877913,220010.40317490566,2.6382350880723246e-06,0.0,0.0,0.0,2.6382350880723246e-06,0.0,24.71250379033198,1.8329050424407223,0.011793678655361033,0.0
4612,2.413793103448276,3.4482758620689657,2.5,0,444644.05664787936,926436.4540131388,531163.9709777109,445025.5039174085,546641.8496842267,2.9642937109858625e-06,0.0,0.0,0.0,2.9642937109858625e-06,0.0,24.214873282346144,2.1448399039921795,0.054664184968422666,0.0
4613,2.413793103448276,3.4482758620689657,2.857142857142857,0,361232.1858172833,813971.8959948024,559860.8239542036,400456.3027760944,227446.16017898574,2.408214572115222e-06,0.0,0.0,0.0,2.408214572115222e-06,0.0,24.454253294815754,2.4400478995835795,0.012192273119077161,0.0
4614,2.413793103448276,3.4482758620689657,3.2142857142857144,0,297125.3736230768,396513.015940722,397822.95660188934,100044.77833855065,132696.29094293504,1.9808358241538454e-06,0.0,0.0,0.0,1.9808358241538454e-06,0.0,23.51869878063813,2.724072852699647,0.0052411715397611275,0.0
4615,2.413793103448276,3.4482758620689657,3.5714285714285716,0,135661.60434911988,286873.84244200593,283006.22015502845,149319.78200674994,46069.24050780555,9.044106956607992e-07,0.0,0.0,0.0,9.044106956607992e-07,0.0,24.86315776772896,3.0078733437414136,0.0016219924896609197,0.0
4616,2.413793103448276,3.4482758620689657,3.928571428571429,0,110425.98306862984,225956.9318186214,232116.6710873519,118739.74371444464,-13321.812005052972,7.361732204575322e-07,0.0,0.0,0.0,7.361732204575322e-07,0.0,23.079818811519157,3.298359496776154,-0.0004516532197458587,0.0
4617,2.413793103448276,3.4482758620689657,4.285714285714286,0,103478.97732118132,237822.0545201162,235879.29650827483,133385.37690679706,-7666.047489044519,6.898598488078755e-07,0.0,0.0,0.0,6.898598488078755e-07,0.0,23.537750820323758,3.5957361054736108,-0.00025686351567830564,0.0
4618,2.413793103448276,3.4482758620689657,4.642857142857143,0,81018.81167467812,123889.02980758465,204318.2941987239,122722.53203668132,64050.849562567695,5.401254111645208e-07,0.0,0.0,0.0,5.401254111645208e-07,0.0,24.064944148474563,3.8971363448959297,0.0021384037572033778,0.0
4619,2.413793103448276,3.4482758620689657,5.0,0,192946.40517569493,319435.63003166486,141272.8344259377,114501.61479316735,24404.38466619063,1.2863093678379662e-06,0.0,0.0,0.0,1.2863093678379662e-06,0.0,23.90795204372263,4.200134822731536,0.0008138705601506577,0.0
4620,2.7586206896551726,3.4482758620689657,0.0,0,300369.1046149432,399802.0966409592,93421.16430796785,105829.37934081421,1991.4520034545533,2.002460697432955e-06,0.0,0.0,0.0,2.002460697432955e-06,0.0,24.234027322872404,-0.049859580724213204,6.641364573351076e-05,0.0
4621,2.7586206896551726,3.4482758620689657,0.35714285714285715,0,120284.9887307598,291814.6246641395,167414.4708032482,176117.5403080543,5263.4997599792705,8.018999248717319e-07,0.0,0.0,0.0,8.018999248717319e-07,0.0,23.88349709392602,0.25430858199189144,0.00017572737504104288,0.0
4622,2.7586206896551726,3.4482758620689657,0.7142857142857143,0,133299.23321226236,203799.6033189146,191382.67153353326,64726.354926289074,4237.573494572074,8.886615547484158e-07,0.0,0.0,0.0,8.886615547484158e-07,0.0,24.052263436205553,0.5601413266221331,0.0001419868618498021,0.0
4623,2.7586206896551726,3.4482758620689657,1.0714285714285714,0,161136.06392849179,255284.18818876208,278526.8157419927,107031.5944736189,-309.48249296394727,1.0742404261899452e-06,0.0,0.0,0.0,1.0742404261899452e-06,0.0,24.143117077101074,0.8701647244603615,-1.0492473872857812e-05,0.0
4624,2.7586206896551726,3.4482758620689657,1.4285714285714286,0,90526.00475270061,309188.1660390488,231452.37374661307,209799.05473660296,-32180.22001263548,6.035066983513374e-07,0.0,0.0,0.0,6.035066983513374e-07,0.0,24.128382211561085,1.1873646034674605,-0.001132991874856004,0.0
4625,2.7586206896551726,3.4482758620689657,1.7857142857142858,0,246117.73381433147,388414.5576580801,322191.5861477902,115960.58208726827,31749.278185070587,1.640784892095543e-06,0.0,0.0,0.0,1.640784892095543e-06,0.0,24.319079380246425,1.5115276689084567,0.001254017064449158,0.0
4626,2.7586206896551726,3.4482758620689657,2.142857142857143,0,580227.6516215288,846818.6103504717,561473.4019505394,179171.99561414245,168749.40763229213,3.868184344143525e-06,0.0,0.0,0.0,3.868184344143525e-06,0.0,24.697565155601517,1.8354569547667678,0.009045828098026872,0.0
4627,2.7586206896551726,3.4482758620689657,2.5,0,486399.6731220914,987896.088405611,549182.3943892043,464841.42608564685,552143.7883998038,3.2426644874806094e-06,0.0,0.0,0.0,3.2426644874806094e-06,0.0,23.877472296085745,2.147738985688204,0.055214378839980385,0.0
4628,2.7586206896551726,3.4482758620689657,2.857142857142857,0,509323.6441963399,555551.7925421351,622889.6624295708,83246.63427879263,262933.4914870334,3.3954909613089325e-06,0.0,0.0,0.0,3.3954909613089325e-06,0.0,24.93284062894463,2.442599811909625,0.014094574900010325,0.0
4629,2.7586206896551726,3.4482758620689657,3.2142857142857144,0,287648.93224055605,558380.9565391674,534412.6176166064,259497.76779392015,89186.16647801765,1.917659548270374e-06,0.0,0.0,0.0,1.917659548270374e-06,0.0,24.28831710435878,2.7258133831941715,0.0035226304681417416,0.0
4630,2.7586206896551726,3.4482758620689657,3.5714285714285716,0,316947.27126375906,444386.3706539361,387464.3951315778,102835.15741690961,-39106.3138364103,2.11298180842506e-06,0.0,0.0,0.0,2.11298180842506e-06,0.0,24.898983770987048,3.008793174896032,-0.0013768437821377452,0.0
4631,2.7586206896551726,3.4482758620689657,3.928571428571429,0,236246.22826351292,404412.10337065056,210746.03396629367,141198.86990721335,41846.6555421937,1.574974855090086e-06,0.0,0.0,0.0,1.574974855090086e-06,0.0,24.10194350525471,3.2987361530317907,0.001418739185334459,0.0
4632,2.7586206896551726,3.4482758620689657,4.285714285714286,0,350066.462187459,447278.83521673584,218196.37445191477,44315.26246831799,36903.05422507357,2.33377641458306e-06,0.0,0.0,0.0,2.33377641458306e-06,0.0,23.84481269359628,3.5958556123364187,0.0012364974598795496,0.0
4633,2.7586206896551726,3.4482758620689657,4.642857142857143,0,92990.12680826553,232303.83059093013,287905.22584656754,180552.48664823294,-44624.79151098701,6.199341787217702e-07,0.0,0.0,0.0,6.199341787217702e-07,0.0,24.32278265572942,3.897165724849035,-0.0014898447480902791,0.0
4634,2.7586206896551726,3.4482758620689657,5.0,0,349812.68483763514,443443.9712670024,189866.09061403724,44363.627649895265,-14335.582846588122,2.332084565584234e-06,0.0,0.0,0.0,2.332084565584234e-06,0.0,25.56935298822422,4.200140419275787,-0.00047808248398913757,0.0
4635,3.1034482758620694,3.4482758620689657,0.0,0,97974.20855381578,262307.06664257153,235962.18931730528,153853.95774308452,-11216.834506821295,6.531613903587719e-07,0.0,0.0,0.0,6.531613903587719e-07,0.0,23.617288770682435,-0.049854259600803745,-0.00037407422920320905,0.0
4636,3.1034482758620694,3.4482758620689657,0.35714285714285715,0,175805.12595161167,248903.93548622463,133548.119602259,46563.59594166397,-40600.633769051215,1.1720341730107446e-06,0.0,0.0,0.0,1.1720341730107446e-06,0.0,24.643265550659567,0.254336516079288,-0.0013554940861755054,0.0
4637,3.1034482758620694,3.4482758620689657,0.7142857142857143,0,107942.77374618588,301792.82581408333,180674.44886926422,215750.37854869742,-7357.153139097539,7.196184916412392e-07,0.0,0.0,0.0,7.196184916412392e-07,0.0,24.398064727309183,0.5602549522340678,-0.0002465135030004641,0.0
4638,3.1034482758620694,3.4482758620689657,1.0714285714285714,0,152719.9278097055,257861.28946201154,271762.87624730816,112567.42526747285,16474.0772241094,1.0181328520647034e-06,0.0,0.0,0.0,1.0181328520647034e-06,0.0,24.516074472544155,0.8705228444589131,0.0005585253731090571,0.0
4639,3.1034482758620694,3.4482758620689657,1.4285714285714286,0,154030.9157263046,366208.8721199773,188685.51781965475,267980.56896286074,-11657.306199376013,1.0268727715086974e-06,0.0,0.0,0.0,1.0268727715086974e-06,0.0,23.715930467024613,1.1882391672821586,-0.00041042706362528293,0.0
4640,3.1034482758620694,3.4482758620689657,1.7857142857142858,0,229299.4040390083,357552.70596596005,327628.9984687498,114760.55245487722,-32040.250758755035,1.5286626935933887e-06,0.0,0.0,0.0,1.5286626935933887e-06,0.0,24.55210978224041,1.513182543263654,-0.001265509753213924,0.0
4641,3.1034482758620694,3.4482758620689657,2.142857142857143,0,437122.6658295473,685413.0850430022,277230.27132048504,224190.74282369157,327076.51589131396,2.914151105530315e-06,0.0,0.0,0.0,2.914151105530315e-06,0.0,24.475997289036513,1.837883280693472,0.01753296784366432,0.0
4642,3.1034482758620694,3.4482758620689657,2.5,0,468949.63050951395,1064666.548288583,932579.8481717864,543839.0915441647,421618.3707942491,3.1263308700634262e-06,0.0,0.0,0.0,3.1263308700634262e-06,0.0,23.591231638942386,2.150495395855945,0.04216183707942491,0.0
4643,3.1034482758620694,3.4482758620689657,2.857142857142857,0,616424.4060444348,711568.7521062065,685669.4245492165,82602.8815674462,222077.51923265957,4.109496040296231e-06,0.0,0.0,0.0,4.109496040296231e-06,0.0,24.403370912495408,2.445026137836329,0.011904486608879055,0.0
4644,3.1034482758620694,3.4482758620689657,3.2142857142857144,0,326360.95104003785,499573.3824649545,358347.18471688987,126383.28319932535,132853.9973140261,2.1757396736002524e-06,0.0,0.0,0.0,2.1757396736002524e-06,0.0,24.220999929126034,2.7274682575493685,0.005247400546901628,0.0
4645,3.1034482758620694,3.4482758620689657,3.5714285714285716,0,175066.43029608345,371378.3821664812,271823.4433096928,169236.65961902603,17715.237580949793,1.167109535307223e-06,0.0,0.0,0.0,1.167109535307223e-06,0.0,24.17029408711376,3.0096677387107302,0.0006237129588448722,0.0
4646,3.1034482758620694,3.4482758620689657,3.928571428571429,0,262975.6982887797,360162.2577625681,227391.41156971795,57270.71489035963,-23424.101610180358,1.753171321925198e-06,0.0,0.0,0.0,1.753171321925198e-06,0.0,24.329135766513055,3.2990942730303425,-0.0007941540466026148,0.0
4647,3.1034482758620694,3.4482758620689657,4.285714285714286,0,117674.07981066985,189490.42077631093,276709.2583640562,142867.66772072742,-33678.82567822272,7.844938654044657e-07,0.0,0.0,0.0,7.844938654044657e-07,0.0,24.900523448956612,3.5959692379483537,-0.0011284643853286785,0.0
4648,3.1034482758620694,3.4482758620689657,4.642857142857143,0,174475.41083156227,315371.3261343974,168355.4364493797,122567.88632273866,27273.10278546492,1.1631694055437486e-06,0.0,0.0,0.0,1.1631694055437486e-06,0.0,24.590493457101427,3.8971936589364313,0.0009105407011043884,0.0
4649,3.1034482758620694,3.4482758620689657,5.0,0,226921.28177401435,267166.52652761404,238958.89431760053,27460.15007412614,25324.116109017647,1.5128085451600957e-06,0.0,0.0,0.0,1.5128085451600957e-06,0.0,23.844459671126746,4.200145740399196,0.000844543013269249,0.0
4650,3.4482758620689657,3.4482758620689657,0.0,0,112164.52198016646,293953.99514308013,260430.45681455376,168850.13224562793,-14415.13942059047,7.477634798677764e-07,0.0,0.0,0.0,7.477634798677764e-07,0.0,24.621562602698734,-0.049849317810151256,-0.0004807356446540184,0.0
4651,3.4482758620689657,3.4482758620689657,0.35714285714285715,0,272787.51841037936,344846.9230943148,268329.8718229034,41971.90921753366,-35822.51167774222,1.8185834560691958e-06,0.0,0.0,0.0,1.8185834560691958e-06,0.0,24.355589043285256,0.2543624587987778,-0.0011959715458468145,0.0
4652,3.4482758620689657,3.4482758620689657,0.7142857142857143,0,127609.05455054138,217264.6463953485,70824.50492010414,158205.59704800227,11010.448777697944,8.507270303369425e-07,0.0,0.0,0.0,8.507270303369425e-07,0.0,24.074355522416557,0.5603604776924599,0.00036892317537520183,0.0
4653,3.4482758620689657,3.4482758620689657,1.0714285714285714,0,95132.80005511153,234516.1174620996,170606.02627238014,125186.17393892504,17654.21608966384,6.342186670340768e-07,0.0,0.0,0.0,6.342186670340768e-07,0.0,23.767369363837847,0.8708554347645933,0.0005985359601202473,0.0
4654,3.4482758620689657,3.4482758620689657,1.4285714285714286,0,90748.60304269184,209460.8197466876,169562.629824979,105598.61624534059,-8442.498521782927,6.04990686951279e-07,0.0,0.0,0.0,6.04990686951279e-07,0.0,24.795445324727943,1.1890513851075906,-0.00029724104511740743,0.0
4655,3.4482758620689657,3.4482758620689657,1.7857142857142858,0,316344.9458910759,435777.4058857033,357327.5465979211,87589.145935248,-2437.7522193246987,2.1089663059405057e-06,0.0,0.0,0.0,2.1089663059405057e-06,0.0,24.111438002885276,1.5147194447767873,-9.62851143925993e-05,0.0
4656,3.4482758620689657,3.4482758620689657,2.142857142857143,0,650453.0301685046,918303.5817947319,215267.25041224746,337887.8800254824,275353.9454094263,4.336353534456697e-06,0.0,0.0,0.0,4.336353534456697e-06,0.0,24.855454233080494,1.8401366384643476,0.014760374517667355,0.0
4657,3.4482758620689657,3.4482758620689657,2.5,0,614395.5240638143,832831.0761823383,248236.92925661476,192440.44844880607,531825.7230648987,4.095970160425429e-06,0.0,0.0,0.0,4.095970160425429e-06,0.0,23.86788743873753,2.1530553067907623,0.05318257230648988,0.0
4658,3.4482758620689657,3.4482758620689657,2.857142857142857,0,329315.0576589891,530907.8802849711,822513.8911372842,465351.33890274767,238228.4781886046,2.195433717726594e-06,0.0,0.0,0.0,2.195433717726594e-06,0.0,25.40827380315117,2.4472794956072046,0.012770260304820664,0.0
4659,3.4482758620689657,3.4482758620689657,3.2142857142857144,0,110173.39081491773,441992.68863655016,403158.8583780092,317660.921058998,64387.91279217626,7.344892720994516e-07,0.0,0.0,0.0,7.344892720994516e-07,0.0,25.73248747475773,2.7290051590625017,0.002543161482758407,0.0
4660,3.4482758620689657,3.4482758620689657,3.5714285714285716,0,8254.110175660215,240051.73873653339,247492.9776184606,248930.00373710154,16631.865789386356,5.5027401171068097e-08,0.0,0.0,0.0,5.5027401171068097e-08,0.0,24.69150154314701,3.010479956536162,0.0005855699182812089,0.0
4661,3.4482758620689657,3.4482758620689657,3.928571428571429,0,93420.20439290786,227896.98534912354,227241.71326312266,134150.86851841887,33873.67527083891,6.228013626193858e-07,0.0,0.0,0.0,6.228013626193858e-07,0.0,25.073306455338365,3.2994268633360226,0.001148428944568283,0.0
4662,3.4482758620689657,3.4482758620689657,4.285714285714286,0,187735.77653218366,307634.5915548762,208160.75274136724,91094.08005874246,-12003.90741860795,1.251571843547891e-06,0.0,0.0,0.0,1.251571843547891e-06,0.0,24.203127584155045,3.5960747634067456,-0.00040221063929318774,0.0
4663,3.4482758620689657,3.4482758620689657,4.642857142857143,0,143768.48723981107,217729.18486624936,255925.7902361274,96916.29276361222,-32415.158639336183,9.584565815987404e-07,0.0,0.0,0.0,9.584565815987404e-07,0.0,24.158413411285466,3.897219601655921,-0.0010822135459263257,0.0
4664,3.4482758620689657,3.4482758620689657,5.0,0,228136.47271677922,347776.1188748271,163148.55097613926,92733.2777091541,-1915.0640113930556,1.5209098181118615e-06,0.0,0.0,0.0,1.5209098181118615e-06,0.0,25.036328396267063,4.200150682189849,-6.386615524201708e-05,0.0
4665,3.793103448275862,3.4482758620689657,0.0,0,134535.85068290535,285358.8050381137,213437.54838386428,130148.88006766204,48849.191208508404,8.96905671219369e-07,0.0,0.0,0.0,8.96905671219369e-07,0.0,24.514038713637937,-0.049844903834056674,0.0016290891639179003,0.0
4666,3.793103448275862,3.4482758620689657,0.35714285714285715,0,132857.58335766513,294490.1443376304,215842.7659110809,141095.9512435878,-51048.33474267987,8.857172223844342e-07,0.0,0.0,0.0,8.857172223844342e-07,0.0,23.757057507903355,0.2543856306714265,-0.0017043013723976941,0.0
4667,3.793103448275862,3.4482758620689657,0.7142857142857143,0,115981.52415009549,274286.8412342401,142506.9318388085,187726.72557977168,-67180.61511785144,7.732101610006366e-07,0.0,0.0,0.0,7.732101610006366e-07,0.0,24.486450654694444,0.5604547323631786,-0.002250996880630234,0.0
4668,3.793103448275862,3.4482758620689657,1.0714285714285714,0,201519.8064586709,345501.19863667554,285899.33754251286,120903.07609051971,-3041.231489439087,1.3434653763911394e-06,0.0,0.0,0.0,1.3434653763911394e-06,0.0,23.841605565658913,0.871152502317995,-0.00010310774492814165,0.0
4669,3.793103448275862,3.4482758620689657,1.4285714285714286,0,312534.87470422674,402226.0214225225,212432.01240973445,41506.28742610347,-8818.246128067081,2.0835658313615116e-06,0.0,0.0,0.0,2.0835658313615116e-06,0.0,24.364698487264867,1.1897768529222248,-0.0003104702581168643,0.0
4670,3.793103448275862,3.4482758620689657,1.7857142857142858,0,339545.4053949656,531536.6173293694,450075.0835949767,158670.1911058464,42094.18805296134,2.2636360359664373e-06,0.0,0.0,0.0,2.2636360359664373e-06,0.0,24.986424361414592,1.516092195468941,0.001662615125447711,0.0
4671,3.793103448275862,3.4482758620689657,2.142857142857143,0,292283.7271870983,821435.245180761,533608.1323444298,524889.96854819,260244.405912729,1.948558181247322e-06,0.0,0.0,0.0,1.948558181247322e-06,0.0,25.196453445370373,1.8421493233457185,0.013950426211209914,0.0
4672,3.793103448275862,3.4482758620689657,2.5,0,786310.5136185043,831585.8376754858,891624.1426489089,77015.431680226,588406.368168872,5.242070090790028e-06,0.0,0.0,0.0,5.242070090790028e-06,0.0,24.609618933608996,2.1553418030155322,0.05884063681688719,0.0
4673,3.793103448275862,3.4482758620689657,2.857142857142857,0,435949.48396960826,818101.2432239042,362924.42225399666,404334.158309884,275235.4033439412,2.9063298931307217e-06,0.0,0.0,0.0,2.9063298931307217e-06,0.0,25.145232254176452,2.4492921804885754,0.014754020058935863,0.0
4674,3.793103448275862,3.4482758620689657,3.2142857142857144,0,273003.0256864918,464491.739603841,240632.813088312,160348.7549734489,93302.23314246807,1.8200201712432786e-06,0.0,0.0,0.0,1.8200201712432786e-06,0.0,24.250980420336933,2.7303779097546554,0.003685204804652431,0.0
4675,3.793103448275862,3.4482758620689657,3.5714285714285716,0,236272.41045924395,347911.4813804183,180437.12451988857,77656.45718242157,-81785.45160012088,1.5751494030616264e-06,0.0,0.0,0.0,1.5751494030616264e-06,0.0,25.336032295935695,3.0112054243507966,-0.0028794785153110304,0.0
4676,3.793103448275862,3.4482758620689657,3.928571428571429,0,120831.76590070967,282809.5065452305,217450.3819973685,143375.76740014987,-15639.509386084299,8.055451060047311e-07,0.0,0.0,0.0,8.055451060047311e-07,0.0,24.12894683224118,3.2997239308894244,-0.0005302307799262825,0.0
4677,3.793103448275862,3.4482758620689657,4.285714285714286,0,75793.40873410016,263897.416869103,292866.93590444117,206861.43790708177,-23676.872173140346,5.052893915606677e-07,0.0,0.0,0.0,5.052893915606677e-07,0.0,24.090555955624776,3.596169018077464,-0.0007933325009204565,0.0
4678,3.793103448275862,3.4482758620689657,4.642857142857143,0,142264.31264988982,249629.42641253507,294924.3819164771,135527.46208824922,-66148.30694776835,9.484287509992655e-07,0.0,0.0,0.0,9.484287509992655e-07,0.0,24.269443727387724,3.8972427735285695,-0.0022084295380278103,0.0
4679,3.793103448275862,3.4482758620689657,5.0,0,233428.82402267322,316553.37651134055,68897.1851970655,100590.46624871025,2993.0864496386016,1.5561921601511547e-06,0.0,0.0,0.0,1.5561921601511547e-06,0.0,24.13090402131416,4.200155096165943,9.98175114294719e-05,0.0
4680,4.137931034482759,3.4482758620689657,0.0,0,288657.28108286916,374695.47980000614,222640.7960337055,41797.43935296305,-2977.9783277366196,1.9243818738857944e-06,0.0,0.0,0.0,1.9243818738857944e-06,0.0,24.751536104027775,-0.04984122224463713,-9.931366526398241e-05,0.0
4681,4.137931034482759,3.4482758620689657,0.35714285714285715,0,312728.8868418484,366484.89282109926,17046.90114796862,112904.15628013136,-13868.302403954485,2.0848592456123227e-06,0.0,0.0,0.0,2.0848592456123227e-06,0.0,25.12369070915598,0.25440495776322464,-0.00046300759738837795,0.0
4682,4.137931034482759,3.4482758620689657,0.7142857142857143,0,201682.97339043822,223022.0931149723,255884.51959457793,39788.41848008496,-3748.4753728034384,1.3445531559362548e-06,0.0,0.0,0.0,1.3445531559362548e-06,0.0,24.51005001286491,0.5605333478769525,-0.00012559882574010063,0.0
4683,4.137931034482759,3.4482758620689657,1.0714285714285714,0,247497.65155642893,386028.5271462861,283461.21484267054,103736.11063882218,3369.7257428899766,1.6499843437095262e-06,0.0,0.0,0.0,1.6499843437095262e-06,0.0,24.66268067951399,0.871400279092962,0.0001142447799788413,0.0
4684,4.137931034482759,3.4482758620689657,1.4285714285714286,0,169900.00971393674,333953.5049833737,246782.7138642168,138161.16745812458,40614.97509328437,1.1326667314262449e-06,0.0,0.0,0.0,1.1326667314262449e-06,0.0,23.820547904219442,1.1903819478691287,0.0014299602911385294,0.0
4685,4.137931034482759,3.4482758620689657,1.7857142857142858,0,536622.6055385645,572273.3817007804,366205.14703340206,-36839.51682295293,86641.92988068772,3.5774840369237633e-06,0.0,0.0,0.0,3.5774840369237633e-06,0.0,24.56463183973489,1.5172371732204346,0.0034221394871988093,0.0
4686,4.137931034482759,3.4482758620689657,2.142857142857143,0,95899.36761178538,619746.3156036028,541002.9390493073,512948.3772827097,310356.1005184902,6.393291174119025e-07,0.0,0.0,0.0,6.393291174119025e-07,0.0,25.406604742957356,1.8438280545407626,0.01663666838215897,0.0
4687,4.137931034482759,3.4482758620689657,2.5,0,677048.5713538775,915916.2991155261,483709.37838726095,135638.52949203888,719379.9598731637,4.513657142359184e-06,0.0,0.0,0.0,4.513657142359184e-06,0.0,25.232316329866364,2.157248913550023,0.07193799598731637,0.0
4688,4.137931034482759,3.4482758620689657,2.857142857142857,0,462192.7933572755,804429.3073149457,595209.6585746598,274622.43195885734,231890.056324331,3.081285289048503e-06,0.0,0.0,0.0,3.081285289048503e-06,0.0,23.983317048428095,2.4509709116836196,0.012430488595980472,0.0
4689,4.137931034482759,3.4482758620689657,3.2142857142857144,0,90364.16144519355,359197.108361103,333979.1758035402,258902.77510564376,-15660.574087040215,6.02427742967957e-07,0.0,0.0,0.0,6.02427742967957e-07,0.0,24.316367695640672,2.731522887506149,-0.0006185535000116431,0.0
4690,4.137931034482759,3.4482758620689657,3.5714285714285716,0,142075.0067879784,400035.00283617957,316010.5793686805,235997.2620131452,46358.90671300843,9.47166711919856e-07,0.0,0.0,0.0,9.47166711919856e-07,0.0,26.243441805693994,3.0118105192977005,0.0016321909735987662,0.0
4691,4.137931034482759,3.4482758620689657,3.928571428571429,0,274171.34880249173,389510.7097701174,207854.09473191848,74137.11914797593,57489.54402728618,1.8278089920166115e-06,0.0,0.0,0.0,1.8278089920166115e-06,0.0,24.75395984522106,3.2999717076643913,0.0019490845278252263,0.0
4692,4.137931034482759,3.4482758620689657,4.285714285714286,0,276722.9826362165,287479.3369587253,157221.9641294792,-30335.66039655962,-18917.217980385452,1.8448198842414434e-06,0.0,0.0,0.0,1.8448198842414434e-06,0.0,25.30729797339552,3.596247633591238,-0.0006338524675510845,0.0
4693,4.137931034482759,3.4482758620689657,4.642857142857143,0,235069.89389312585,377713.01567393506,116644.63314470928,182833.43026486284,40911.98298033744,1.5671326259541723e-06,0.0,0.0,0.0,1.5671326259541723e-06,0.0,25.351266208187777,3.897262100620368,0.001365888801120955,0.0
4694,4.137931034482759,3.4482758620689657,5.0,0,219539.3413843078,285614.4290037557,97134.49449486737,44561.62807629942,-15837.106949285253,1.4635956092287187e-06,0.0,0.0,0.0,1.4635956092287187e-06,0.0,24.00124588800875,4.200158777755363,-0.0005281573487832018,0.0
4695,4.482758620689656,3.4482758620689657,0.0,0,190118.72424637421,358242.7052570134,294729.71239282563,144498.0110973083,17905.84467342509,1.2674581616424947e-06,0.0,0.0,0.0,1.2674581616424947e-06,0.0,24.89460763610553,-0.049838530269078814,0.0005971484236814363,0.0
4696,4.482758620689656,3.4482758620689657,0.35714285714285715,0,33062.19076712448,170375.22197791399,186349.21891445474,148333.36724255251,19609.85209849466,2.2041460511416318e-07,0.0,0.0,0.0,2.2041460511416318e-07,0.0,24.631046976353712,0.2544190897189657,0.0006546951631712669,0.0
4697,4.482758620689656,3.4482758620689657,0.7142857142857143,0,463765.06577509263,455884.61180279416,235880.75510243117,-76937.32968666697,-19384.840769402937,3.091767105167284e-06,0.0,0.0,0.0,3.091767105167284e-06,0.0,25.412972390035367,0.560590831484565,-0.0006495209373551109,0.0
4698,4.482758620689656,3.4482758620689657,1.0714285714285714,0,354748.53854870587,411224.062648506,334478.51990740397,24384.48245038111,58660.472968027396,2.3649902569913725e-06,0.0,0.0,0.0,2.3649902569913725e-06,0.0,25.52794991856787,0.8715814532941336,0.0019887828681094746,0.0
4699,4.482758620689656,3.4482758620689657,1.4285714285714286,0,202854.80350080135,346920.8725164561,216096.19449248305,113241.63533881267,76783.06887492408,1.3523653566720091e-06,0.0,0.0,0.0,1.3523653566720091e-06,0.0,24.135721493395693,1.1908243928628246,0.0027033560717620855,0.0
4700,4.482758620689656,3.4482758620689657,1.7857142857142858,0,372758.0983013693,319114.6320694777,302738.083698331,-61561.83836778755,1694.719520771032,2.485053988675795e-06,0.0,0.0,0.0,2.485053988675795e-06,0.0,26.277102455026853,1.5180743801358676,6.693718156721139e-05,0.0
4701,4.482758620689656,3.4482758620689657,2.142857142857143,0,628572.8376679688,825710.2492529826,525878.1468673397,103361.36790607504,310159.9973940934,4.1904855844531255e-06,0.0,0.0,0.0,4.1904855844531255e-06,0.0,24.645592949045742,1.8450555415935117,0.016626156255463723,0.0
4702,4.482758620689656,3.4482758620689657,2.5,0,260902.23543470848,653342.9324969372,648448.1528910242,390027.74609140045,614058.0542803435,1.7393482362313898e-06,0.0,0.0,0.0,1.7393482362313898e-06,0.0,24.881960458878996,2.158643391412922,0.061405805428034345,0.0
4703,4.482758620689656,3.4482758620689657,2.857142857142857,0,547301.3979435,850198.0432989331,841250.4734176577,298477.7179984462,147483.02318595437,3.6486759862899998e-06,0.0,0.0,0.0,3.6486759862899998e-06,0.0,23.244424072570016,2.452198398736369,0.007905841530564034,0.0
4704,4.482758620689656,3.4482758620689657,3.2142857142857144,0,311037.06795164314,570330.4418745096,533892.0097847151,242679.10380592337,56889.95390331793,2.0735804530109543e-06,0.0,0.0,0.0,2.0735804530109543e-06,0.0,25.07943672811799,2.732360094421582,0.0022470108635110077,0.0
4705,4.482758620689656,3.4482758620689657,3.5714285714285716,0,120761.6581499404,298600.2395085461,303182.217257107,180194.78191874528,-56190.02319657568,8.050777209996026e-07,0.0,0.0,0.0,8.050777209996026e-07,0.0,23.502943381944075,3.012252964291396,-0.001978322078117974,0.0
4706,4.482758620689656,3.4482758620689657,3.928571428571429,0,336474.8306753368,387515.21936603385,313344.79585115344,20143.203626487757,21331.915228206548,2.2431655378355787e-06,0.0,0.0,0.0,2.2431655378355787e-06,0.0,24.51278840180789,3.300152881865563,0.0007232220506122425,0.0
4707,4.482758620689656,3.4482758620689657,4.285714285714286,0,270925.08318941476,356753.1267833498,204123.76283489965,43946.14335575822,2645.8203964362506,1.806167221262765e-06,0.0,0.0,0.0,1.806167221262765e-06,0.0,24.31304266765087,3.5963051171988507,8.865255920384202e-05,0.0
4708,4.482758620689656,3.4482758620689657,4.642857142857143,0,174051.32634515854,366046.3197448302,232716.08436726275,169146.2203762738,-11447.487441616213,1.1603421756343903e-06,0.0,0.0,0.0,1.1603421756343903e-06,0.0,24.82728357475319,3.897276232576109,-0.0003821861899236494,0.0
4709,4.482758620689656,3.4482758620689657,5.0,0,102363.18496974776,306754.56085574714,195883.04068888948,215838.5083683886,-47980.41592429739,6.824212331316518e-07,0.0,0.0,0.0,6.824212331316518e-07,0.0,24.68861942685594,4.200161469730921,-0.0016001160659735204,0.0
4710,4.827586206896552,3.4482758620689657,0.0,0,140253.36349242768,227254.7327306219,140090.00256214218,65466.02969476823,-18975.59037925208,9.350224232828513e-07,0.0,0.0,0.0,9.350224232828513e-07,0.0,24.84739184438739,-0.0498370942513687,-0.0006328237561566835,0.0
4711,4.827586206896552,3.4482758620689657,0.35714285714285715,0,207580.28554889624,379070.3875224217,298283.325576825,143242.30762029503,16461.76802476185,1.3838685703259748e-06,0.0,0.0,0.0,1.3838685703259748e-06,0.0,25.18162302903281,0.25442662832334123,0.0005495931253803963,0.0
4712,4.827586206896552,3.4482758620689657,0.7142857142857143,0,107233.44686849856,300873.9185461581,256475.3173793532,178571.7444369555,-1298.7100684790848,7.148896457899904e-07,0.0,0.0,0.0,7.148896457899904e-07,0.0,24.061408402844293,0.5606214957594755,-4.351541449659463e-05,0.0
4713,4.827586206896552,3.4482758620689657,1.0714285714285714,0,87101.3880105695,236612.29484428331,230573.0595348604,146648.4564441661,39289.00731710646,5.806759200704633e-07,0.0,0.0,0.0,5.806759200704633e-07,0.0,24.46592359176745,0.8716780995510784,0.0013320265027504546,0.0
4714,4.827586206896552,3.4482758620689657,1.4285714285714286,0,306389.02573996125,483796.0896931378,266385.68821578036,133380.78761201756,47734.13846872045,2.042593504933075e-06,0.0,0.0,0.0,2.042593504933075e-06,0.0,24.150143496248266,1.1910604124079263,0.0016806097353304723,0.0
4715,4.827586206896552,3.4482758620689657,1.7857142857142858,0,594679.6918119387,774569.9700633695,217528.86889431957,148309.79769291476,116667.70991244016,3.964531278746257e-06,0.0,0.0,0.0,3.964531278746257e-06,0.0,24.117242637040047,1.5185209829862827,0.004608082686087651,0.0
4716,4.827586206896552,3.4482758620689657,2.142857142857143,0,343334.2369837832,801569.5475126422,407759.6557332917,644208.5662419677,261371.09997539278,2.2888949132252213e-06,0.0,0.0,0.0,2.2888949132252213e-06,0.0,25.54867594670981,1.8457103369690635,0.014010822753947013,0.0
4717,4.827586206896552,3.4482758620689657,2.5,0,847422.062296935,1361648.4548287755,729627.5511713587,398694.161022545,576772.2083139884,5.6494804153129e-06,0.0,0.0,0.0,5.6494804153129e-06,0.0,23.952604434083085,2.1593872670032117,0.05767722083139884,0.0
4718,4.827586206896552,3.4482758620689657,2.857142857142857,0,398218.90200988273,822997.9941338215,480236.33304192545,386166.3646022615,226821.74335935325,2.654792680065885e-06,0.0,0.0,0.0,2.654792680065885e-06,0.0,24.180754310359664,2.4528531941119205,0.012158801195879539,0.0
4719,4.827586206896552,3.4482758620689657,3.2142857142857144,0,217852.20103131086,504008.2741669426,358108.8850106751,253591.37789492487,-11268.604263320383,1.4523480068754057e-06,0.0,0.0,0.0,1.4523480068754057e-06,0.0,25.693666482896706,2.732806697271997,-0.000445081678907998,0.0
4720,4.827586206896552,3.4482758620689657,3.5714285714285716,0,215074.66672745606,332801.3243967857,258602.6352138669,90450.84543433491,49794.17643326312,1.4338311115163738e-06,0.0,0.0,0.0,1.4338311115163738e-06,0.0,24.537852641399077,3.012488983836498,0.0017531389559139645,0.0
4721,4.827586206896552,3.4482758620689657,3.928571428571429,0,278873.068349957,434991.5966100105,184659.81485899238,134409.94950108818,-38672.12110811278,1.8591537889997134e-06,0.0,0.0,0.0,1.8591537889997134e-06,0.0,24.573781209539916,3.300249528122508,-0.0013111120323763695,0.0
4722,4.827586206896552,3.4482758620689657,4.285714285714286,0,142536.11350580837,268444.89351147995,161077.62393734223,106730.03304643165,-41152.79976983174,9.502407567053892e-07,0.0,0.0,0.0,9.502407567053892e-07,0.0,24.811001420418897,3.5963357814737615,-0.0013788921662683117,0.0
4723,4.827586206896552,3.4482758620689657,4.642857142857143,0,251520.32972502746,363686.3855362219,119699.6676685747,105254.99160805969,3335.3566171531256,1.6768021981668497e-06,0.0,0.0,0.0,1.6768021981668497e-06,0.0,24.013007523632115,3.8972837711804846,0.0001113543250471051,0.0
4724,4.827586206896552,3.4482758620689657,5.0,0,116624.21238784949,281547.72262486944,212609.76679625307,146894.53637553955,-8580.38591052742,7.774947492523299e-07,0.0,0.0,0.0,7.774947492523299e-07,0.0,24.15917523987243,4.200162905748631,-0.0002861503612088334,0.0
4725,5.172413793103448,3.4482758620689657,0.0,0,214690.16578835165,298487.4051168128,270800.84793686593,71297.08951935927,-6056.22823111704,1.4312677719223444e-06,0.0,0.0,0.0,1.4312677719223444e-06,0.0,24.245612996725725,-0.0498370942513687,-0.00020197132319783404,0.0
4726,5.172413793103448,3.4482758620689657,0.35714285714285715,0,315229.8243226072,396570.8233223434,122081.26926212116,52295.962303631626,75814.09295491954,2.101532162150715e-06,0.0,0.0,0.0,2.101532162150715e-06,0.0,25.079767627369087,0.25442662832334123,0.0025311317856197835,0.0
4727,5.172413793103448,3.4482758620689657,0.7142857142857143,0,121098.99079500967,304795.28977083083,229320.8441559365,165113.61338245997,-32799.62347586959,8.073266053000644e-07,0.0,0.0,0.0,8.073266053000644e-07,0.0,24.899174927674608,0.5606214957594755,-0.0010990052710965696,0.0
4728,5.172413793103448,3.4482758620689657,1.0714285714285714,0,190972.7164850389,312335.0676954932,257003.49196784827,99806.11154956822,17041.46017676757,1.2731514432335927e-06,0.0,0.0,0.0,1.2731514432335927e-06,0.0,24.25300332473337,0.8716780995510784,0.000577761520361381,0.0
4729,5.172413793103448,3.4482758620689657,1.4285714285714286,0,325217.5128823512,484418.3021830402,198293.15600948082,130723.9859264531,8388.230514823088,2.168116752549008e-06,0.0,0.0,0.0,2.168116752549008e-06,0.0,24.50610632407896,1.1910604124079263,0.00029533039283081693,0.0
4730,5.172413793103448,3.4482758620689657,1.7857142857142858,0,664259.3708548001,746489.0178164081,556935.5070113371,8056.600064415108,116696.58038170767,4.428395805698667e-06,0.0,0.0,0.0,4.428395805698667e-06,0.0,24.967315541759667,1.5185209829862827,0.0046092229974014735,0.0
4731,5.172413793103448,3.4482758620689657,2.142857142857143,0,437425.45751349814,946283.2411625886,522082.7817277984,496735.1044374081,250273.5099686809,2.916169716756654e-06,0.0,0.0,0.0,2.916169716756654e-06,0.0,23.389903370283946,1.8457103369690635,0.013415935382716408,0.0
4732,5.172413793103448,3.4482758620689657,2.5,0,311187.04009434674,857097.6669369609,670402.3126799504,497862.7816791107,546929.0469707272,2.074580267295645e-06,0.0,0.0,0.0,2.074580267295645e-06,0.0,24.738190110084748,2.1593872670032117,0.05469290469707271,0.0
4733,5.172413793103448,3.4482758620689657,2.857142857142857,0,262262.655272063,752607.5104535817,559709.1830456861,453984.2217662914,325706.70041621046,1.7484177018137532e-06,0.0,0.0,0.0,1.7484177018137532e-06,0.0,24.97077725327943,2.4528531941119205,0.01745953875441499,0.0
4734,5.172413793103448,3.4482758620689657,3.2142857142857144,0,347924.0831886174,574787.4180195279,195660.17407944668,270123.5469644458,-21524.00213934789,2.3194938879241163e-06,0.0,0.0,0.0,2.3194938879241163e-06,0.0,24.13731885012771,2.732806697271997,-0.0008501442401507757,0.0
4735,5.172413793103448,3.4482758620689657,3.5714285714285716,0,354362.4137182348,420289.90550116904,356137.54739908903,38233.61777440689,-66344.06017816838,2.3624160914548987e-06,0.0,0.0,0.0,2.3624160914548987e-06,0.0,24.926333395134023,3.012488983836498,-0.002335822474094593,0.0
4736,5.172413793103448,3.4482758620689657,3.928571428571429,0,112027.57575579571,272703.889386715,172947.84092017869,151504.57923208192,-489.029685215455,7.468505050386381e-07,0.0,0.0,0.0,7.468505050386381e-07,0.0,24.613505871820426,3.300249528122508,-1.6579713915425856e-05,0.0
4737,5.172413793103448,3.4482758620689657,4.285714285714286,0,248273.64955967644,377569.0301258524,215303.27019364986,91760.376236945,44128.93916345149,1.6551576637311763e-06,0.0,0.0,0.0,1.6551576637311763e-06,0.0,25.5160889074919,3.5963357814737615,0.0014786126061542312,0.0
4738,5.172413793103448,3.4482758620689657,4.642857142857143,0,240428.30507190462,334441.5754738573,269476.86736715643,68206.23233757087,-11581.04683237769,1.6028553671460307e-06,0.0,0.0,0.0,1.6028553671460307e-06,0.0,24.35394379963593,3.8972837711804846,-0.00038664520810942923,0.0
4739,5.172413793103448,3.4482758620689657,5.0,0,143163.25748503197,215944.04078553052,326182.2139208462,164379.5898154469,-7070.9668883646655,9.544217165668797e-07,0.0,0.0,0.0,9.544217165668797e-07,0.0,24.915656622994405,4.200162905748631,-0.00023581220591940456,0.0
4740,5.517241379310345,3.4482758620689657,0.0,0,101499.75299487809,277650.53895418235,165050.59497012122,249513.29621751668,39239.5353694249,6.76665019965854e-07,0.0,0.0,0.0,6.76665019965854e-07,0.0,23.797681860632235,-0.049838530269078814,0.0013086133114189426,0.0
4741,5.517241379310345,3.4482758620689657,0.35714285714285715,0,87342.32917442791,306682.7924200303,208293.53704633654,238295.76295873948,-5075.643855354886,5.822821944961861e-07,0.0,0.0,0.0,5.822821944961861e-07,0.0,24.575003197618706,0.2544190897189657,-0.00016945561166858028,0.0
4742,5.517241379310345,3.4482758620689657,0.7142857142857143,0,156228.00268786025,337174.65193368535,334114.1169068411,179438.86701498664,26587.53012259521,1.0415200179190684e-06,0.0,0.0,0.0,1.0415200179190684e-06,0.0,24.949786324924567,0.560590831484565,0.0008908588774400948,0.0
4743,5.517241379310345,3.4482758620689657,1.0714285714285714,0,302161.11673316197,485712.99756996724,279452.6694244078,138874.30217258222,94222.55994708424,2.0144074448877465e-06,0.0,0.0,0.0,2.0144074448877465e-06,0.0,24.284170591178242,0.8715814532941336,0.0031944545198998677,0.0
4744,5.517241379310345,3.4482758620689657,1.4285714285714286,0,250950.43727845766,429171.8005160397,341750.77862132766,146203.48788102224,-18490.50860168264,1.6730029151897178e-06,0.0,0.0,0.0,1.6730029151897178e-06,0.0,25.11140505733212,1.1908243928628246,-0.0006510084766181112,0.0
4745,5.517241379310345,3.4482758620689657,1.7857142857142858,0,312106.4485582698,488150.34072773025,287412.91555395175,128573.60389659202,51424.46888272543,2.080709657055132e-06,0.0,0.0,0.0,2.080709657055132e-06,0.0,25.016440021834793,1.5180743801358676,0.002031137877632006,0.0
4746,5.517241379310345,3.4482758620689657,2.142857142857143,0,529226.3006880071,907808.2427956495,542669.9222694337,300873.69456789637,362368.9401333209,3.5281753379200478e-06,0.0,0.0,0.0,3.5281753379200478e-06,0.0,24.63298875727322,1.8450555415935117,0.01942482161272454,0.0
4747,5.517241379310345,3.4482758620689657,2.5,0,321429.7782604098,950967.1475982865,681763.9537969776,595086.6933978046,742867.4698661354,2.1428651884027318e-06,0.0,0.0,0.0,2.1428651884027318e-06,0.0,24.43017906560167,2.158643391412922,0.07428674698661354,0.0
4748,5.517241379310345,3.4482758620689657,2.857142857142857,0,404946.3707402658,925914.8179477723,459432.0126293548,664800.3560304318,317910.4109382263,2.699642471601772e-06,0.0,0.0,0.0,2.699642471601772e-06,0.0,23.028558652486833,2.452198398736369,0.01704161791303359,0.0
4749,5.517241379310345,3.4482758620689657,3.2142857142857144,0,482821.8226805124,654966.7259808452,214242.74784013012,138904.39234626654,104610.10134407492,3.218812151203416e-06,0.0,0.0,0.0,3.218812151203416e-06,0.0,24.250970064331614,2.732360094421582,0.004131837310900241,0.0
4750,5.517241379310345,3.4482758620689657,3.5714285714285716,0,440326.68133181345,508732.25424396567,244934.6615825479,408.5532214724278,19400.788082960134,2.9355112088787565e-06,0.0,0.0,0.0,2.9355112088787565e-06,0.0,25.130420870021492,3.012252964291396,0.000683057333205499,0.0
4751,5.517241379310345,3.4482758620689657,3.928571428571429,0,243056.69944645386,350801.4108551801,342240.594766957,103577.40139968848,-2320.630885252431,1.6203779963096924e-06,0.0,0.0,0.0,1.6203779963096924e-06,0.0,24.448051519430486,3.300152881865563,-7.867701561682376e-05,0.0
4752,5.517241379310345,3.4482758620689657,4.285714285714286,0,236386.44197396244,454317.95221851836,243561.68314929272,198723.652657885,-14380.38714991889,1.5759096131597496e-06,0.0,0.0,0.0,1.5759096131597496e-06,0.0,24.81542810153608,3.5963051171988507,-0.0004818384970119306,0.0
4753,5.517241379310345,3.4482758620689657,4.642857142857143,0,108734.8652127768,403011.7314987937,332496.4261502627,277787.61453619844,-20778.557796168785,7.24899101418512e-07,0.0,0.0,0.0,7.24899101418512e-07,0.0,24.362222754664476,3.897276232576109,-0.0006937136097967102,0.0
4754,5.517241379310345,3.4482758620689657,5.0,0,58627.33705602802,292756.12900174304,250912.23119865495,225747.5137772303,104535.68519828825,3.9084891370685345e-07,0.0,0.0,0.0,3.9084891370685345e-07,0.0,23.885521996605384,4.200161469730921,0.0034861979858041596,0.0
4755,5.862068965517242,3.4482758620689657,0.0,0,298653.90649632085,509465.4731382468,193282.22856624876,232146.0321417798,-54447.05808454595,1.9910260433088056e-06,0.0,0.0,0.0,1.9910260433088056e-06,0.0,24.866761978382513,-0.04984122224463713,-0.0018157744302078225,0.0
4756,5.862068965517242,3.4482758620689657,0.35714285714285715,0,277812.2666585411,376492.5578700601,337664.6997362959,81308.88140416655,-51109.195869494135,1.8520817777236074e-06,0.0,0.0,0.0,1.8520817777236074e-06,0.0,23.88339878799547,0.25440495776322464,-0.0017063332839669563,0.0
4757,5.862068965517242,3.4482758620689657,0.7142857142857143,0,197651.89005894953,295297.9590820795,263211.30939732067,83565.83837268899,8681.242044967212,1.3176792670596635e-06,0.0,0.0,0.0,1.3176792670596635e-06,0.0,24.37116896936368,0.5605333478769525,0.0002908792771387503,0.0
4758,5.862068965517242,3.4482758620689657,1.0714285714285714,0,382551.91692530573,485977.7916702635,325925.5856606554,49393.92664530726,7658.104169392275,2.5503461128353714e-06,0.0,0.0,0.0,2.5503461128353714e-06,0.0,24.689210284190104,0.871400279092962,0.00025963490581786306,0.0
4759,5.862068965517242,3.4482758620689657,1.4285714285714286,0,448285.87813879503,600823.6268117853,206421.55957242072,113285.74476142689,23431.527488218948,2.9885725209253004e-06,0.0,0.0,0.0,2.9885725209253004e-06,0.0,24.172641268272034,1.1903819478691287,0.0008249704398911281,0.0
4760,5.862068965517242,3.4482758620689657,1.7857142857142858,0,228099.38319988913,603992.3232338866,551920.2535766428,354359.09860320523,10872.53098120405,1.5206625546659276e-06,0.0,0.0,0.0,1.5206625546659276e-06,0.0,25.301682162237704,1.5172371732204346,0.00042943777507966404,0.0
4761,5.862068965517242,3.4482758620689657,2.142857142857143,0,164004.41057967732,810083.5912015599,823152.6563688328,653004.718645741,247288.48056601087,1.093362737197849e-06,0.0,0.0,0.0,1.093362737197849e-06,0.0,25.50738903318052,1.8438280545407626,0.01325592259675779,0.0
4762,5.862068965517242,3.4482758620689657,2.5,0,457708.7457744108,1023386.6220597574,803375.7721603046,497215.70670594356,581317.6379939992,3.0513916384960717e-06,0.0,0.0,0.0,3.0513916384960717e-06,0.0,24.121191631139073,2.157248913550023,0.058131763799399924,0.0
4763,5.862068965517242,3.4482758620689657,2.857142857142857,0,646954.4660351229,1029593.0407245732,485197.62795299286,314365.64341758034,421515.57786175044,4.313029773567486e-06,0.0,0.0,0.0,4.313029773567486e-06,0.0,24.145554567396356,2.4509709116836196,0.02259538277186937,0.0
4764,5.862068965517242,3.4482758620689657,3.2142857142857144,0,563140.2244418532,763397.7274546596,420011.02537063806,113487.80203623175,2166.496661503159,3.7542681629456883e-06,0.0,0.0,0.0,3.7542681629456883e-06,0.0,24.31618932722453,2.731522887506149,8.557119843041408e-05,0.0
4765,5.862068965517242,3.4482758620689657,3.5714285714285716,0,272696.90653710085,472871.65511357534,349002.3285174493,160226.21166960194,11749.647762725903,1.8179793769140057e-06,0.0,0.0,0.0,1.8179793769140057e-06,0.0,25.116698940058342,3.0118105192977005,0.0004136781986686682,0.0
4766,5.862068965517242,3.4482758620689657,3.928571428571429,0,183465.93361530258,372667.4555152203,272800.5126703209,160932.58084655393,-18475.524678291244,1.2231062241020172e-06,0.0,0.0,0.0,1.2231062241020172e-06,0.0,24.787876451534416,3.2999717076643913,-0.0006263810211613273,0.0
4767,5.862068965517242,3.4482758620689657,4.285714285714286,0,368359.51087059244,460721.96292357944,290774.92562382616,38069.258309274,-54039.41503646489,2.455730072470616e-06,0.0,0.0,0.0,2.455730072470616e-06,0.0,24.925140596570163,3.596247633591238,-0.0018106793822112801,0.0
4768,5.862068965517242,3.4482758620689657,4.642857142857143,0,119093.51921819671,331271.6356324523,318909.09579106903,206479.0592259216,-45282.56648778333,7.939567947879781e-07,0.0,0.0,0.0,7.939567947879781e-07,0.0,25.212042285077125,3.897262100620368,-0.0015118052449670863,0.0
4769,5.862068965517242,3.4482758620689657,5.0,0,280791.68109071796,426159.0407109397,201497.51149949152,111369.96894289716,32163.66503239085,1.8719445406047864e-06,0.0,0.0,0.0,1.8719445406047864e-06,0.0,24.106334595370672,4.200158777755363,0.0010726375786345996,0.0
4770,6.206896551724139,3.4482758620689657,0.0,0,157487.06550430792,344238.4623422482,171312.3770552558,209045.52567418985,-22057.01369544463,1.0499137700287194e-06,0.0,0.0,0.0,1.0499137700287194e-06,0.0,24.68970721813015,-0.049844903834056674,-0.0007355872453703778,0.0
4771,6.206896551724139,3.4482758620689657,0.35714285714285715,0,218561.2434597584,396851.01762234536,253005.97341915255,145344.33812842242,45443.304147083494,1.4570749563983894e-06,0.0,0.0,0.0,1.4570749563983894e-06,0.0,24.468730295412904,0.2543856306714265,0.0015171716377147075,0.0
4772,6.206896551724139,3.4482758620689657,0.7142857142857143,0,167252.49393177897,358197.4401889685,232393.82480411945,168396.12700706034,-1360.0900883697893,1.1150166262118598e-06,0.0,0.0,0.0,1.1150166262118598e-06,0.0,24.662854701333924,0.5604547323631786,-4.5572052904335016e-05,0.0
4773,6.206896551724139,3.4482758620689657,1.0714285714285714,0,254177.25276513427,373394.3441941691,323677.7842973207,98032.02520196368,-51408.807370520146,1.6945150184342284e-06,0.0,0.0,0.0,1.6945150184342284e-06,0.0,25.027113459981162,0.871152502317995,-0.001742927565963481,0.0
4774,6.206896551724139,3.4482758620689657,1.4285714285714286,0,234061.67366869075,405704.0903168719,212874.3681691835,145284.98913649065,26456.730821544756,1.5604111577912718e-06,0.0,0.0,0.0,1.5604111577912718e-06,0.0,24.381423721524587,1.1897768529222248,0.0009314809235080714,0.0
4775,6.206896551724139,3.4482758620689657,1.7857142857142858,0,403170.5327802936,797687.5542807141,568311.318732838,332162.7431197249,15842.600858302321,2.687803551868624e-06,0.0,0.0,0.0,2.687803551868624e-06,0.0,24.11363747671382,1.516092195468941,0.000625743102119089,0.0
4776,6.206896551724139,3.4482758620689657,2.142857142857143,0,510256.72267025174,794825.2119415246,904079.3077658358,348044.6612481192,316170.3777450157,3.401711484468345e-06,0.0,0.0,0.0,3.401711484468345e-06,0.0,23.941195695641525,1.8421493233457185,0.016948343267679328,0.0
4777,6.206896551724139,3.4482758620689657,2.5,0,669912.6514161564,933606.4386876688,767156.2032838389,196161.40392580073,756429.4671656536,4.466084342774377e-06,0.0,0.0,0.0,4.466084342774377e-06,0.0,25.348573705872948,2.1553418030155322,0.07564294671656537,0.0
4778,6.206896551724139,3.4482758620689657,2.857142857142857,0,831665.0039899038,1326423.0408835448,663256.1026499005,393321.5854297494,231153.92940510157,5.544433359932692e-06,0.0,0.0,0.0,5.544433359932692e-06,0.0,24.455204231673637,2.4492921804885754,0.012391028442234692,0.0
4779,6.206896551724139,3.4482758620689657,3.2142857142857144,0,431471.3347817365,751546.7779523823,343529.43943359645,299931.7651971731,37952.4381623885,2.8764755652115766e-06,0.0,0.0,0.0,2.8764755652115766e-06,0.0,23.797026228333,2.7303779097546554,0.0014990263657542362,0.0
4780,6.206896551724139,3.4482758620689657,3.5714285714285716,0,57702.54739925252,229495.73269781127,259551.13363307965,296021.8664651895,-42032.11371213127,3.8468364932835013e-07,0.0,0.0,0.0,3.8468364932835013e-07,0.0,25.177181545277698,3.0112054243507966,-0.0014798544975817346,0.0
4781,6.206896551724139,3.4482758620689657,3.928571428571429,0,99213.26887328838,334922.69364062825,233490.10592868514,238088.66639426077,-44706.43948138244,6.614217924885892e-07,0.0,0.0,0.0,6.614217924885892e-07,0.0,23.635454895235352,3.2997239308894244,-0.0015156952618368275,0.0
4782,6.206896551724139,3.4482758620689657,4.285714285714286,0,191816.87597178694,233695.2582984293,362339.33264943265,141870.76010296593,-17338.384329978908,1.2787791731452463e-06,0.0,0.0,0.0,1.2787791731452463e-06,0.0,23.720197408951524,3.596169018077464,-0.0005809510522266689,0.0
4783,6.206896551724139,3.4482758620689657,4.642857142857143,0,171607.4248568947,295887.63137439237,250497.29631232328,106147.86986250014,-31331.75021863349,1.1440494990459647e-06,0.0,0.0,0.0,1.1440494990459647e-06,0.0,24.34189590648788,3.8972427735285695,-0.001046042836978066,0.0
4784,6.206896551724139,3.4482758620689657,5.0,0,26995.11081807878,135993.92809055783,159104.80139491006,129434.40795523404,-10005.367924002467,1.7996740545385854e-07,0.0,0.0,0.0,1.7996740545385854e-07,0.0,24.231205334515877,4.200155096165943,-0.000333672596470034,0.0
4785,6.551724137931035,3.4482758620689657,0.0,0,225269.9700094029,366272.2638911862,282845.81301528466,111189.45332282053,24058.081002493815,1.501799800062686e-06,0.0,0.0,0.0,1.501799800062686e-06,0.0,24.528974988863872,-0.049849317810151256,0.000802321555305409,0.0
4786,6.551724137931035,3.4482758620689657,0.35714285714285715,0,123322.26243185674,290638.7823505765,325912.0611919345,188796.43926325705,-28282.207518561663,8.221484162123783e-07,0.0,0.0,0.0,8.221484162123783e-07,0.0,23.414560969229633,0.2543624587987778,-0.0009442307047093817,0.0
4787,6.551724137931035,3.4482758620689657,0.7142857142857143,0,139083.27148124864,382394.33824972436,262586.54118743254,229869.0316735847,-55472.51829524097,9.272218098749909e-07,0.0,0.0,0.0,9.272218098749909e-07,0.0,24.545515261614682,0.5603604776924599,-0.001858697861343496,0.0
4788,6.551724137931035,3.4482758620689657,1.0714285714285714,0,129712.43663068295,262768.55643833487,386903.69117045024,252253.98095610918,25222.21141594567,8.647495775378863e-07,0.0,0.0,0.0,8.647495775378863e-07,0.0,25.02641754338632,0.8708554347645933,0.0008551158799419882,0.0
4789,6.551724137931035,3.4482758620689657,1.4285714285714286,0,286836.21110425395,459910.4906403122,387036.243536813,143666.25480857113,-28586.736476636368,1.912241407361693e-06,0.0,0.0,0.0,1.912241407361693e-06,0.0,23.900991551555354,1.1890513851075906,-0.0010064735462952546,0.0
4790,6.551724137931035,3.4482758620689657,1.7857142857142858,0,355837.0654497329,594288.5789926638,317665.91250198253,192861.4111125249,186717.01451726083,2.3722471029982193e-06,0.0,0.0,0.0,2.3722471029982193e-06,0.0,24.207500323842886,1.5147194447767873,0.007374854982931503,0.0
4791,6.551724137931035,3.4482758620689657,2.142857142857143,0,845064.3200682333,1248602.5583765707,566228.1092616724,303339.56171040685,322869.7986164799,5.633762133788222e-06,0.0,0.0,0.0,5.633762133788222e-06,0.0,24.000641777198958,1.8401366384643476,0.017307466362746132,0.0
4792,6.551724137931035,3.4482758620689657,2.5,0,1246137.531859488,1448661.108626898,841949.5611064034,15356.41040686726,636510.5554460094,8.30758354572992e-06,0.0,0.0,0.0,8.30758354572992e-06,0.0,24.566344209081894,2.1530553067907623,0.06365105554460093,0.0
4793,6.551724137931035,3.4482758620689657,2.857142857142857,0,875508.3554396937,1110988.8612985,352155.8555156437,153087.93126522264,140907.4000665726,5.8367223695979575e-06,0.0,0.0,0.0,5.8367223695979575e-06,0.0,23.873155747876908,2.4472794956072046,0.007553354625810265,0.0
4794,6.551724137931035,3.4482758620689657,3.2142857142857144,0,311259.3365644732,605733.7714732422,497243.4817582104,254748.39109530117,-7022.883984,2.075062243763155e-06,0.0,0.0,0.0,2.075062243763155e-06,0.0,23.81522445208264,2.7290051590625017,-0.0002773863489508842,0.0
4795,6.551724137931035,3.4482758620689657,3.5714285714285716,0,448580.9786522255,632049.0729912018,157294.97223527674,215280.54491665776,-97423.48556326012,2.9905398576815033e-06,0.0,0.0,0.0,2.9905398576815033e-06,0.0,24.34480430601129,3.010479956536162,-0.0034300578902190385,0.0
4796,6.551724137931035,3.4482758620689657,3.928571428571429,0,137113.52096332877,268381.18155201833,352195.1958694626,193963.10163165152,11698.344686714348,9.140901397555252e-07,0.0,0.0,0.0,9.140901397555252e-07,0.0,24.5936081816907,3.2994268633360226,0.0003966123408322624,0.0
4797,6.551724137931035,3.4482758620689657,4.285714285714286,0,216865.02114922967,271795.36930156837,333072.7392410443,92162.20558957891,-3085.554260895964,1.445766807661531e-06,0.0,0.0,0.0,1.445766807661531e-06,0.0,24.50507146707261,3.5960747634067456,-0.00010338656477181531,0.0
4798,6.551724137931035,3.4482758620689657,4.642857142857143,0,230166.82688181923,370352.96686711896,301691.86771144427,113669.0761992582,23734.559167041112,1.5344455125454615e-06,0.0,0.0,0.0,1.5344455125454615e-06,0.0,24.214763945803224,3.897219601655921,0.0007924027681910413,0.0
4799,6.551724137931035,3.4482758620689657,5.0,0,381564.6767462743,546359.7092698684,212707.21943101316,130337.52827053962,30406.256206713137,2.5437645116418284e-06,0.0,0.0,0.0,2.5437645116418284e-06,0.0,24.773461600956395,4.200150682189849,0.001014029122616057,0.0
4800,6.8965517241379315,3.4482758620689657,0.0,0,216044.03903050366,371321.5811186825,284060.3972242378,125294.98837199104,37207.22183938286,1.440293593536691e-06,0.0,0.0,0.0,1.440293593536691e-06,0.0,24.41505106324225,-0.049854259600803745,0.0012408369600082655,0.0
4801,6.8965517241379315,3.4482758620689657,0.35714285714285715,0,154533.50721575602,372873.1572507023,231199.51543649324,208084.01192463245,-8710.321031525596,1.0302233814383735e-06,0.0,0.0,0.0,1.0302233814383735e-06,0.0,23.720005668693883,0.254336516079288,-0.0002908030626832992,0.0
4802,6.8965517241379315,3.4482758620689657,0.7142857142857143,0,194613.92104011233,276317.09000233223,191754.00439535794,53726.39136620935,3321.949836419923,1.2974261402674155e-06,0.0,0.0,0.0,1.2974261402674155e-06,0.0,22.97140839273873,0.5602549522340678,0.00011130738690429712,0.0
4803,6.8965517241379315,3.4482758620689657,1.0714285714285714,0,353554.89929356135,475725.877757886,252927.94574440125,68063.7214416381,23416.57714338651,2.3570326619570755e-06,0.0,0.0,0.0,2.3570326619570755e-06,0.0,24.574886033781404,0.8705228444589131,0.0007938989424431339,0.0
4804,6.8965517241379315,3.4482758620689657,1.4285714285714286,0,344079.666967099,553517.3915031622,390348.4273469599,158208.93190288675,-31102.61848515562,2.2938644464473267e-06,0.0,0.0,0.0,2.2938644464473267e-06,0.0,24.19051977842433,1.1882391672821586,-0.001095051992080569,0.0
4805,6.8965517241379315,3.4482758620689657,1.7857142857142858,0,596214.4179485827,771047.4364865845,472000.92479485227,84495.29868601172,7682.049135134846,3.974762786323884e-06,0.0,0.0,0.0,3.974762786323884e-06,0.0,23.7685686161567,1.513182543263654,0.0003034217234559336,0.0
4806,6.8965517241379315,3.4482758620689657,2.142857142857143,0,905523.2874442065,862503.9043484606,976943.999971814,19640.610191710774,524087.60157451464,6.0368219162947105e-06,0.0,0.0,0.0,6.0368219162947105e-06,0.0,25.140959110756313,1.837883280693472,0.028093765890310887,0.0
4807,6.8965517241379315,3.4482758620689657,2.5,0,876063.7778385178,996848.5798261279,990460.4794532916,117608.21980733801,460176.35721145256,5.840425185590119e-06,0.0,0.0,0.0,5.840425185590119e-06,0.0,25.14044780308403,2.150495395855945,0.046017635721145256,0.0
4808,6.8965517241379315,3.4482758620689657,2.857142857142857,0,436188.6152711709,731493.4689349725,820651.6036370946,346772.37514640595,421467.62647266174,2.9079241018078062e-06,0.0,0.0,0.0,2.9079241018078062e-06,0.0,24.97452727638293,2.445026137836329,0.0225928123330818,0.0
4809,6.8965517241379315,3.4482758620689657,3.2142857142857144,0,385557.6817219788,677121.4267452417,251872.23961181357,350360.6313554617,92872.03868056372,2.570384544813192e-06,0.0,0.0,0.0,2.570384544813192e-06,0.0,24.455575807839885,2.7274682575493685,0.0036682131995798705,0.0
4810,6.8965517241379315,3.4482758620689657,3.5714285714285716,0,102330.76452248353,364437.8426180304,298911.13389941206,246520.08026280484,-46378.63971774898,6.822050968165569e-07,0.0,0.0,0.0,6.822050968165569e-07,0.0,22.765037899935667,3.0096677387107302,-0.001632885727519925,0.0
4811,6.8965517241379315,3.4482758620689657,3.928571428571429,0,102873.89117943679,305839.7954876549,194871.30755935874,287064.3175280907,-26460.22664113278,6.858259411962453e-07,0.0,0.0,0.0,6.858259411962453e-07,0.0,24.939585361567136,3.2990942730303425,-0.0008970886658016045,0.0
4812,6.8965517241379315,3.4482758620689657,4.285714285714286,0,166439.772433491,355390.8390773634,257594.12594418597,163212.86071139763,-13850.507606953552,1.10959848288994e-06,0.0,0.0,0.0,1.10959848288994e-06,0.0,23.896409844391435,3.5959692379483537,-0.0004640840123851918,0.0
4813,6.8965517241379315,3.4482758620689657,4.642857142857143,0,158680.0421915186,349192.07303478144,217273.25679769352,173108.07532855187,8386.534912879235,1.0578669479434572e-06,0.0,0.0,0.0,1.0578669479434572e-06,0.0,24.081842375627645,3.8971936589364313,0.0002799931287421837,0.0
4814,6.8965517241379315,3.4482758620689657,5.0,0,181811.09596562784,345344.29079117056,241662.06057528922,135412.1545298498,13609.041062427328,1.2120739731041856e-06,0.0,0.0,0.0,1.2120739731041856e-06,0.0,24.81576619032879,4.200145740399196,0.00045385278195256073,0.0
4815,7.241379310344828,3.4482758620689657,0.0,0,262336.34980396036,433270.0278303246,361517.4486789015,142523.11231410786,-1225.7365816742874,1.748908998693069e-06,0.0,0.0,0.0,1.748908998693069e-06,0.0,25.237020856766016,-0.049859580724213204,-4.087752803316726e-05,0.0
4816,7.241379310344828,3.4482758620689657,0.35714285714285715,0,83643.55872961189,402644.6720477836,315140.40944739466,323487.76794750383,7467.523029516177,5.576237248640792e-07,0.0,0.0,0.0,5.576237248640792e-07,0.0,24.996388664494376,0.25430858199189144,0.0002493109679633731,0.0
4817,7.241379310344828,3.4482758620689657,0.7142857142857143,0,187275.1593104348,374726.86757065274,358444.9915343837,179842.36024073866,26228.166158825003,1.2485010620695654e-06,0.0,0.0,0.0,1.2485010620695654e-06,0.0,24.31691340131817,0.5601413266221331,0.0008788177974345219,0.0
4818,7.241379310344828,3.4482758620689657,1.0714285714285714,0,252673.64886175861,424670.7779702451,155620.75434933882,192406.1302831036,25386.459554566278,1.6844909924117242e-06,0.0,0.0,0.0,1.6844909924117242e-06,0.0,24.60479539223739,0.8701647244603615,0.0008606844317739106,0.0
4819,7.241379310344828,3.4482758620689657,1.4285714285714286,0,281292.0369764003,381675.7429612103,338780.540543349,81399.85898046223,79030.60833427288,1.8752802465093353e-06,0.0,0.0,0.0,1.8752802465093353e-06,0.0,23.687190954713465,1.1873646034674605,0.002782486790721142,0.0
4820,7.241379310344828,3.4482758620689657,1.7857142857142858,0,332684.75847043504,696344.9440939645,609245.3830018186,328774.4877234955,142978.40207383412,2.2178983898029004e-06,0.0,0.0,0.0,2.2178983898029004e-06,0.0,23.43349180235693,1.5115276689084567,0.005647289207745566,0.0
4821,7.241379310344828,3.4482758620689657,2.142857142857143,0,489722.3685490962,1040862.3376890807,1011700.0635113707,537210.4801712423,382891.64310973056,3.2648157903273083e-06,0.0,0.0,0.0,3.2648157903273083e-06,0.0,24.789509588796225,1.8354569547667678,0.020524943064030545,0.0
4822,7.241379310344828,3.4482758620689657,2.5,0,331123.8607252417,831498.6085307472,464121.686128026,739563.3968959168,762159.6579292805,2.207492404834945e-06,0.0,0.0,0.0,2.207492404834945e-06,0.0,24.41555249317418,2.147738985688204,0.07621596579292805,0.0
4823,7.241379310344828,3.4482758620689657,2.857142857142857,0,634280.1335525509,1211643.0700896652,636269.6611261208,531502.0778077795,423918.2250626609,4.228534223683673e-06,0.0,0.0,0.0,4.228534223683673e-06,0.0,23.53483459585199,2.442599811909625,0.02272417690433234,0.0
4824,7.241379310344828,3.4482758620689657,3.2142857142857144,0,338183.5534210904,561760.2931306207,618455.1426894008,255507.37970090794,83050.36976378917,2.2545570228072696e-06,0.0,0.0,0.0,2.2545570228072696e-06,0.0,24.239728638147934,2.7258133831941715,0.0032802818472130396,0.0
4825,7.241379310344828,3.4482758620689657,3.5714285714285716,0,269192.4465846009,484685.26404884225,314952.13898474345,174302.46487254486,-35368.37837174605,1.794616310564006e-06,0.0,0.0,0.0,1.794616310564006e-06,0.0,24.576936608776393,3.008793174896032,-0.001245239631869729,0.0
4826,7.241379310344828,3.4482758620689657,3.928571428571429,0,323436.59045456594,505081.8058512667,212177.73448359998,157964.29785827338,6909.7890268622705,2.156243936363773e-06,0.0,0.0,0.0,2.156243936363773e-06,0.0,24.726589844309977,3.2987361530317907,0.0002342645625507413,0.0
4827,7.241379310344828,3.4482758620689657,4.285714285714286,0,310118.9875677613,471261.42207446863,155081.04774565683,167581.86504734703,-82117.72892944723,2.0674599171184083e-06,0.0,0.0,0.0,2.0674599171184083e-06,0.0,24.59201759241377,3.5958556123364187,-0.002751489419088495,0.0
4828,7.241379310344828,3.4482758620689657,4.642857142857143,0,175482.19993234833,399099.9091131471,202255.77192572522,259045.02012132673,42504.6743277191,1.1698813328823223e-06,0.0,0.0,0.0,1.1698813328823223e-06,0.0,24.10107661890981,3.897165724849035,0.0014190624465068651,0.0
4829,7.241379310344828,3.4482758620689657,5.0,0,194379.46621166792,367568.01436272915,143547.53086099512,243537.2021815564,13884.268331698118,1.2958631080777862e-06,0.0,0.0,0.0,1.2958631080777862e-06,0.0,23.863235983136573,4.200140419275787,0.0004630314346772278,0.0
4830,7.586206896551724,3.4482758620689657,0.0,0,232794.33674186404,481135.01795797213,287868.26527122024,222701.84263906343,-6438.784206697164,1.5519622449457603e-06,0.0,0.0,0.0,1.5519622449457603e-06,0.0,24.19684323831076,-0.04986517726846455,-0.0002147293193691416,0.0
4831,7.586206896551724,3.4482758620689657,0.35714285714285715,0,121054.0248299446,459155.85790683265,355718.07522159733,326014.94397572626,-17020.70908090338,8.070268321996306e-07,0.0,0.0,0.0,8.070268321996306e-07,0.0,24.54408827692183,0.25427920203878646,-0.000568253949751519,0.0
4832,7.586206896551724,3.4482758620689657,0.7142857142857143,0,355458.8751964476,355662.50057392765,181744.3305381699,-53267.64611639971,26569.04018068406,2.369725834642984e-06,0.0,0.0,0.0,2.369725834642984e-06,0.0,24.600376832704832,0.5600218197593247,0.0008902393415592158,0.0
4833,7.586206896551724,3.4482758620689657,1.0714285714285714,0,206728.92446251164,351661.65867548157,314248.76393584,128781.13192772596,77101.14813086092,1.3781928297500777e-06,0.0,0.0,0.0,1.3781928297500777e-06,0.0,24.942650065201246,0.8697880682047247,0.0026139823761360207,0.0
4834,7.586206896551724,3.4482758620689657,1.4285714285714286,0,199694.5644923865,284519.43580109946,422289.6349896035,193271.93955842056,24333.82011065917,1.33129709661591e-06,0.0,0.0,0.0,1.33129709661591e-06,0.0,24.174724588566466,1.186444772312842,0.0008567380974635714,0.0
4835,7.586206896551724,3.4482758620689657,1.7857142857142858,0,462683.83172836126,717513.4151796596,486871.9808806487,184844.2528057712,205731.49873977154,3.084558878189075e-06,0.0,0.0,0.0,3.084558878189075e-06,0.0,23.606816369433073,1.509787138413932,0.008125879543166703,0.0
4836,7.586206896551724,3.4482758620689657,2.142857142857143,0,723958.3300399194,1014238.5539852428,389686.5775167551,220748.6994179849,469854.65771847276,4.826388866932796e-06,0.0,0.0,0.0,4.826388866932796e-06,0.0,24.709941308482524,1.8329050424407223,0.025186603760055097,0.0
4837,7.586206896551724,3.4482758620689657,2.5,0,1241139.0251621325,1489184.681650127,943139.866981782,68642.17642626271,602426.008468495,8.27426016774755e-06,0.0,0.0,0.0,8.27426016774755e-06,0.0,24.212913619255126,2.1448399039921795,0.060242600846849494,0.0
4838,7.586206896551724,3.4482758620689657,2.857142857142857,0,655824.6588154027,1105354.116321067,710635.5720091476,348303.9149974561,439263.8523050643,4.372164392102684e-06,0.0,0.0,0.0,4.372164392102684e-06,0.0,23.53481212263697,2.4400478995835795,0.023546780716925616,0.0
4839,7.586206896551724,3.4482758620689657,3.2142857142857144,0,450906.2050314297,881813.4154477668,465461.3789572689,402889.0970813407,100473.19788398588,3.006041366876198e-06,0.0,0.0,0.0,3.006041366876198e-06,0.0,24.492755981724667,2.724072852699647,0.0039684399730870665,0.0
4840,7.586206896551724,3.4482758620689657,3.5714285714285716,0,140666.88199921537,418146.1817626136,286999.3639296053,269581.4731780841,-33056.67025313747,9.377792133281025e-07,0.0,0.0,0.0,9.377792133281025e-07,0.0,24.89156866020509,3.0078733437414136,-0.0011638496813226608,0.0
4841,7.586206896551724,3.4482758620689657,3.928571428571429,0,354281.9066634849,513316.89269843214,299953.3209761836,104355.99891623789,-16780.541130671078,2.361879377756566e-06,0.0,0.0,0.0,2.361879377756566e-06,0.0,24.381880080182228,3.298359496776154,-0.000568915506979883,0.0
4842,7.586206896551724,3.4482758620689657,4.285714285714286,0,167157.57523764248,362923.1526946557,325481.6685297518,180219.92250150628,-17346.71519589626,1.1143838349176165e-06,0.0,0.0,0.0,1.1143838349176165e-06,0.0,24.90713896107487,3.5957361054736108,-0.0005812301915760186,0.0
4843,7.586206896551724,3.4482758620689657,4.642857142857143,0,200539.0546511733,467481.8799539775,476629.2476204132,271673.0378799507,4054.8181681110536,1.336927031007822e-06,0.0,0.0,0.0,1.336927031007822e-06,0.0,23.957578150303434,3.8971363448959297,0.0001353742919052953,0.0
4844,7.586206896551724,3.4482758620689657,5.0,0,250575.2463969988,286475.31448345224,292226.3093055148,38825.06740734678,-11327.128107957546,1.6705016426466586e-06,0.0,0.0,0.0,1.6705016426466586e-06,0.0,23.840801012379387,4.200134822731536,-0.0003777524499887613,0.0
4845,7.931034482758621,3.4482758620689657,0.0,0,270632.67139993125,430938.88411479956,412500.4333506053,151558.48372947317,11057.879716241276,1.804217809332875e-06,0.0,0.0,0.0,1.804217809332875e-06,0.0,24.479705849122837,-0.049870977046245824,0.00036877318899188933,0.0
4846,7.931034482758621,3.4482758620689657,0.35714285714285715,0,112132.18578039785,248259.56907392154,317620.39749329863,188254.00914476017,17729.890649772977,7.475479052026523e-07,0.0,0.0,0.0,7.475479052026523e-07,0.0,23.88080248708555,0.25424875517879925,0.000591930708791674,0.0
4847,7.931034482758621,3.4482758620689657,0.7142857142857143,0,194780.20612311683,390914.6056442702,280864.70689854724,166018.84201273165,52357.815617098015,1.2985347074874456e-06,0.0,0.0,0.0,1.2985347074874456e-06,0.0,24.664515741988474,0.5598979731110191,0.0017543346309638534,0.0
4848,7.931034482758621,3.4482758620689657,1.0714285714285714,0,195476.90270300856,462947.0502707158,310473.23715096473,242574.7152940076,23637.2195501078,1.3031793513533904e-06,0.0,0.0,0.0,1.3031793513533904e-06,0.0,24.152031805883826,0.8693977340119609,0.0008013794453484704,0.0
4849,7.931034482758621,3.4482758620689657,1.4285714285714286,0,341227.62837419886,442928.6671298981,225296.09016698928,49659.67528768627,-28492.058699548492,2.2748508558279922e-06,0.0,0.0,0.0,2.2748508558279922e-06,0.0,24.6807379896201,1.185491538307449,-0.0010031401585145659,0.0
4850,7.931034482758621,3.4482758620689657,1.7857142857142858,0,408853.41089176125,559484.4629559095,539128.0069837822,140833.07474629028,224135.18863775744,2.725689405945075e-06,0.0,0.0,0.0,2.725689405945075e-06,0.0,24.391753346302988,1.5079834021015954,0.008852779255543695,0.0
4851,7.931034482758621,3.4482758620689657,2.142857142857143,0,815695.1464250458,1226978.4890461552,316484.1318325542,562904.609529197,322809.1628667639,5.437967642833638e-06,0.0,0.0,0.0,5.437967642833638e-06,0.0,23.630825981087604,1.8302604596868617,0.017304215977596803,0.0
4852,7.931034482758621,3.4482758620689657,2.5,0,983556.6631233991,1209190.8423794927,651284.6837409912,73535.21947270304,664587.8226541949,6.557044420822661e-06,0.0,0.0,0.0,6.557044420822661e-06,0.0,23.089828905587044,2.1418355447212565,0.06645878226541949,0.0
4853,7.931034482758621,3.4482758620689657,2.857142857142857,0,308937.2416246957,946645.1666215097,757630.8703577204,590131.4992604096,458492.16888388107,2.059581610831305e-06,0.0,0.0,0.0,2.059581610831305e-06,0.0,24.481292222261906,2.4374033168297187,0.02457751646187961,0.0
4854,7.931034482758621,3.4482758620689657,3.2142857142857144,0,345193.4195809838,714221.5178736565,664936.9991862722,347034.7007198485,279678.7994764525,2.301289463873225e-06,0.0,0.0,0.0,2.301289463873225e-06,0.0,24.37763314701026,2.72226911638731,0.011046612936008261,0.0
4855,7.931034482758621,3.4482758620689657,3.5714285714285716,0,419969.59780446417,755185.5179055926,487586.4162286517,271146.7578595948,26071.45860815908,2.7997973186964276e-06,0.0,0.0,0.0,2.7997973186964276e-06,0.0,23.59081038603979,3.0069201097360208,0.0009179163708977298,0.0
4856,7.931034482758621,3.4482758620689657,3.928571428571429,0,344214.3383846412,523632.4688328245,277703.6450847193,130255.83277691039,-27025.024374303375,2.294762255897608e-06,0.0,0.0,0.0,2.294762255897608e-06,0.0,24.50381670548331,3.29796916258339,-0.0009162371656149111,0.0
4857,7.931034482758621,3.4482758620689657,4.285714285714286,0,267257.3815705207,509002.7542734926,301946.927481271,207302.13476608848,-67694.97939912761,1.7817158771368046e-06,0.0,0.0,0.0,1.7817158771368046e-06,0.0,24.80456786399439,3.5956122588253048,-0.0022682315009240365,0.0
4858,7.931034482758621,3.4482758620689657,4.642857142857143,0,346913.88111670414,447524.6212100067,369210.8387625878,68148.01491890362,-70222.72830258177,2.3127592074446945e-06,0.0,0.0,0.0,2.3127592074446945e-06,0.0,23.76033859530942,3.8971058980359423,-0.0023444583025651437,0.0
4859,7.931034482758621,3.4482758620689657,5.0,0,273890.80727518065,425287.8427859341,178668.8527565707,130512.66715987545,451.02094830369845,1.825938715167871e-06,0.0,0.0,0.0,1.825938715167871e-06,0.0,23.151967462683952,4.200129022953754,1.5041259054736481e-05,0.0
4860,8.275862068965518,3.4482758620689657,0.0,0,138619.95132167067,217560.12513662648,326245.8533448341,170138.30839658348,22757.047659194017,9.241330088111378e-07,0.0,0.0,0.0,9.241330088111378e-07,0.0,24.449655441677688,-0.049876929541597524,0.0007589329286151801,0.0
4861,8.275862068965518,3.4482758620689657,0.35714285714285715,0,233042.91129676637,361097.30418984167,223301.61847583027,92028.88343831479,-59325.152413033786,1.5536194086451091e-06,0.0,0.0,0.0,1.5536194086451091e-06,0.0,24.605290824338482,0.2542175066035291,-0.0019806314776944674,0.0
4862,8.275862068965518,3.4482758620689657,0.7142857142857143,0,167116.65659571034,378883.3496854025,279015.5631936159,185953.66689432095,9310.30610145381,1.1141110439714024e-06,0.0,0.0,0.0,1.1141110439714024e-06,0.0,23.606872098573806,0.5597708653792806,0.00031195710184136555,0.0
4863,8.275862068965518,3.4482758620689657,1.0714285714285714,0,192472.8911089459,269918.999501158,262652.49666734796,73915.76013327132,-56450.551417458235,1.2831526073929727e-06,0.0,0.0,0.0,1.2831526073929727e-06,0.0,24.365551721567773,0.8689971216858228,-0.0019138592628730599,0.0
4864,8.275862068965518,3.4482758620689657,1.4285714285714286,0,162835.1242799755,385689.0803999077,395001.0134327283,227709.7382448328,-40083.93613695984,1.0855674951998368e-06,0.0,0.0,0.0,1.0855674951998368e-06,0.0,24.149092853447417,1.1845132041022122,-0.0014112636252204137,0.0
4865,8.275862068965518,3.4482758620689657,1.7857142857142858,0,131804.2782704671,434100.17653726495,582359.1610667686,538009.2406610787,121144.30048076806,8.786951884697806e-07,0.0,0.0,0.0,8.786951884697806e-07,0.0,23.93325251243653,1.5061321704820738,0.004784896814916416,0.0
4866,8.275862068965518,3.4482758620689657,2.142857142857143,0,844429.4187667898,1056968.4508866754,935416.0718432481,158349.9088663066,322094.31946305884,5.629529458445266e-06,0.0,0.0,0.0,5.629529458445266e-06,0.0,24.283036432514542,1.8275462407730971,0.01726589672873156,0.0
4867,8.275862068965518,3.4482758620689657,2.5,0,833932.1736448508,1458481.593078826,964556.2626063426,495647.992423174,887316.05098059,5.559547824299006e-06,0.0,0.0,0.0,5.559547824299006e-06,0.0,23.74645903664362,2.1387520757902956,0.088731605098059,0.0
4868,8.275862068965518,3.4482758620689657,2.857142857142857,0,1060050.0334357389,1300904.732417537,782159.509997304,81384.41431579401,339482.4326759607,7.0670002229049255e-06,0.0,0.0,0.0,7.0670002229049255e-06,0.0,23.451553543504563,2.434689097915954,0.018197988196665345,0.0
4869,8.275862068965518,3.4482758620689657,3.2142857142857144,0,606425.7194223903,778546.398120459,769810.1326977038,167799.7438346353,155486.07190463663,4.042838129482602e-06,0.0,0.0,0.0,4.042838129482602e-06,0.0,24.209878849490885,2.7204178847677882,0.0061413108769278815,0.0
4870,8.275862068965518,3.4482758620689657,3.5714285714285716,0,181732.02322633544,405163.2620406027,198299.65768239845,271200.89878105884,119990.83973991056,1.211546821508903e-06,0.0,0.0,0.0,1.211546821508903e-06,0.0,24.14575599125768,3.0059417755307836,0.004224602766205069,0.0
4871,8.275862068965518,3.4482758620689657,3.928571428571429,0,272598.3107249853,264980.89663410315,448750.52125744126,135548.3286760254,-31925.882159645498,1.8173220714999022e-06,0.0,0.0,0.0,1.8173220714999022e-06,0.0,22.742995720227572,3.2975685502572523,-0.0010823923551211696,0.0
4872,8.275862068965518,3.4482758620689657,4.285714285714286,0,40666.79184801539,271885.97910095094,269123.36643128446,229908.3190180548,103374.87434606689,2.7111194565343596e-07,0.0,0.0,0.0,2.7111194565343596e-07,0.0,23.430587509541226,3.5954851510935666,0.003463744999659971,0.0
4873,8.275862068965518,3.4482758620689657,4.642857142857143,0,131439.94814734795,311792.2252762641,340194.6983239197,196875.5520719662,563.5553445625536,8.762663209823197e-07,0.0,0.0,0.0,8.762663209823197e-07,0.0,23.689797504633482,3.8970746494606723,1.8814877155179735e-05,0.0
4874,8.275862068965518,3.4482758620689657,5.0,0,157929.82258534696,343490.1934654846,265219.5474616165,161711.579901246,-26425.838934270185,1.052865483902313e-06,0.0,0.0,0.0,1.052865483902313e-06,0.0,24.293094677779777,4.200123070458402,-0.0008812847621469112,0.0
4875,8.620689655172415,3.4482758620689657,0.0,0,283843.9158473942,409749.44404660014,236817.65535511973,82164.66634960419,-12530.617177481805,1.8922927723159614e-06,0.0,0.0,0.0,1.8922927723159614e-06,0.0,23.113216630726043,-0.04988299890030544,-0.00041788803777540444,0.0
4876,8.620689655172415,3.4482758620689657,0.35714285714285715,0,110048.91902123924,337486.0348320137,337379.46841509815,227383.87130011801,-17080.07372061307,7.33659460141595e-07,0.0,0.0,0.0,7.33659460141595e-07,0.0,23.71943866605908,0.2541856445354015,-0.0005702358995533903,0.0
4877,8.620689655172415,3.4482758620689657,0.7142857142857143,0,231486.2717436769,453501.4087656741,385815.86202589597,195716.91512533074,59541.118627616335,1.5432418116245126e-06,0.0,0.0,0.0,1.5432418116245126e-06,0.0,24.852819926607722,0.5596412621838326,0.0019950229997877027,0.0
4878,8.620689655172415,3.4482758620689657,1.0714285714285714,0,346432.6889893104,417232.5363806796,347685.25146838906,41302.05408197627,57943.62255464337,2.3095512599287363e-06,0.0,0.0,0.0,2.3095512599287363e-06,0.0,23.922118372549164,0.8685886442714812,0.001964479282594363,0.0
4879,8.620689655172415,3.4482758620689657,1.4285714285714286,0,350159.2529038077,509562.40468881594,300810.86557041656,105305.6611067095,72798.87465200323,2.334395019358718e-06,0.0,0.0,0.0,2.334395019358718e-06,0.0,23.958000954246728,1.1835156625877772,0.0025630817143883597,0.0
4880,8.620689655172415,3.4482758620689657,1.7857142857142858,0,1084227.5656335861,894515.394176795,1035985.7549789079,-112032.5900732174,-17922.049671615125,7.2281837708905746e-06,0.0,0.0,0.0,7.2281837708905746e-06,0.0,23.867687453330518,1.5042445942495117,-0.000707876128304516,0.0
4881,8.620689655172415,3.4482758620689657,2.142857142857143,0,799435.5789810019,824458.9282156216,1014140.3203719195,136923.1343332617,427461.79207071237,5.329570526540012e-06,0.0,0.0,0.0,5.329570526540012e-06,0.0,24.393952609608753,1.8247787345045317,0.022914130151922524,0.0
4882,8.620689655172415,3.4482758620689657,2.5,0,850749.9669429574,1376144.1769817027,1125899.762268287,428338.06560596154,535898.2960087352,5.6716664462863826e-06,0.0,0.0,0.0,5.6716664462863826e-06,0.0,23.928527796223086,2.135608070142083,0.05358982960087352,0.0
4883,8.620689655172415,3.4482758620689657,2.857142857142857,0,756540.6079840633,1076184.2085843035,679256.3204970636,203784.1546067753,516150.0150545613,5.043604053227089e-06,0.0,0.0,0.0,5.043604053227089e-06,0.0,23.802445239759205,2.431921591647389,0.02766827080751231,0.0
4884,8.620689655172415,3.4482758620689657,3.2142857142857144,0,441384.88847350096,679820.5257265721,418807.57731666893,170203.5130970843,41498.12501928548,2.942565923156673e-06,0.0,0.0,0.0,2.942565923156673e-06,0.0,23.993225935177684,2.718530308535226,0.0016390721267262988,0.0
4885,8.620689655172415,3.4482758620689657,3.5714285714285716,0,262798.6123378084,598518.7114535824,327483.87868280185,344814.1544167491,31972.72684551812,1.7519907489187229e-06,0.0,0.0,0.0,1.7519907489187229e-06,0.0,24.584741058571943,3.0049442340163486,0.001125686515466298,0.0
4886,8.620689655172415,3.4482758620689657,3.928571428571429,0,216297.48509810513,514483.36823935236,400927.3337785431,265057.03843415086,-21678.849062693134,1.4419832339873674e-06,0.0,0.0,0.0,1.4419832339873674e-06,0.0,24.127629956528946,3.2971600728429107,-0.0007349842480764622,0.0
4887,8.620689655172415,3.4482758620689657,4.285714285714286,0,202675.6069688035,344311.7502448299,213152.2020236519,110877.0347622775,-74566.59133871835,1.3511707131253567e-06,0.0,0.0,0.0,1.3511707131253567e-06,0.0,23.96007361800411,3.5953555478981185,-0.002498476148338854,0.0
4888,8.620689655172415,3.4482758620689657,4.642857142857143,0,188589.6645710133,407932.8928717435,205903.42687337266,236532.55953898726,37473.608279529486,1.257264430473422e-06,0.0,0.0,0.0,1.257264430473422e-06,0.0,24.524867450815638,3.897042787392545,0.0012510951109654732,0.0
4889,8.620689655172415,3.4482758620689657,5.0,0,152514.26441193075,447078.7416590463,341966.1881841641,272153.70185028523,40735.40798926294,1.016761762746205e-06,0.0,0.0,0.0,1.016761762746205e-06,0.0,23.67971697894391,4.200117001099695,0.0013584997028881056,0.0
4890,8.965517241379311,3.4482758620689657,0.0,0,156996.85245721685,405126.9768107855,327324.2475683896,224422.7096336139,5972.31583514867,1.0466456830481124e-06,0.0,0.0,0.0,1.0466456830481124e-06,0.0,22.182311862882845,-0.04988915924157275,0.00019917289866697608,0.0
4891,8.965517241379311,3.4482758620689657,0.35714285714285715,0,265163.03089402395,478759.02885134995,233994.09991737676,197068.5918096508,-90496.64669553466,1.767753539293493e-06,0.0,0.0,0.0,1.767753539293493e-06,0.0,24.011945505840124,0.25415330483979365,-0.0030213240047503305,0.0
4892,8.965517241379311,3.4482758620689657,0.7142857142857143,0,223348.8993143207,454159.4706510675,207145.9821993,266442.266085104,32269.601805314596,1.4889926620954713e-06,0.0,0.0,0.0,1.4889926620954713e-06,0.0,24.010851709554814,0.5595097161751492,0.001081246024251438,0.0
4893,8.965517241379311,3.4482758620689657,1.0714285714285714,0,311984.4106381873,605349.381836712,437486.4399097854,245372.99237811493,-32390.40187991833,2.079896070921249e-06,0.0,0.0,0.0,2.079896070921249e-06,0.0,23.486433424532883,0.8681740435873838,-0.001098141100653466,0.0
4894,8.965517241379311,3.4482758620689657,1.4285714285714286,0,298166.15989227535,357242.0918172394,397116.7661671824,81019.73108579354,33064.341679037774,1.9877743992818356e-06,0.0,0.0,0.0,1.9877743992818356e-06,0.0,23.66780116243988,1.182503167453947,0.0011641197746660313,0.0
4895,8.965517241379311,3.4482758620689657,1.7857142857142858,0,430288.1387629429,719383.4460023276,315103.38549757306,267111.2369548548,41500.56575927087,2.868587591752953e-06,0.0,0.0,0.0,2.868587591752953e-06,0.0,24.435990941815643,1.5023287223559145,0.001639168529849977,0.0
4896,8.965517241379311,3.4482758620689657,2.142857142857143,0,515197.52771701687,894066.9359956732,482133.1217150708,316399.35350637283,369694.55702983314,3.4346501847801123e-06,0.0,0.0,0.0,3.4346501847801123e-06,0.0,24.038718043555228,1.8219697420072585,0.019817512005465034,0.0
4897,8.965517241379311,3.4482758620689657,2.5,0,632152.7940846646,1440889.420681928,806946.374920772,810542.2189152088,805743.2719801666,4.214351960564431e-06,0.0,0.0,0.0,4.214351960564431e-06,0.0,24.553817341726713,2.1324169343612813,0.08057432719801666,0.0
4898,8.965517241379311,3.4482758620689657,2.857142857142857,0,546106.1330258207,739209.732323419,924953.251367012,310203.71172961016,322391.49731705216,3.6407075535054715e-06,0.0,0.0,0.0,3.6407075535054715e-06,0.0,23.95549927738422,2.4291125991501157,0.01728182697595128,0.0
4899,8.965517241379311,3.4482758620689657,3.2142857142857144,0,536560.975915122,788518.3777810511,603965.7372570193,184038.0717558495,65387.66707711216,3.5770731727674797e-06,0.0,0.0,0.0,3.5770731727674797e-06,0.0,23.749121499661197,2.716614436641629,0.0025826492760322494,0.0
4900,8.965517241379311,3.4482758620689657,3.5714285714285716,0,153560.24781055862,449929.74959197006,476877.13046816515,311626.86507340596,32705.142649725058,1.023734985403724e-06,0.0,0.0,0.0,1.023734985403724e-06,0.0,24.184587732595293,3.003931738882519,0.0011514731991762528,0.0
4901,8.965517241379311,3.4482758620689657,3.928571428571429,0,189789.4894233686,377943.55389115604,178050.4351100769,200201.71126594357,96255.14431815514,1.2652632628224573e-06,0.0,0.0,0.0,1.2652632628224573e-06,0.0,24.019486512218368,3.296745472158813,0.0032633658117910214,0.0
4902,8.965517241379311,3.4482758620689657,4.285714285714286,0,42617.264956673134,305585.64986170846,320234.56743867096,353595.3416316389,-3196.0148171594246,2.8411509971115424e-07,0.0,0.0,0.0,2.8411509971115424e-07,0.0,24.059540159101445,3.5952240018894353,-0.00010708772718519218,0.0
4903,8.965517241379311,3.4482758620689657,4.642857142857143,0,309334.58190239145,388742.62186964083,422258.7357504259,97530.89759201356,35981.39446306148,2.062230546015943e-06,0.0,0.0,0.0,2.062230546015943e-06,0.0,23.729748363474886,3.8970104476969367,0.0012012760117110768,0.0
4904,8.965517241379311,3.4482758620689657,5.0,0,353323.6561886937,521472.14388537937,414195.2929115518,126943.17297897079,-50214.91092561112,2.355491041257958e-06,0.0,0.0,0.0,2.355491041257958e-06,0.0,23.56364108537675,4.200110840758428,-0.0016746350396435467,0.0
4905,9.310344827586208,3.4482758620689657,0.0,0,140254.95543634944,431835.62266171863,334970.4518645221,271000.6060648815,73550.81280444135,9.350330362423296e-07,0.0,0.0,0.0,9.350330362423296e-07,0.0,23.423925464969283,-0.04989539155445671,0.00245287238483898,0.0
4906,9.310344827586208,3.4482758620689657,0.35714285714285715,0,435894.58837709035,488604.2481227439,507734.3548779409,62589.66304362566,-35077.52574405583,2.9059639225139355e-06,0.0,0.0,0.0,2.9059639225139355e-06,0.0,23.955802962778254,0.2541205873176866,-0.0011710994211125052,0.0
4907,9.310344827586208,3.4482758620689657,0.7142857142857143,0,263766.92348091956,580482.1925617653,357913.7330946242,289141.16467714764,-5750.780947237811,1.7584461565394637e-06,0.0,0.0,0.0,1.7584461565394637e-06,0.0,24.025313157696385,0.5593766333069808,-0.0001926893636015594,0.0
4908,9.310344827586208,3.4482758620689657,1.0714285714285714,0,373102.4356170041,472339.1634099381,407639.9653370149,71118.39744675506,23224.31855225566,2.4873495707800275e-06,0.0,0.0,0.0,2.4873495707800275e-06,0.0,22.390987379577826,0.8677545990999644,0.0007873807441923918,0.0
4909,9.310344827586208,3.4482758620689657,1.4285714285714286,0,165366.50945557753,463131.2963161754,369617.35593409074,272195.8268085444,-34110.952555399825,1.1024433963705169e-06,0.0,0.0,0.0,1.1024433963705169e-06,0.0,23.343644873963985,1.181478843282007,-0.0012009685475640574,0.0
4910,9.310344827586208,3.4482758620689657,1.7857142857142858,0,687119.090350677,816699.4105320391,406168.54466478596,23445.074257495293,159409.28684778494,4.58079393567118e-06,0.0,0.0,0.0,4.58079393567118e-06,0.0,22.919494619102625,1.5003904672222537,0.006296268052884196,0.0
4911,9.310344827586208,3.4482758620689657,2.142857142857143,0,482336.38648206025,986142.6311490401,580922.3839727878,452631.0068339089,344132.9634950654,3.2155759098804017e-06,0.0,0.0,0.0,3.2155759098804017e-06,0.0,23.470357584327875,1.8191279318912221,0.0184472803449724,0.0
4912,9.310344827586208,3.4482758620689657,2.5,0,919054.3049699559,1170699.2508338718,958734.3004434234,164181.4013538338,859438.6146102791,6.127028699799706e-06,0.0,0.0,0.0,6.127028699799706e-06,0.0,23.42259804337423,2.129188516360047,0.08594386146102792,0.0
4913,9.310344827586208,3.4482758620689657,2.857142857142857,0,125446.46885722053,770222.2104428327,727814.9917460427,868968.7465739142,535521.6787659081,8.363097923814703e-07,0.0,0.0,0.0,8.363097923814703e-07,0.0,23.803041592054786,2.426270789034079,0.028706690689183616,0.0
4914,9.310344827586208,3.4482758620689657,3.2142857142857144,0,694421.0883997214,885265.7256581101,258639.0762879974,138680.0504374545,121879.03368635423,4.6294739226648094e-06,0.0,0.0,0.0,4.6294739226648094e-06,0.0,23.82667596027265,2.714676181507968,0.004813916938531564,0.0
4915,9.310344827586208,3.4482758620689657,3.5714285714285716,0,313969.00779572834,481150.68054500426,258011.86930427427,122127.55997012593,43491.85350276528,2.093126718638189e-06,0.0,0.0,0.0,2.093126718638189e-06,0.0,24.803638399996117,3.0029074147105783,0.0015312485937545685,0.0
4916,9.310344827586208,3.4482758620689657,3.928571428571429,0,214466.9056099916,465011.70327787474,285498.1713954321,227514.54846061356,113840.61994984352,1.4297793707332775e-06,0.0,0.0,0.0,1.4297793707332775e-06,0.0,23.929620137596373,3.2963260276713937,0.003859571244415486,0.0
4917,9.310344827586208,3.4482758620689657,4.285714285714286,0,235709.83752400836,345262.8922227433,368190.8895129744,121854.88804336557,18146.32999223049,1.5713989168267224e-06,0.0,0.0,0.0,1.5713989168267224e-06,0.0,24.067182311522302,3.5950909190212665,0.0006080225990152271,0.0
4918,9.310344827586208,3.4482758620689657,4.642857142857143,0,211875.5465736855,471957.69966179034,302480.05802893505,234414.28475270435,4768.268756244014,1.41250364382457e-06,0.0,0.0,0.0,1.41250364382457e-06,0.0,23.041702910576245,3.89697773017483,0.00015919357656212356,0.0
4919,9.310344827586208,3.4482758620689657,5.0,0,229064.81178946953,367882.24273907166,297559.98608468485,111900.43339576281,14593.253019065181,1.5270987452631301e-06,0.0,0.0,0.0,1.5270987452631301e-06,0.0,23.589991924886036,4.200104608445543,0.00048667561880800267,0.0
4920,9.655172413793103,3.4482758620689657,0.0,0,281911.85508382577,427921.9850990824,221354.644210811,106758.20015257754,55989.711618404115,1.8794123672255052e-06,0.0,0.0,0.0,1.8794123672255052e-06,0.0,23.05634704746096,-0.04990168163448198,0.0018672209351245767,0.0
4921,9.655172413793103,3.4482758620689657,0.35714285714285715,0,300059.4051544743,517825.86387911846,310384.5723404573,173768.51773875408,102602.53140642682,2.000396034363162e-06,0.0,0.0,0.0,2.000396034363162e-06,0.0,23.90201823984856,0.2540875665377429,0.003425491467427853,0.0
4922,9.655172413793103,3.4482758620689657,0.7142857142857143,0,406500.44233163306,511784.1132434327,425909.4900995125,69207.24977410272,-7349.905553240139,2.7100029488775537e-06,0.0,0.0,0.0,2.7100029488775537e-06,0.0,23.63354388379542,0.5592423168972693,-0.0002462706607292451,0.0
4923,9.655172413793103,3.4482758620689657,1.0714285714285714,0,203592.12695069343,453262.4149231374,332853.51813678717,218197.9444056133,-41245.95916868741,1.3572808463379563e-06,0.0,0.0,0.0,1.3572808463379563e-06,0.0,23.441433346125255,0.8673312667928175,-0.0013983736036042205,0.0
4924,9.655172413793103,3.4482758620689657,1.4285714285714286,0,116967.0792998569,341976.84392299224,210854.03499627838,304458.34184714465,68157.37614091719,7.797805286657126e-07,0.0,0.0,0.0,7.797805286657126e-07,0.0,24.09516641015627,1.1804450246767326,0.002399665177827955,0.0
4925,9.655172413793103,3.4482758620689657,1.7857142857142858,0,848569.905162068,1211523.5263215383,340816.66382806626,386974.70243526733,-23473.23895129336,5.657132701080453e-06,0.0,0.0,0.0,5.657132701080453e-06,0.0,23.487033965130195,1.4984342464536358,-0.0009271342180199896,0.0
4926,9.655172413793103,3.4482758620689657,2.142857142857143,0,809417.7478257196,1514955.486466681,918242.3127802729,593616.4506274547,452449.0232222297,5.396118318838131e-06,0.0,0.0,0.0,5.396118318838131e-06,0.0,24.293396811065815,1.8162597811132801,0.02425357306205594,0.0
4927,9.655172413793103,3.4482758620689657,2.5,0,1296203.2450029745,1512161.3622423392,865567.8899875634,19856.27987255774,802580.4056756884,8.641354966686498e-06,0.0,0.0,0.0,8.641354966686498e-06,0.0,24.291472987831977,2.125930174238767,0.08025804056756884,0.0
4928,9.655172413793103,3.4482758620689657,2.857142857142857,0,540181.4488812183,953726.9099956019,769265.7816779116,345476.4171322195,411453.2012502254,3.6012096592081223e-06,0.0,0.0,0.0,3.6012096592081223e-06,0.0,23.318057823453355,2.423402638256137,0.022055988113466773,0.0
4929,9.655172413793103,3.4482758620689657,3.2142857142857144,0,414168.0224614995,740665.3771421887,437642.1088742562,268735.5397240854,76154.15523039737,2.76112014974333e-06,0.0,0.0,0.0,2.76112014974333e-06,0.0,24.197363734173777,2.71271996073935,0.0030078986246854125,0.0
4930,9.655172413793103,3.4482758620689657,3.5714285714285716,0,91972.22144811177,471568.31899441587,423616.88766036264,365529.30645928753,-80778.04558089447,6.131481429874118e-07,0.0,0.0,0.0,6.131481429874118e-07,0.0,23.70169746707123,3.001873596105304,-0.0028440100556791077,0.0
4931,9.655172413793103,3.4482758620689657,3.928571428571429,0,386513.0696651507,570347.0513171611,291288.1724790572,129177.16429833346,-39238.31908245496,2.5767537977676715e-06,0.0,0.0,0.0,2.5767537977676715e-06,0.0,23.453063664383038,3.2959026953642465,-0.0013303080049684038,0.0
4932,9.655172413793103,3.4482758620689657,4.285714285714286,0,432196.70679045067,465097.10216176533,292835.2954625525,-26667.128005366056,41415.95500610328,2.8813113786030043e-06,0.0,0.0,0.0,2.8813113786030043e-06,0.0,23.852231162555103,3.594956602611555,0.0013877096147976173,0.0
4933,9.655172413793103,3.4482758620689657,4.642857142857143,0,245684.95165562848,371407.55449637014,233352.4381540244,87748.48859903759,-89915.99088173009,1.63789967770419e-06,0.0,0.0,0.0,1.63789967770419e-06,0.0,22.866031920901438,3.8969447093948864,-0.003001938210770053,0.0
4934,9.655172413793103,3.4482758620689657,5.0,0,276401.297152831,398939.3303032552,389465.92730014224,117923.1180803587,-3787.2175379082514,1.8426753143522067e-06,0.0,0.0,0.0,1.8426753143522067e-06,0.0,23.3953378094329,4.2000983183655185,-0.00012630127336338664,0.0
4935,10.0,3.4482758620689657,0.0,0,488338.74552202446,549013.2233367648,294083.6669353086,-14034.981239143563,-14017.115360400529,3.2555916368134963e-06,0.0,0.0,0.0,3.2555916368134963e-06,0.0,23.713108049446877,-0.04990801869620095,-0.0004674617977920237,0.0
4936,10.0,3.4482758620689657,0.35714285714285715,0,288576.0357040202,592084.1166790503,368511.3092118999,266317.50777782337,-89369.16836277845,1.923840238026801e-06,0.0,0.0,0.0,1.923840238026801e-06,0.0,23.361786742227793,0.2540542991198927,-0.002983681976277685,0.0
4937,10.0,3.4482758620689657,0.7142857142857143,0,486839.7013611559,587515.7531724626,207564.71637544304,38735.54967484231,76158.8044250227,3.2455980090743726e-06,0.0,0.0,0.0,3.2455980090743726e-06,0.0,24.05275184027423,0.5591069972551037,0.002551825863644115,0.0
4938,10.0,3.4482758620689657,1.0714285714285714,0,285840.707963516,533779.7750698967,485274.5186715691,226789.9183255988,-47465.01838410866,1.9056047197567734e-06,0.0,0.0,0.0,1.9056047197567734e-06,0.0,23.3193849739503,0.8669047725435793,-0.0016092201549119374,0.0
4939,10.0,3.4482758620689657,1.4285714285714286,0,415353.1065875794,511519.8978797069,514752.2183900182,97792.38449814754,36344.81054815318,2.769020710583863e-06,0.0,0.0,0.0,2.769020710583863e-06,0.0,23.58389040081113,1.179403484301805,0.0012796175734059543,0.0
4940,10.0,3.4482758620689657,1.7857142857142858,0,283755.6132379174,271417.1689736918,245443.05256043418,541292.7222968293,45105.57456117321,1.8917040882527828e-06,0.0,0.0,0.0,1.8917040882527828e-06,0.0,23.46773615881693,1.4964634143343525,0.0017815573592502225,0.0
4941,10.0,3.4482758620689657,2.142857142857143,0,731651.272010185,1211355.8303187839,616993.588159819,394209.5876629135,334644.9928466922,4.8776751467345675e-06,0.0,0.0,0.0,4.8776751467345675e-06,0.0,22.76865237789776,1.8133702076219869,0.01793867677303379,0.0
4942,10.0,3.4482758620689657,2.5,0,833000.4075088317,1344857.3648453564,1070261.631167063,409225.25334790914,744518.9885163174,5.553336050058878e-06,0.0,0.0,0.0,5.553336050058878e-06,0.0,23.733548214982886,2.1226474949976244,0.07445189885163175,0.0
4943,10.0,3.4482758620689657,2.857142857142857,0,640755.7771521824,1175412.3439972664,498584.97613446676,578161.8359124378,390500.79339603044,4.27170518101455e-06,0.0,0.0,0.0,4.27170518101455e-06,0.0,23.700673490988954,2.420513064764844,0.020932832291185074,0.0
4944,10.0,3.4482758620689657,3.2142857142857144,0,545461.174697285,780054.1909134634,519903.5462104617,153220.25047104148,66881.17368508395,3.6364078313152336e-06,0.0,0.0,0.0,3.6364078313152336e-06,0.0,22.580469773421225,2.710749128620067,0.002641639050897269,0.0
4945,10.0,3.4482758620689657,3.5714285714285716,0,134045.78262967226,395837.6896334755,423086.49193843536,277509.8307806404,-35624.26854373522,8.936385508644818e-07,0.0,0.0,0.0,8.936385508644818e-07,0.0,22.316679644083194,3.0008320557303767,-0.001254248939003285,0.0
4946,10.0,3.4482758620689657,3.928571428571429,0,324977.89891160047,515271.1077386941,307385.1660025548,140776.4575146144,-46710.13191100952,2.1665193260773366e-06,0.0,0.0,0.0,2.1665193260773366e-06,0.0,23.32955004673202,3.2954762011150085,-0.0015836270219365958,0.0
4947,10.0,3.4482758620689657,4.285714285714286,0,332736.4686102175,506870.0597678559,363474.39460987307,126478.4955491971,45204.19928166385,2.2182431240681166e-06,0.0,0.0,0.0,2.2182431240681166e-06,0.0,24.176330572264327,3.5948212829693893,0.00151464096296097,0.0
4948,10.0,3.4482758620689657,4.642857142857143,0,306070.862741423,509753.43343851727,251781.84063496065,171561.12184403275,311.150024606195,2.0404724182761534e-06,0.0,0.0,0.0,2.0404724182761534e-06,0.0,24.924936707328147,3.896911441977036,1.0388064892439149e-05,0.0
4949,10.0,3.4482758620689657,5.0,0,437035.3323139569,533352.2402043734,112635.14915759845,81648.03247297042,-2704.7762043192947,2.913568882093046e-06,0.0,0.0,0.0,2.913568882093046e-06,0.0,22.66006913805637,4.2000919813038,-9.02025498533141e-05,0.0
4950,0.0,3.793103448275862,0.0,0,302865.6336942055,502630.9248570828,402003.74789749534,162260.06528095788,-39978.614392837735,2.0191042246280368e-06,0.0,0.0,0.0,2.0191042246280368e-06,0.0,24.3432009913675,-0.049906249384656744,-0.0013332611223352301,0.0
4951,0.0,3.793103448275862,0.35714285714285715,0,196966.81642844743,411758.8472966353,401518.1027769216,209871.424599671,70618.44746346846,1.3131121095229829e-06,0.0,0.0,0.0,1.3131121095229829e-06,0.0,24.115901734102774,0.25406358740349455,0.002357669795405857,0.0
4952,0.0,3.793103448275862,0.7142857142857143,0,526435.8163716403,443598.94616933836,540295.9499477718,-27785.113798098813,-3927.7750934600836,3.5095721091442685e-06,0.0,0.0,0.0,3.5095721091442685e-06,0.0,23.24819688947228,0.5591447785827378,-0.0001316065574524102,0.0
4953,0.0,3.793103448275862,1.0714285714285714,0,305132.1125428988,472038.2752410093,119866.91786089283,286619.46279658034,-87585.94784833457,2.0342140836193254e-06,0.0,0.0,0.0,2.0342140836193254e-06,0.0,24.486198097384836,0.8670238500012687,-0.0029694515532262896,0.0
4954,0.0,3.793103448275862,1.4285714285714286,0,216101.3057368804,550344.1014041565,458018.40941279224,303415.8468094793,21631.663969803474,1.4406753715792028e-06,0.0,0.0,0.0,1.4406753715792028e-06,0.0,23.782610067746454,1.179694283017494,0.0007616013659253886,0.0
4955,0.0,3.793103448275862,1.7857142857142858,0,817668.7938310835,925807.253148614,236354.40805102882,22445.585385815233,22316.52247129727,5.451125292207223e-06,0.0,0.0,0.0,5.451125292207223e-06,0.0,23.440340260670634,1.497013671878776,0.0008814468106972384,0.0
4956,0.0,3.793103448275862,2.142857142857143,0,1251063.4780962723,1290595.5299887015,1202056.1499313018,-2385.659891197338,535391.2267348696,8.340423187308482e-06,0.0,0.0,0.0,8.340423187308482e-06,0.0,22.668585847744374,1.8141769783246733,0.028699697795612204,0.0
4957,0.0,3.793103448275862,2.5,0,1020995.5203180196,1904299.9907391004,1073014.8733516207,764671.4910789448,915971.95968012,6.80663680212013e-06,0.0,0.0,0.0,6.80663680212013e-06,0.0,23.61458678770205,2.1235640210683577,0.091597195968012,0.0
4958,0.0,3.793103448275862,2.857142857142857,0,1041417.4546032393,1647977.0623427182,582693.5249381887,632190.8499660391,536774.7204115397,6.942783030688262e-06,0.0,0.0,0.0,6.942783030688262e-06,0.0,23.588983363114792,2.4213198354675303,0.028773860106161665,0.0
4959,0.0,3.793103448275862,3.2142857142857144,0,334977.76958307944,784028.9727324734,660639.7498981309,404857.69936814834,45683.658526865904,2.233185130553863e-06,0.0,0.0,0.0,2.233185130553863e-06,0.0,24.6924163758932,2.7112993861644905,0.00180439022976266,0.0
4960,0.0,3.793103448275862,3.5714285714285716,0,230653.3850523692,125347.9699003478,317528.3340898591,61747.780491037476,689.6664362437032,1.5376892336824614e-06,0.0,0.0,0.0,1.5376892336824614e-06,0.0,23.104818800635112,3.0011228544460655,2.428157633223771e-05,0.0
4961,0.0,3.793103448275862,3.928571428571429,0,224602.2487495723,578265.8483224598,352366.50202181394,354983.5682552767,11822.207726485154,1.4973483249971486e-06,0.0,0.0,0.0,1.4973483249971486e-06,0.0,23.139437344808115,3.295595278572698,0.0004008117050552956,0.0
4962,0.0,3.793103448275862,4.285714285714286,0,262054.46185023608,401342.8436631941,333517.1138655243,112043.42125070121,40173.711350618585,1.7470297456682406e-06,0.0,0.0,0.0,1.7470297456682406e-06,0.0,23.331885161060686,3.5948590642970237,0.0013460862002371318,0.0
4963,0.0,3.793103448275862,4.642857142857143,0,237001.63837763845,376642.095496057,470445.85257216834,200899.82306110972,-46547.52281344987,1.5800109225175896e-06,0.0,0.0,0.0,1.5800109225175896e-06,0.0,24.92005432477806,3.896920730260638,-0.0015540371182049448,0.0
4964,0.0,3.793103448275862,5.0,0,248988.14579360638,412716.344130858,476699.05543331546,201963.48000223705,4189.716817534422,1.6599209719573759e-06,0.0,0.0,0.0,1.6599209719573759e-06,0.0,23.021439246677694,4.200093750615343,0.0001397243659203325,0.0
4965,0.3448275862068966,3.793103448275862,0.0,0,116339.05192049015,368932.9823840371,235192.31062226297,291115.06506748375,75673.66118465277,7.755936794699344e-07,0.0,0.0,0.0,7.755936794699344e-07,0.0,24.28003120322608,-0.04989979162808768,0.0025236680153762725,0.0
4966,0.3448275862068966,3.793103448275862,0.35714285714285715,0,251031.3864616633,454820.76776655484,369390.84664197086,172224.4752475004,-21694.2116819343,1.6735425764110886e-06,0.0,0.0,0.0,1.6735425764110886e-06,0.0,22.85181820346986,0.25409748842824154,-0.0007242836603579623,0.0
4967,0.3448275862068966,3.793103448275862,0.7142857142857143,0,104310.31500244781,279714.9570721706,313395.23968007445,196405.85604998865,-1054.0902119210987,6.954021000163188e-07,0.0,0.0,0.0,6.954021000163188e-07,0.0,23.851273366811434,0.5592826755051399,-3.531902431638736e-05,0.0
4968,0.3448275862068966,3.793103448275862,1.0714285714285714,0,161024.0276601952,328526.71072194993,174831.94089798583,161058.26986555546,109720.13314153113,1.0734935177346347e-06,0.0,0.0,0.0,1.0734935177346347e-06,0.0,23.68928933335476,0.867458467204292,0.003719873196342991,0.0
4969,0.3448275862068966,3.793103448275862,1.4285714285714286,0,383582.71628308157,520086.70513487,272910.5507186141,78200.55732765654,-5622.998569860405,2.5572181085538773e-06,0.0,0.0,0.0,2.5572181085538773e-06,0.0,23.295051309251487,1.1807556604344123,-0.00019797290663262358,0.0
4970,0.3448275862068966,3.793103448275862,1.7857142857142858,0,843715.2372490366,784026.6539671783,813754.1604155644,-44431.95589789771,-33842.38395770069,5.624768248326911e-06,0.0,0.0,0.0,5.624768248326911e-06,0.0,24.008575611626476,1.499022040209279,-0.0013366895063634263,0.0
4971,0.3448275862068966,3.793103448275862,2.142857142857143,0,645683.7761561045,1165454.0302543778,796972.2183896075,419899.1261579983,383650.7879405685,4.304558507707364e-06,0.0,0.0,0.0,4.304558507707364e-06,0.0,23.25417109662594,1.8171215862554009,0.020565637095124448,0.0
4972,0.3448275862068966,3.793103448275862,2.5,0,918058.9943828995,1024050.8497391436,1093767.5724577666,142837.70674010462,904581.5298268844,6.120393295885996e-06,0.0,0.0,0.0,6.120393295885996e-06,0.0,22.851538155935508,2.12690922178972,0.09045815298268844,0.0
4973,0.3448275862068966,3.793103448275862,2.857142857142857,0,299795.1603362645,830827.2459324009,679240.0816343095,485509.7559827778,498728.0890965646,1.9986344022417634e-06,0.0,0.0,0.0,1.9986344022417634e-06,0.0,23.508045631677756,2.424264443398258,0.026734366804151338,0.0
4974,0.3448275862068966,3.793103448275862,3.2142857142857144,0,287558.8812466156,626525.5420049027,412731.19981251186,299607.70229164907,5136.457126087727,1.9170592083107705e-06,0.0,0.0,0.0,1.9170592083107705e-06,0.0,23.209937633844053,2.713307754494994,0.0002028772071408643,0.0
4975,0.3448275862068966,3.793103448275862,3.5714285714285716,0,263052.26441939635,510033.1812015804,343333.13475672004,206785.87581624335,26334.243548235456,1.7536817627959757e-06,0.0,0.0,0.0,1.7536817627959757e-06,0.0,23.80294549998539,3.0021842318629837,0.0009271684270310984,0.0
4976,0.3448275862068966,3.793103448275862,3.928571428571429,0,403768.660615081,543217.963204093,270868.3213738774,79326.21300227384,-7095.899193188947,2.6917910707672067e-06,0.0,0.0,0.0,2.6917910707672067e-06,0.0,23.535008471882257,3.296029895775721,-0.00024057430898891333,0.0
4977,0.3448275862068966,3.793103448275862,4.285714285714286,0,80525.20338859336,240040.85603880405,163146.83703495792,246868.46151979876,33014.50269336047,5.36834689257289e-07,0.0,0.0,0.0,5.36834689257289e-07,0.0,24.46480840586135,3.594996961219426,0.001106205152303905,0.0
4978,0.3448275862068966,3.793103448275862,4.642857142857143,0,185876.5110071537,387314.20435468917,202331.5825371277,200556.5178747733,-24935.984162333672,1.2391767400476912e-06,0.0,0.0,0.0,1.2391767400476912e-06,0.0,23.52793895748288,3.896954631285385,-0.0008325135823563089,0.0
4979,0.3448275862068966,3.793103448275862,5.0,0,255570.0768379265,297142.5025589817,340941.2877994724,66302.27821438185,20033.99852475311,1.7038005122528432e-06,0.0,0.0,0.0,1.7038005122528432e-06,0.0,23.830136193739826,4.200100208371913,0.0006681209882741693,0.0
4980,0.6896551724137931,3.793103448275862,0.0,0,63209.151529707466,246592.53782527207,229765.28018708384,299685.24516261835,70353.67971523905,4.213943435313831e-07,0.0,0.0,0.0,4.213943435313831e-07,0.0,23.140014816507307,-0.04989336407656204,0.002346250048985124,0.0
4981,0.6896551724137931,3.793103448275862,0.35714285714285715,0,267814.99170619616,439607.20743909694,259751.3891192538,131817.45388010537,-96231.17650498892,1.7854332780413078e-06,0.0,0.0,0.0,1.7854332780413078e-06,0.0,23.512529620967523,0.25413123088678774,-0.0032127772044202732,0.0
4982,0.6896551724137931,3.793103448275862,0.7142857142857143,0,315733.5492046808,409796.59260419407,276043.71029409574,49202.09114523659,21915.15203649877,2.104890328031205e-06,0.0,0.0,0.0,2.104890328031205e-06,0.0,23.274762129949732,0.5594199274384525,0.0007343031734103262,0.0
4983,0.6896551724137931,3.793103448275862,1.0714285714285714,0,279750.95494730514,414948.03227990086,290345.3377515102,94545.49714333717,50464.300114107646,1.8650063663153677e-06,0.0,0.0,0.0,1.8650063663153677e-06,0.0,24.32770380385258,0.8678910515602497,0.0017109056650936722,0.0
4984,0.6896551724137931,3.793103448275862,1.4285714285714286,0,435199.5887799064,523943.9418716397,411169.7897461643,43457.614414273026,-63297.61854980779,2.9013305918660427e-06,0.0,0.0,0.0,2.9013305918660427e-06,0.0,23.361261589736642,1.18181207344138,-0.0022285642387313673,0.0
4985,0.6896551724137931,3.793103448275862,1.7857142857142858,0,232967.66587935097,572984.2524228432,304385.8228769135,425836.06573115796,21090.736677123707,1.5531177725290065e-06,0.0,0.0,0.0,1.5531177725290065e-06,0.0,23.41958183550334,1.5010210147430372,0.0008330313382479835,0.0
4986,0.6896551724137931,3.793103448275862,2.142857142857143,0,246223.40363361294,857774.2530695446,764414.4738298081,578524.0983422215,317194.1428300223,1.6414893575574196e-06,0.0,0.0,0.0,1.6414893575574196e-06,0.0,23.898933858213947,1.8200524212900042,0.017003222292747738,0.0
4987,0.6896551724137931,3.793103448275862,2.5,0,865127.3115113836,1587869.8824586237,940256.5783124001,605357.665400273,556757.512858293,5.767515410075891e-06,0.0,0.0,0.0,5.767515410075891e-06,0.0,23.3973978953553,2.130238775911217,0.0556757512858293,0.0
4988,0.6896551724137931,3.793103448275862,2.857142857142857,0,390904.7966213531,892718.4951999953,842466.121941087,479117.61923033855,278495.94781157264,2.6060319774756873e-06,0.0,0.0,0.0,2.6060319774756873e-06,0.0,24.463813118709023,2.427195278432861,0.014928801856241099,0.0
4989,0.6896551724137931,3.793103448275862,3.2142857142857144,0,409185.8796461036,726976.9979556346,264555.52690929006,411755.1236575556,43010.70752764112,2.727905864307357e-06,0.0,0.0,0.0,2.727905864307357e-06,0.0,24.742591109990133,2.7153067290287516,0.0016988153519362885,0.0
4990,0.6896551724137931,3.793103448275862,3.5714285714285716,0,251108.58146426704,443008.24723387876,332259.11109442054,155563.66533584555,43244.19708231761,1.6740572097617802e-06,0.0,0.0,0.0,1.6740572097617802e-06,0.0,23.31973708806066,3.0032406448699516,0.001522529178162849,0.0
4991,0.6896551724137931,3.793103448275862,3.928571428571429,0,191093.98910839416,239989.8847048491,397178.9808696021,184474.01667967608,56882.77621092852,1.2739599273892944e-06,0.0,0.0,0.0,1.2739599273892944e-06,0.0,24.196006458873445,3.296462480131679,0.0019285131042236807,0.0
4992,0.6896551724137931,3.793103448275862,4.285714285714286,0,149818.55172024327,218427.9472578829,251354.94827131377,87811.68065590541,48143.96495581972,9.987903448016218e-07,0.0,0.0,0.0,9.987903448016218e-07,0.0,23.355426717896954,3.5951342131527384,0.0016131426416178284,0.0
4993,0.6896551724137931,3.793103448275862,4.642857142857143,0,175783.8767456302,325712.1706477705,293478.41552446265,136042.102113692,36608.49318659113,1.1718925116375346e-06,0.0,0.0,0.0,1.1718925116375346e-06,0.0,23.604374140286023,3.896988373743931,0.001222212350193571,0.0
4994,0.6896551724137931,3.793103448275862,5.0,0,230039.1832962363,446086.50898134307,315289.7629181967,180470.29392246951,67475.90523047703,1.533594555308242e-06,0.0,0.0,0.0,1.533594555308242e-06,0.0,24.132482593905227,4.200106635923438,0.00225027811754998,0.0
4995,1.0344827586206897,3.793103448275862,0.0,0,401816.78642179625,390874.30205025134,167101.1595216087,-73007.88759941472,68586.19299692658,2.6787785761453084e-06,0.0,0.0,0.0,2.6787785761453084e-06,0.0,23.885601111714575,-0.049886974009061495,0.002287305501717571,0.0
4996,1.0344827586206897,3.793103448275862,0.35714285714285715,0,288627.1260533053,399447.45618375175,360256.15841090825,93227.22787687829,5608.010274231643,1.9241808403553685e-06,0.0,0.0,0.0,1.9241808403553685e-06,0.0,23.903589636460783,0.25416477656695613,0.00018722921433130392,0.0
4997,1.0344827586206897,3.793103448275862,0.7142857142857143,0,124760.2062303532,271907.45245545515,270995.9100673436,146693.97257573833,48483.99689346974,8.317347082023547e-07,0.0,0.0,0.0,8.317347082023547e-07,0.0,24.37430546403293,0.5595563789495683,0.0016245359703276373,0.0
4998,1.0344827586206897,3.793103448275862,1.0714285714285714,0,284274.5992640562,461838.60063925036,280592.09994512756,134204.11157904004,15020.103716655021,1.895163995093708e-06,0.0,0.0,0.0,1.895163995093708e-06,0.0,24.375569261731684,0.8683211131821946,0.0005092308915612118,0.0
4999,1.0344827586206897,3.793103448275862,1.4285714285714286,0,191109.84069239657,327343.4394313113,149103.43751019207,125547.58703912166,-3672.4454118451367,1.2740656046159771e-06,0.0,0.0,0.0,1.2740656046159771e-06,0.0,23.86017706166931,1.182862325686897,-0.00012929839543791198,0.0
5000,1.0344827586206897,3.793103448275862,1.7857142857142858,0,267976.7033698793,605774.6421014846,499062.72284756624,300881.5316084015,58313.34569328316,1.7865113557991952e-06,0.0,0.0,0.0,1.7865113557991952e-06,0.0,23.52212969007164,1.5030083317099465,0.0023032312784637037,0.0
5001,1.0344827586206897,3.793103448275862,2.142857142857143,0,571085.3674132252,859089.0055125298,689800.8187810266,222498.6926213898,411851.8677376978,3.807235782754835e-06,0.0,0.0,0.0,3.807235782754835e-06,0.0,23.844553574078315,1.822966164358321,0.02207735866856808,0.0
5002,1.0344827586206897,3.793103448275862,2.5,0,851864.2368873535,977695.0199379629,1038078.1926944406,157628.94982402452,732906.8061050083,5.679094912582357e-06,0.0,0.0,0.0,5.679094912582357e-06,0.0,23.34444872748074,2.1335489128269955,0.07329068061050084,0.0
5003,1.0344827586206897,3.793103448275862,2.857142857142857,0,542752.6690917272,1091342.5421646093,549018.1181219761,548162.639319123,374656.79094582406,3.6183511272781815e-06,0.0,0.0,0.0,3.6183511272781815e-06,0.0,24.246584753105935,2.430109021501178,0.02008351302802307,0.0
5004,1.0344827586206897,3.793103448275862,3.2142857142857144,0,184233.75691930988,499102.777790811,291955.5234994025,353581.7017566311,38193.63054041659,1.2282250461287324e-06,0.0,0.0,0.0,1.2282250461287324e-06,0.0,23.76417215417841,2.717294045995661,0.0015085528613205047,0.0
5005,1.0344827586206897,3.793103448275862,3.5714285714285716,0,159809.4854886298,296134.11980715016,228587.655188549,113642.43541376342,-14755.582718453426,1.0653965699241986e-06,0.0,0.0,0.0,1.0653965699241986e-06,0.0,23.310256801007288,3.0042908971154687,-0.0005195102868224374,0.0
5006,1.0344827586206897,3.793103448275862,3.928571428571429,0,189717.7685417469,350434.15574081935,209075.47158647754,134819.91962127291,-64463.03041675527,1.264785123611646e-06,0.0,0.0,0.0,1.264785123611646e-06,0.0,24.538245307812755,3.296892541753624,-0.0021855086403605927,0.0
5007,1.0344827586206897,3.793103448275862,4.285714285714286,0,137342.84332157578,311695.93504126,161340.84916748907,192836.9575403272,12232.712046168646,9.156189554771719e-07,0.0,0.0,0.0,9.156189554771719e-07,0.0,23.865523619037162,3.5952706646638544,0.0004098771142429837,0.0
5008,1.0344827586206897,3.793103448275862,4.642857142857143,0,371543.4167337748,565823.5771334977,323536.0620218554,138057.7712282848,9891.291354499483,2.4769561115584987e-06,0.0,0.0,0.0,2.4769561115584987e-06,0.0,23.50322430253423,3.897021919424099,0.0003302309764899089,0.0
5009,1.0344827586206897,3.793103448275862,5.0,0,190390.33687525123,383325.6908180771,326006.90231625113,170860.97091259054,-35271.36480649283,1.269268912501675e-06,0.0,0.0,0.0,1.269268912501675e-06,0.0,24.45345652795624,4.200113025990938,-0.00117627737084917,0.0
5010,1.3793103448275863,3.793103448275862,0.0,0,115508.06967331823,287251.59955864627,206754.41833014527,154903.78516723498,14801.811035906823,7.700537978221215e-07,0.0,0.0,0.0,7.700537978221215e-07,0.0,24.538308106882088,-0.04988063117934759,0.0004936308947681449,0.0
5011,1.3793103448275863,3.793103448275862,0.35714285714285715,0,124039.71909888381,246830.01089992985,194468.00175900807,105195.47925829406,14279.953856327365,8.269314606592254e-07,0.0,0.0,0.0,8.269314606592254e-07,0.0,22.970805156334528,0.25419807426481716,0.0004767510062334473,0.0
5012,1.3793103448275863,3.793103448275862,0.7142857142857143,0,78363.12907469356,195871.86738546827,105762.8866721294,157962.913711192,-46573.243401070125,5.22420860497957e-07,0.0,0.0,0.0,5.22420860497957e-07,0.0,24.47271525971962,0.5596918217597012,-0.0015605130353857698,0.0
5013,1.3793103448275863,3.793103448275862,1.0714285714285714,0,197698.34024184002,257108.81502381281,271415.8715932878,66952.65060792112,-10198.725318376975,1.3179889349456e-06,0.0,0.0,0.0,1.3179889349456e-06,0.0,24.002640415595067,0.8687479956265896,-0.0003457703145489068,0.0
5014,1.3793103448275863,3.793103448275862,1.4285714285714286,0,205977.0266908992,384494.36635986844,387388.3179192198,179979.5633850808,57684.04048492947,1.373180177939328e-06,0.0,0.0,0.0,1.373180177939328e-06,0.0,24.414203776757475,1.1839048140720967,0.0020309230065123293,0.0
5015,1.3793103448275863,3.793103448275862,1.7857142857142858,0,442976.0488437954,692100.5119628783,308269.43964396074,207382.89112651182,22623.03435831485,2.9531736589586358e-06,0.0,0.0,0.0,2.9531736589586358e-06,0.0,23.89925839038148,1.5049809576810462,0.000893553263465582,0.0
5016,1.3793103448275863,3.793103448275862,2.142857142857143,0,624374.9860378678,976652.8427469134,539757.3992522153,261530.275874541,302268.17409285816,4.162499906919119e-06,0.0,0.0,0.0,4.162499906919119e-06,0.0,24.12758662211065,1.825858367940024,0.016203114314371207,0.0
5017,1.3793103448275863,3.793103448275862,2.5,0,748856.4301037291,981594.0502484243,738536.4417181145,141401.0670308561,556626.0798320676,4.992376200691528e-06,0.0,0.0,0.0,4.992376200691528e-06,0.0,23.790582162406555,2.136834579963485,0.05566260798320676,0.0
5018,1.3793103448275863,3.793103448275862,2.857142857142857,0,456056.5660738073,746140.7281717391,833502.4737303954,340084.41600997146,298760.06395883637,3.0403771071587156e-06,0.0,0.0,0.0,3.0403771071587156e-06,0.0,24.443578844419097,2.433001225082881,0.016015061735896646,0.0
5019,1.3793103448275863,3.793103448275862,3.2142857142857144,0,301278.89855934295,567350.4385689686,398395.2207959372,219510.76804945775,93793.89239175894,2.00852599039562e-06,0.0,0.0,0.0,2.00852599039562e-06,0.0,23.616492006921312,2.7192666719667606,0.003704624115066704,0.0
5020,1.3793103448275863,3.793103448275862,3.5714285714285716,0,225971.04630281343,336867.6556788571,277788.4964077022,87225.47843923414,39875.17064939335,1.5064736420187563e-06,0.0,0.0,0.0,1.5064736420187563e-06,0.0,24.47000960639526,3.005333385500668,0.001403913470340481,0.0
5021,1.3793103448275863,3.793103448275862,3.928571428571429,0,353855.55422550195,434577.56367182574,237996.82053769112,26076.357626236862,41107.06722213266,2.359037028170013e-06,0.0,0.0,0.0,2.359037028170013e-06,0.0,24.050976754883465,3.297319424198019,0.0013936647100367067,0.0
5022,1.3793103448275863,3.793103448275862,4.285714285714286,0,244342.24695291385,302047.8899467102,130277.3496799494,22321.719154187256,-9837.139596378676,1.6289483130194256e-06,0.0,0.0,0.0,1.6289483130194256e-06,0.0,24.34473577037504,3.595406107473987,-0.00032960952362415263,0.0
5023,1.3793103448275863,3.793103448275862,4.642857142857143,0,189372.21317887722,307523.72976168164,128501.01978938386,109269.61818964772,16393.252879622145,1.2624814211925147e-06,0.0,0.0,0.0,1.2624814211925147e-06,0.0,23.466483497872463,3.8970552171219603,0.0005473056765051248,0.0
5024,1.3793103448275863,3.793103448275862,5.0,0,27464.14607382433,174214.50555683803,168446.97507225393,144324.61112788902,26275.343615112233,1.8309430715882886e-07,0.0,0.0,0.0,1.8309430715882886e-07,0.0,24.187237570941797,4.200119368820652,0.0008762658398762416,0.0
5025,1.7241379310344829,3.793103448275862,0.0,0,49766.783183501044,282204.5586048729,265072.54075982055,226134.832124126,-3475.2606499907783,3.317785545566736e-07,0.0,0.0,0.0,3.317785545566736e-07,0.0,24.2691423732996,-0.04987434892611723,-0.00011589771143854991,0.0
5026,1.7241379310344829,3.793103448275862,0.35714285714285715,0,202104.10842067414,342883.9900955113,185917.64651948336,114843.9867056114,-21124.754227271238,1.3473607228044941e-06,0.0,0.0,0.0,1.3473607228044941e-06,0.0,24.9344321203503,0.25423105395675066,-0.0007052717351620376,0.0
5027,1.7241379310344829,3.793103448275862,0.7142857142857143,0,187858.09257463264,231752.44438625284,175063.06103058613,22078.22310321442,4235.071653695562,1.2523872838308843e-06,0.0,0.0,0.0,1.2523872838308843e-06,0.0,24.360880547994277,0.5598259710384721,0.00014190303356095743,0.0
5028,1.7241379310344829,3.793103448275862,1.0714285714285714,0,129224.37082655997,258013.0319401802,179293.31396075434,108874.5661254122,-18195.20373473555,8.614958055103998e-07,0.0,0.0,0.0,8.614958055103998e-07,0.0,23.722675560367698,0.8691708011780938,-0.0006168772196761313,0.0
5029,1.7241379310344829,3.793103448275862,1.4285714285714286,0,175538.4813520955,408746.1794136063,237254.1803992165,229423.3176971218,-20411.100918491247,1.1702565423473034e-06,0.0,0.0,0.0,1.1702565423473034e-06,0.0,23.706722963366868,1.1849373462889363,-0.0007186281351847902,0.0
5030,1.7241379310344829,3.793103448275862,1.7857142857142858,0,341115.82420695946,356136.1962285324,525824.2100052226,133141.78931868915,64362.14677340414,2.274105494713063e-06,0.0,0.0,0.0,2.274105494713063e-06,0.0,24.40676908488339,1.50693474430913,0.0025421437894730735,0.0
5031,1.7241379310344829,3.793103448275862,2.142857142857143,0,423985.1579942158,907207.2356219282,501511.68032473174,467037.41620633635,268314.3693973238,2.8265677199614384e-06,0.0,0.0,0.0,2.8265677199614384e-06,0.0,23.7609628638929,1.8287229498559139,0.014383017373829375,0.0
5032,1.7241379310344829,3.793103448275862,2.5,0,365826.51772408595,787276.21981238,478178.6762766411,383382.1603303451,523827.0757869131,2.438843451493906e-06,0.0,0.0,0.0,2.438843451493906e-06,0.0,23.775947987554797,2.140088867704627,0.05238270757869132,0.0
5033,1.7241379310344829,3.793103448275862,2.857142857142857,0,255266.4700667122,690601.1392151752,527935.5228185585,396393.03026064654,166260.66716298932,1.7017764671114147e-06,0.0,0.0,0.0,1.7017764671114147e-06,0.0,23.610844003806363,2.435865806998771,0.008912418927696796,0.0
5034,1.7241379310344829,3.793103448275862,3.2142857142857144,0,140264.92990551508,391794.74961451173,531178.9414050566,390049.559233138,44364.61197259707,9.350995327034338e-07,0.0,0.0,0.0,9.350995327034338e-07,0.0,24.111705260510266,2.7212204585948445,0.0017522911905903681,0.0
5035,1.7241379310344829,3.793103448275862,3.5714285714285716,0,319101.90355053806,379486.54005522496,211487.15021645752,11483.009580882066,-75309.75703406558,2.127346023670254e-06,0.0,0.0,0.0,2.127346023670254e-06,0.0,24.15951556862698,3.006365917717508,-0.002651484134772022,0.0
5036,1.7241379310344829,3.793103448275862,3.928571428571429,0,296178.15486237995,452957.7576093256,140807.61350816113,175873.53271937903,-31545.501843990984,1.9745210324158665e-06,0.0,0.0,0.0,1.9745210324158665e-06,0.0,23.891544652082533,3.297742229749523,-0.001069496211996785,0.0
5037,1.7241379310344829,3.793103448275862,4.285714285714286,0,204004.15221972854,340737.9422503447,176749.38190201568,112290.5699987099,-2616.576634879938,1.360027681464857e-06,0.0,0.0,0.0,1.360027681464857e-06,0.0,24.90685807141309,3.595540256752758,-8.767269892828968e-05,0.0
5038,1.7241379310344829,3.793103448275862,4.642857142857143,0,168329.10277176858,242966.5424871852,213183.99221536965,61733.94171501615,35634.531102951485,1.1221940184784573e-06,0.0,0.0,0.0,1.1221940184784573e-06,0.0,24.34963702078248,3.8970881968138937,0.0011896956202321028,0.0
5039,1.7241379310344829,3.793103448275862,5.0,0,215721.06134525614,360386.4332742881,246003.6759004309,111562.55494393066,15766.43847375219,1.4381404089683743e-06,0.0,0.0,0.0,1.4381404089683743e-06,0.0,24.947956647934028,4.200125651073883,0.000525800600495802,0.0
5040,2.0689655172413794,3.793103448275862,0.0,0,51315.69155145729,262094.3064939267,252220.30770457422,206559.10248352122,2526.098177001528,3.421046103430486e-07,0.0,0.0,0.0,3.421046103430486e-07,0.0,24.159778364790423,-0.04986814590960637,8.424375235979693e-05,0.0
5041,2.0689655172413794,3.793103448275862,0.35714285714285715,0,199407.08979315864,356808.15688555903,137377.0741487343,186671.69690045054,-10544.005963369958,1.3293805986210575e-06,0.0,0.0,0.0,1.3293805986210575e-06,0.0,23.73266899265822,0.2542636176828669,-0.00035202252775772946,0.0
5042,2.0689655172413794,3.793103448275862,0.7142857142857143,0,283111.6523334391,326063.0387670105,143143.006251143,-40.119230172803434,-7031.855103972355,1.8874110155562607e-06,0.0,0.0,0.0,1.8874110155562607e-06,0.0,23.60652573263409,0.5599584283210141,-0.00023561385790109434,0.0
5043,2.0689655172413794,3.793103448275862,1.0714285714285714,0,97894.4792415891,118993.84638773237,183781.36111601323,71167.51575964039,37956.50700387772,6.52629861610594e-07,0.0,0.0,0.0,6.52629861610594e-07,0.0,24.04703593171289,0.8695882739733939,0.0012868503618055254,0.0
5044,2.0689655172413794,3.793103448275862,1.4285714285714286,0,77911.74196905861,268647.27620111563,281325.0891180076,197851.9209376369,-32964.69852749058,5.194116131270574e-07,0.0,0.0,0.0,5.194116131270574e-07,0.0,24.489916168148653,1.1859568553972437,-0.0011606115674181103,0.0
5045,2.0689655172413794,3.793103448275862,1.7857142857142858,0,370004.5931987334,572482.135637669,215725.49801068963,190518.6377958933,15786.002668810244,2.466697287991556e-06,0.0,0.0,0.0,2.466697287991556e-06,0.0,23.96945151176137,1.5088638882433667,0.0006235076152199454,0.0
5046,2.0689655172413794,3.793103448275862,2.142857142857143,0,403317.81137609016,735075.9922526733,412747.6711396149,282804.29653168406,345186.6259296405,2.6887854091739343e-06,0.0,0.0,0.0,2.6887854091739343e-06,0.0,24.551204266709984,1.8315514014113343,0.018503762020317203,0.0
5047,2.0689655172413794,3.793103448275862,2.5,0,528719.4596443344,667566.8492975959,488095.7715707506,72473.154072499,455488.4347010135,3.5247963976288958e-06,0.0,0.0,0.0,3.5247963976288958e-06,0.0,24.82915017247707,2.143302109808879,0.04554884347010135,0.0
5048,2.0689655172413794,3.793103448275862,2.857142857142857,0,449498.0862851089,623031.2596366584,633781.087272265,179004.50403352073,407421.8669431346,2.9966539085673923e-06,0.0,0.0,0.0,2.9966539085673923e-06,0.0,23.72888322465207,2.4386942585541913,0.02183988805326932,0.0
5049,2.0689655172413794,3.793103448275862,3.2142857142857144,0,291743.069502424,297949.1066771816,387947.1529388224,61808.87186896594,83982.37682367748,1.9449537966828264e-06,0.0,0.0,0.0,1.9449537966828264e-06,0.0,23.58721090160344,2.7231496025290816,0.0033170937945736756,0.0
5050,2.0689655172413794,3.793103448275862,3.5714285714285716,0,291334.2818309839,330210.5689855013,296063.6935134366,23307.600418677637,43049.52977093909,1.9422285455398924e-06,0.0,0.0,0.0,1.9422285455398924e-06,0.0,24.615778796940166,3.0073854268258153,0.0015156753877908337,0.0
5051,2.0689655172413794,3.793103448275862,3.928571428571429,0,327894.1186824839,417154.4775291769,279928.30907570146,42941.512600161055,-46837.7002510394,2.1859607912165593e-06,0.0,0.0,0.0,2.1859607912165593e-06,0.0,24.28091829981281,3.2981597025448233,-0.0015879520080188403,0.0
5052,2.0689655172413794,3.793103448275862,4.285714285714286,0,230575.14087666388,325965.16322431207,179372.73661265807,60190.66299922365,29748.97904277007,1.5371676058444258e-06,0.0,0.0,0.0,1.5371676058444258e-06,0.0,24.31389645051685,3.5956727140352998,0.0009967884174584688,0.0
5053,2.0689655172413794,3.793103448275862,4.642857142857143,0,307520.07190093916,402479.4857792678,129446.11994783516,69345.96615054747,-23772.014878934082,2.0501338126729278e-06,0.0,0.0,0.0,2.0501338126729278e-06,0.0,24.504580727939445,3.89712076054001,-0.0007936532658126601,0.0
5054,2.0689655172413794,3.793103448275862,5.0,0,238639.56635066206,329198.6531547202,129781.04707460552,64798.30079597681,20028.292089447026,1.5909304423377472e-06,0.0,0.0,0.0,1.5909304423377472e-06,0.0,23.397664510015204,4.200131854090394,0.000667930682320442,0.0
5055,2.413793103448276,3.793103448275862,0.0,0,209700.8429892071,326647.8500000446,90063.11923798565,163687.90769719027,-9855.052124442913,1.3980056199280474e-06,0.0,0.0,0.0,1.3980056199280474e-06,0.0,24.405208388086255,-0.04986204889988007,-0.00032865966106271306,0.0
5056,2.413793103448276,3.793103448275862,0.35714285714285715,0,281265.7724767353,378021.826969898,164846.50815759084,59236.977775830375,6038.435353931407,1.875105149844902e-06,0.0,0.0,0.0,1.875105149844902e-06,0.0,24.279554433787744,0.2542956249094329,0.00020159940011198476,0.0
5057,2.413793103448276,3.793103448275862,0.7142857142857143,0,115462.10323599158,292398.81511506974,169426.26232827848,186305.24414440055,-30072.881223590597,7.697473549066105e-07,0.0,0.0,0.0,7.697473549066105e-07,0.0,24.425001804457175,0.5600886219676963,-0.0010076412921661106,0.0
5058,2.413793103448276,3.793103448275862,1.0714285714285714,0,171878.66225669257,269622.3017347552,240198.34211563435,84931.06586905288,-48015.85945234419,1.1458577483779505e-06,0.0,0.0,0.0,1.1458577483779505e-06,0.0,23.721398110017912,0.8699986123448872,-0.0016278954779042195,0.0
5059,2.413793103448276,3.793103448275862,1.4285714285714286,0,207941.92407870543,392748.6030600183,228964.29012788835,158800.9701468135,8992.658649814819,1.3862794938580361e-06,0.0,0.0,0.0,1.3862794938580361e-06,0.0,24.243852695096777,1.186958941549767,0.0003166109237162835,0.0
5060,2.413793103448276,3.793103448275862,1.7857142857142858,0,349035.3162799837,601885.0624917452,280681.93289586506,230458.7738969331,35418.614937697654,2.3269021085332243e-06,0.0,0.0,0.0,2.3269021085332243e-06,0.0,23.966440108392877,1.5107600639684984,0.0013989466869804986,0.0
5061,2.413793103448276,3.793103448275862,2.142857142857143,0,416580.58645872195,624550.369802968,467580.2465975168,152289.14039682926,198819.25699754007,2.777203909724813e-06,0.0,0.0,0.0,2.777203909724813e-06,0.0,24.734851113808098,1.8343315159916496,0.01065772524248561,0.0
5062,2.413793103448276,3.793103448275862,2.5,0,376388.8620186919,695579.2453858188,400109.0586752869,271815.88893842226,332305.6091404389,2.5092590801246126e-06,0.0,0.0,0.0,2.5092590801246126e-06,0.0,24.17434530218321,2.1464604390392297,0.03323056091404389,0.0
5063,2.413793103448276,3.793103448275862,2.857142857142857,0,466629.9846042535,710055.1614589,625292.530668924,206853.90850919037,75757.65376331424,3.1108665640283565e-06,0.0,0.0,0.0,3.1108665640283565e-06,0.0,23.922438261932122,2.4414743731345068,0.004060996258701183,0.0
5064,2.413793103448276,3.793103448275862,3.2142857142857144,0,307899.77075085277,543845.51383146,253115.48180107522,221253.7921956523,73532.06591268639,2.0526651383390184e-06,0.0,0.0,0.0,2.0526651383390184e-06,0.0,23.731777962580807,2.725045778254213,0.0029043326560434673,0.0
5065,2.413793103448276,3.793103448275862,3.5714285714285716,0,241322.71886205638,377477.44729452813,153649.3151681245,121819.2332092973,-4211.072803336071,1.6088181257470426e-06,0.0,0.0,0.0,1.6088181257470426e-06,0.0,24.66835706979751,3.0083875129783384,-0.00014826223278565213,0.0
5066,2.413793103448276,3.793103448275862,3.928571428571429,0,155226.90039257592,200326.13768847284,241897.41595008597,70117.53115654453,-16735.410106075484,1.0348460026171728e-06,0.0,0.0,0.0,1.0348460026171728e-06,0.0,24.727265869951506,3.2985700409163163,-0.0005673854168869364,0.0
5067,2.413793103448276,3.793103448275862,4.285714285714286,0,226960.8945566496,375831.5944528731,221540.35048221526,115227.78463324546,5789.809224921466,1.513072630377664e-06,0.0,0.0,0.0,1.513072630377664e-06,0.0,25.203104874347282,3.595802907681982,0.00019399707016495068,0.0
5068,2.413793103448276,3.793103448275862,4.642857142857143,0,127488.33421717859,236265.58727324026,96283.06885186308,126816.1696694179,27492.33699614153,8.499222281145239e-07,0.0,0.0,0.0,8.499222281145239e-07,0.0,24.085106127288856,3.8971527677665763,0.0009178600616284112,0.0
5069,2.413793103448276,3.793103448275862,5.0,0,41668.15457068788,256600.85262042502,236011.0818618752,208645.89408124358,7304.3243388324945,2.777876971379192e-07,0.0,0.0,0.0,2.777876971379192e-07,0.0,23.744397773405005,4.20013795110012,0.00024359452706887802,0.0
5070,2.7586206896551726,3.793103448275862,0.0,0,95355.31068902413,218632.59653442833,147187.42732496292,110354.33590036309,-11822.586660844625,6.357020712601609e-07,0.0,0.0,0.0,6.357020712601609e-07,0.0,24.20969574949416,-0.049856097368700156,-0.0003942756746258602,0.0
5071,2.7586206896551726,3.793103448275862,0.35714285714285715,0,278624.13884834544,410860.821035013,166829.45190381492,107274.40945388767,56905.63020755858,1.8574942589889695e-06,0.0,0.0,0.0,1.8574942589889695e-06,0.0,23.92852792805184,0.2543268684231292,0.001899853230252627,0.0
5072,2.7586206896551726,3.793103448275862,0.7142857142857143,0,130703.90610847269,280663.16526427155,197404.95672515413,130017.71311442899,-17015.525444793817,8.713593740564845e-07,0.0,0.0,0.0,8.713593740564845e-07,0.0,23.96758328741768,0.5602157091108106,-0.000570133134853324,0.0
5073,2.7586206896551726,3.793103448275862,1.0714285714285714,0,169216.2441176716,228862.55601104363,225420.53477173517,57951.55856996862,-38701.25561587044,1.1281082941178107e-06,0.0,0.0,0.0,1.1281082941178107e-06,0.0,24.524084463695342,0.8703991597807431,-0.0013120997879631823,0.0
5074,2.7586206896551726,3.793103448275862,1.4285714285714286,0,315336.6853836918,375891.50952196505,252914.6415577449,17595.490380620013,7228.040074840425,2.102244569224612e-06,0.0,0.0,0.0,2.102244569224612e-06,0.0,24.837632077733414,1.187937117286633,0.00025448274352109066,0.0
5075,2.7586206896551726,3.793103448275862,1.7857142857142858,0,325558.167511753,529754.1324644,316814.86913696077,154992.1732290813,36629.507030262015,2.1703877834116867e-06,0.0,0.0,0.0,2.1703877834116867e-06,0.0,24.50293821833078,1.5126109957296925,0.0014467738954742114,0.0
5076,2.7586206896551726,3.793103448275862,2.142857142857143,0,236526.82758552826,654702.6978631672,418397.7757113973,417954.5876562593,320986.4162352709,1.5768455172368551e-06,0.0,0.0,0.0,1.5768455172368551e-06,0.0,24.357690063241957,1.8370452952623488,0.01720650747049098,0.0
5077,2.7586206896551726,3.793103448275862,2.5,0,375005.27809982403,934949.7985301471,626258.5599624066,517618.9172516888,419700.1333011699,2.50003518733216e-06,0.0,0.0,0.0,2.50003518733216e-06,0.0,24.716074465258643,2.149543408516839,0.04197001333011699,0.0
5078,2.7586206896551726,3.793103448275862,2.857142857142857,0,506301.38697003457,567962.9209372754,460063.38727372163,16409.534319456965,245326.54947881697,3.3753425798002307e-06,0.0,0.0,0.0,3.3753425798002307e-06,0.0,24.196810079219638,2.444188152405206,0.013150753093623284,0.0
5079,2.7586206896551726,3.793103448275862,3.2142857142857144,0,215274.65490390285,413865.31025379384,487167.1523124592,244814.24537365767,8613.208401289849,1.435164366026019e-06,0.0,0.0,0.0,1.435164366026019e-06,0.0,25.040243604216588,2.726896710015407,0.00034020018508494187,0.0
5080,2.7586206896551726,3.793103448275862,3.5714285714285716,0,246289.03701103167,191652.25557314616,261948.58070610111,-11845.993432858904,29915.25009575715,1.6419269134068778e-06,0.0,0.0,0.0,1.6419269134068778e-06,0.0,25.8195668067138,3.0093656887152047,0.0010532474693917522,0.0
5081,2.7586206896551726,3.793103448275862,3.928571428571429,0,64130.82290623733,202772.93273652816,142125.84819560268,135649.78721894397,4136.463623066994,4.275388193749155e-07,0.0,0.0,0.0,4.275388193749155e-07,0.0,24.00994112299472,3.2989705883521725,0.00014023971461323733,0.0
5082,2.7586206896551726,3.793103448275862,4.285714285714286,0,221236.41031744907,364484.0617467559,161820.85624110064,128462.9341570647,-7363.02932119261,1.4749094021163271e-06,0.0,0.0,0.0,1.4749094021163271e-06,0.0,24.934106958658788,3.5959299948250965,-0.00024671039413554546,0.0
5083,2.7586206896551726,3.793103448275862,4.642857142857143,0,294247.2301335946,354453.91811445996,189367.4825026528,14731.222075875306,-4002.4680888181247,1.9616482008906305e-06,0.0,0.0,0.0,1.9616482008906305e-06,0.0,24.939623397567317,3.8971840112802725,-0.00013362653044679128,0.0
5084,2.7586206896551726,3.793103448275862,5.0,0,103852.75299003995,270308.2978729281,256095.58007318137,160081.16854745703,-568.5593849571192,6.923516866002663e-07,0.0,0.0,0.0,6.923516866002663e-07,0.0,24.602531990030823,4.2001439026313,-1.8961090453349008e-05,0.0
5085,3.1034482758620694,3.793103448275862,0.0,0,135862.1908083897,355714.5435285223,262189.6218478667,199872.51695874307,-38368.2617123996,9.057479387225981e-07,0.0,0.0,0.0,9.057479387225981e-07,0.0,25.00091515361832,-0.049850351211370436,-0.001279556894345249,0.0
5086,3.1034482758620694,3.793103448275862,0.35714285714285715,0,135077.22876879215,258440.70376354826,165739.14723200552,103459.01924026423,31042.988930861608,9.005148584586143e-07,0.0,0.0,0.0,9.005148584586143e-07,0.0,24.539853099604596,0.25435703379399005,0.0010364022431854246,0.0
5087,3.1034482758620694,3.793103448275862,0.7142857142857143,0,130223.05824574111,254801.6310542009,137475.42443018078,114689.36673799765,29574.10751109882,8.68153721638274e-07,0.0,0.0,0.0,8.68153721638274e-07,0.0,24.691606346032856,0.560338410764695,0.0009909290594931916,0.0
5088,3.1034482758620694,3.793103448275862,1.0714285714285714,0,126001.6033166122,279063.85703734984,134578.5504963151,192009.0066420195,1299.4091127809627,8.400106887774147e-07,0.0,0.0,0.0,8.400106887774147e-07,0.0,24.412896521522804,0.8707858852325415,4.405424046909134e-05,0.0
5089,3.1034482758620694,3.793103448275862,1.4285714285714286,0,229273.67423024029,312665.3730839457,240663.726807009,56033.09277063906,1908.330618351089,1.5284911615349353e-06,0.0,0.0,0.0,1.5284911615349353e-06,0.0,24.44684116245048,1.1888815383961318,6.718795223530994e-05,0.0
5090,3.1034482758620694,3.793103448275862,1.7857142857142858,0,411873.9434588034,439593.9244469849,533210.6589232262,82586.64616129811,2605.0155638979995,2.7458262897253562e-06,0.0,0.0,0.0,2.7458262897253562e-06,0.0,24.699441620002766,1.5143980560314678,0.00010289159807796351,0.0
5091,3.1034482758620694,3.793103448275862,2.142857142857143,0,589740.0578636687,836231.4576260401,549796.3002526552,157981.62634665915,374254.6736921878,3.931600385757791e-06,0.0,0.0,0.0,3.931600385757791e-06,0.0,24.59678162578301,1.839665428161964,0.020061957494272278,0.0
5092,3.1034482758620694,3.793103448275862,2.5,0,509401.115911412,824846.1718019143,305279.1345945487,326259.24602517264,581017.1153478674,3.396007439409413e-06,0.0,0.0,0.0,3.396007439409413e-06,0.0,23.86736843931472,2.152519991706198,0.05810171153478673,0.0
5093,3.1034482758620694,3.793103448275862,2.857142857142857,0,458680.14954340435,777575.6786745328,377592.75758014625,276922.07100908144,283535.61795666703,3.0578676636226955e-06,0.0,0.0,0.0,3.0578676636226955e-06,0.0,24.65014582492864,2.446808285304821,0.015198953855249116,0.0
5094,3.1034482758620694,3.793103448275862,3.2142857142857144,0,373292.5343209391,554120.5897318126,264234.4239289573,132913.45861411936,86058.07006432342,2.4886168954729275e-06,0.0,0.0,0.0,2.4886168954729275e-06,0.0,24.277554641486397,2.7286837703171822,0.003399078485033686,0.0
5095,3.1034482758620694,3.793103448275862,3.5714285714285716,0,212271.87724872187,345573.74921969476,171754.5876519523,108999.4625943603,43489.63640357243,1.4151458483248125e-06,0.0,0.0,0.0,1.4151458483248125e-06,0.0,24.12706283996412,3.0103101098247036,0.0015311705347677044,0.0
5096,3.1034482758620694,3.793103448275862,3.928571428571429,0,124459.1649512955,222396.76820364405,171754.08361636836,80599.79492343862,28529.385403609507,8.297277663419701e-07,0.0,0.0,0.0,8.297277663419701e-07,0.0,24.894764942969505,3.299357313803971,0.0009672399497923633,0.0
5097,3.1034482758620694,3.793103448275862,4.285714285714286,0,120971.98127417231,195370.16629100227,207276.2597776492,80791.458061563,-22928.64357300021,8.064798751611487e-07,0.0,0.0,0.0,8.064798751611487e-07,0.0,23.947597055120564,3.596052696478981,-0.0007682618724071693,0.0
5098,3.1034482758620694,3.793103448275862,4.642857142857143,0,188734.19351824213,274932.8449584424,223308.0144591437,65758.074084962,-8306.67879609085,1.258227956788281e-06,0.0,0.0,0.0,1.258227956788281e-06,0.0,24.283711409760674,3.8972141766511332,-0.0002773270498167333,0.0
5099,3.1034482758620694,3.793103448275862,5.0,0,185613.8944872877,257792.5906876721,245140.9063875682,66176.51946437448,12497.443183843194,1.2374259632485847e-06,0.0,0.0,0.0,1.2374259632485847e-06,0.0,23.890973575184447,4.20014964878863,0.0004167817063864186,0.0
5100,3.4482758620689657,3.793103448275862,0.0,0,251917.41468636933,275682.5210466273,218068.98998048165,-51.14581724802425,5509.024825245596,1.6794494312424621e-06,0.0,0.0,0.0,1.6794494312424621e-06,0.0,24.237265994030423,-0.049844903834056674,0.00018372244093570826,0.0
5101,3.4482758620689657,3.793103448275862,0.35714285714285715,0,180423.87008564486,270130.3384225376,83785.2019301211,96276.9764525524,20407.971297350414,1.2028258005709658e-06,0.0,0.0,0.0,1.2028258005709658e-06,0.0,25.63949576201928,0.2543856306714265,0.0006813411968333514,0.0
5102,3.4482758620689657,3.793103448275862,0.7142857142857143,0,362753.0786990934,412342.6171786342,132816.98899268798,2415.2911746594455,17504.47750370204,2.418353857993956e-06,0.0,0.0,0.0,2.418353857993956e-06,0.0,24.065390318712527,0.5604547323631786,0.0005865162768869207,0.0
5103,3.4482758620689657,3.793103448275862,1.0714285714285714,0,45200.67909902727,205574.74312665573,187208.12447421724,154081.8381929367,7096.9770211972045,3.013378606601818e-07,0.0,0.0,0.0,3.013378606601818e-07,0.0,24.37687929417814,0.871152502317995,0.00024061085090153582,0.0
5104,3.4482758620689657,3.793103448275862,1.4285714285714286,0,128086.71986180077,195952.23928986065,237435.18193343547,93748.26780396268,-80659.17071716892,8.539114657453385e-07,0.0,0.0,0.0,8.539114657453385e-07,0.0,25.153290040341506,1.1897768529222248,-0.0028398247438735083,0.0
5105,3.4482758620689657,3.793103448275862,1.7857142857142858,0,287518.2210420157,497263.0531188277,406717.7315615727,175371.72704583625,103800.68121029314,1.9167881402801047e-06,0.0,0.0,0.0,1.9167881402801047e-06,0.0,24.681266940538777,1.516092195468941,0.004099867240457873,0.0
5106,3.4482758620689657,3.793103448275862,2.142857142857143,0,363197.85125411296,638813.0487245298,489541.3373139579,224764.24941658162,318513.19210482494,2.421319008360753e-06,0.0,0.0,0.0,2.421319008360753e-06,0.0,24.39746362347831,1.8421493233457185,0.017073930054985878,0.0
5107,3.4482758620689657,3.793103448275862,2.5,0,501233.21250990574,864216.6165719589,577227.4328633535,285448.9614014184,637198.3275132596,3.3415547500660384e-06,0.0,0.0,0.0,3.3415547500660384e-06,0.0,24.125029466884996,2.1553418030155322,0.06371983275132596,0.0
5108,3.4482758620689657,3.793103448275862,2.857142857142857,0,293381.3926062247,771492.9357842042,516429.9197433909,450881.69057294,227564.27584087942,1.9558759507081644e-06,0.0,0.0,0.0,1.9558759507081644e-06,0.0,24.812998225502295,2.4492921804885754,0.012198604720403449,0.0
5109,3.4482758620689657,3.793103448275862,3.2142857142857144,0,455598.55205634894,586015.0518995624,302605.7324633656,60475.25976342243,-36813.6568364177,3.0373236803756596e-06,0.0,0.0,0.0,3.0373236803756596e-06,0.0,24.319001084382545,2.7303779097546554,-0.001454047352148978,0.0
5110,3.4482758620689657,3.793103448275862,3.5714285714285716,0,205986.8124309172,227376.97834679545,233503.53124520936,24521.78571749292,-1782.0435374894491,1.3732454162061147e-06,0.0,0.0,0.0,1.3732454162061147e-06,0.0,25.573028763824514,3.0112054243507966,-6.274167323350883e-05,0.0
5111,3.4482758620689657,3.793103448275862,3.928571428571429,0,135584.25790719286,248905.42044763386,259131.57818222645,118723.7829889235,12970.755487006098,9.038950527146191e-07,0.0,0.0,0.0,9.038950527146191e-07,0.0,24.349124056473748,3.2997239308894244,0.0004397512497564533,0.0
5112,3.4482758620689657,3.793103448275862,4.285714285714286,0,184825.77293151664,295178.72784474335,185743.44809355665,81783.72348679173,-12013.721875016558,1.2321718195434443e-06,0.0,0.0,0.0,1.2321718195434443e-06,0.0,25.340153453467284,3.596169018077464,-0.00040253948877933937,0.0
5113,3.4482758620689657,3.793103448275862,4.642857142857143,0,163318.659049569,312759.66798863764,188062.79557386343,127891.83780123809,37175.707941908164,1.08879106033046e-06,0.0,0.0,0.0,1.08879106033046e-06,0.0,24.93868587581133,3.8972427735285695,0.0012411494005558194,0.0
5114,3.4482758620689657,3.793103448275862,5.0,0,225050.44163024978,389808.477439326,187842.8125609066,147209.6009385978,-17886.270263203707,1.5003362775349986e-06,0.0,0.0,0.0,1.5003362775349986e-06,0.0,24.93912617798158,4.200155096165943,-0.0005964956296680078,0.0
5115,3.793103448275862,3.793103448275862,0.0,0,255735.9652646784,331547.9587319211,267087.1692305463,49748.958398517454,-2808.091327986884,1.7049064350978562e-06,0.0,0.0,0.0,1.7049064350978562e-06,0.0,24.433228416665514,-0.049839903760423694,-9.364804289571256e-05,0.0
5116,3.793103448275862,3.793103448275862,0.35714285714285715,0,136549.04741688963,275238.0040538613,133183.58741017178,144956.68714471458,-6848.323218783224,9.103269827792642e-07,0.0,0.0,0.0,9.103269827792642e-07,0.0,24.287361961379123,0.2544118793567332,-0.0002286383428417105,0.0
5117,3.793103448275862,3.793103448275862,0.7142857142857143,0,215025.36943678703,229551.0405712853,294696.9731550728,54632.042916937935,77487.30694829195,1.4335024629119135e-06,0.0,0.0,0.0,1.4335024629119135e-06,0.0,24.39184876239831,0.5605615023781827,0.0025963395232845112,0.0
5118,3.793103448275862,3.793103448275862,1.0714285714285714,0,129309.50993714455,255265.90073565926,133719.3953568867,119387.49088086594,-25887.030297841167,8.620633995809637e-07,0.0,0.0,0.0,8.620633995809637e-07,0.0,25.049270667116858,0.8714890151601928,-0.0008776554254964557,0.0
5119,3.793103448275862,3.793103448275862,1.4285714285714286,0,211779.8933994458,294745.71222390124,190316.50061548225,51032.730263616555,23722.22987842907,1.4118659559963054e-06,0.0,0.0,0.0,1.4118659559963054e-06,0.0,24.793357416678713,1.1905986499627639,0.0008352054055308896,0.0
5120,3.793103448275862,3.793103448275862,1.7857142857142858,0,294221.67462126,541770.168899558,406645.01599423017,204258.914720604,-7081.538898107923,1.9614778308084002e-06,0.0,0.0,0.0,1.9614778308084002e-06,0.0,23.603032196101452,1.5176472230434976,-0.00027970307132726014,0.0
5121,3.793103448275862,3.793103448275862,2.142857142857143,0,423213.3495162824,746161.0689611251,643018.3737421175,280910.2227950574,292004.6714156301,2.821422330108549e-06,0.0,0.0,0.0,2.821422330108549e-06,0.0,23.89649054911994,1.8444292569908542,0.01565293827402535,0.0
5122,3.793103448275862,3.793103448275862,2.5,0,403223.7282129881,613971.4473464221,350127.5973823597,149815.88150138667,402110.6953998137,2.6881581880865874e-06,0.0,0.0,0.0,2.6881581880865874e-06,0.0,24.4778960821843,2.1579319052817043,0.04021106953998137,0.0
5123,3.793103448275862,3.793103448275862,2.857142857142857,0,482956.3231583744,647813.2572666439,341684.04486023297,91065.00132985183,345726.2943693063,3.219708821055829e-06,0.0,0.0,0.0,3.219708821055829e-06,0.0,24.818345168222084,2.4515721141337115,0.018532690998520104,0.0
5124,3.793103448275862,3.793103448275862,3.2142857142857144,0,264461.79526604956,563067.7952354398,361916.5310242784,263510.58650772413,93955.43513299941,1.763078635106997e-06,0.0,0.0,0.0,1.763078635106997e-06,0.0,24.440356366457213,2.731932937329212,0.003711004649231059,0.0
5125,3.793103448275862,3.793103448275862,3.5714285714285716,0,272419.49221440265,357901.786295478,390855.77527073375,103458.30223577078,13282.394174023942,1.8161299480960176e-06,0.0,0.0,0.0,1.8161299480960176e-06,0.0,24.308321315679244,3.0120272213913353,0.0004676426908173705,0.0
5126,3.793103448275862,3.793103448275862,3.928571428571429,0,130089.78060818897,320463.92496016144,273137.55941930274,173336.12230935297,-39852.52435639684,8.672652040545931e-07,0.0,0.0,0.0,8.672652040545931e-07,0.0,24.072329331870325,3.3000604437316223,-0.0013511315828311987,0.0
5127,3.793103448275862,3.793103448275862,4.285714285714286,0,190163.8101411812,300677.9321535612,181644.00438035917,81362.75890097793,-1482.0370350796427,1.2677587342745414e-06,0.0,0.0,0.0,1.2677587342745414e-06,0.0,25.02566522795232,3.5962757880924685,-4.9658085700621815e-05,0.0
5128,3.793103448275862,3.793103448275862,4.642857142857143,0,269165.6946455034,368959.6540170438,60182.88807725881,183865.36305175372,-8467.157270745882,1.7944379643033562e-06,0.0,0.0,0.0,1.7944379643033562e-06,0.0,24.623651535611486,3.8972690222138766,-0.00028268478941732004,0.0
5129,3.793103448275862,3.793103448275862,5.0,0,203201.6108337053,291485.1708653223,199386.3938274725,58542.079679582166,23113.561565157404,1.3546774055580353e-06,0.0,0.0,0.0,1.3546774055580353e-06,0.0,25.41885691032152,4.200160096239577,0.0007708224384846873,0.0
5130,4.137931034482759,3.793103448275862,0.0,0,57994.26527906842,266310.2936593798,222924.68101145444,200440.55594999727,-26044.9870406989,3.866284351937895e-07,0.0,0.0,0.0,3.866284351937895e-07,0.0,23.926386469507072,-0.04983558630084781,-0.0008685835960165183,0.0
5131,4.137931034482759,3.793103448275862,0.35714285714285715,0,95487.17579302557,235781.78492225613,179960.72987412458,125525.59509037192,33340.65009408575,6.365811719535038e-07,0.0,0.0,0.0,6.365811719535038e-07,0.0,24.926586108338356,0.2544345445504983,0.0011131120338872518,0.0
5132,4.137931034482759,3.793103448275862,0.7142857142857143,0,158314.8350935745,304025.31046657753,153429.88229840825,138981.56710074685,28016.617652011588,1.0554322339571633e-06,0.0,0.0,0.0,1.0554322339571633e-06,0.0,24.859548036969727,0.5606536960652228,0.0009387428029626677,0.0
5133,4.137931034482759,3.793103448275862,1.0714285714285714,0,138306.5199994563,152703.64862909936,218328.74720772813,59426.13763700636,-40811.48817425139,9.22043466663042e-07,0.0,0.0,0.0,9.22043466663042e-07,0.0,25.014016581000046,0.8717795869996491,-0.0013836436086569277,0.0
5134,4.137931034482759,3.793103448275862,1.4285714285714286,0,150970.99913350382,333914.1555906796,177349.76081152755,189239.67480200075,-3255.555125905732,1.0064733275566922e-06,0.0,0.0,0.0,1.0064733275566922e-06,0.0,25.00851300702627,1.1913082546131226,-0.00011462064287779022,0.0
5135,4.137931034482759,3.793103448275862,1.7857142857142858,0,235684.1138235711,476185.6760498523,533624.8733544293,274530.45952357916,49763.994298038306,1.571227425490474e-06,0.0,0.0,0.0,1.571227425490474e-06,0.0,24.346393910239826,1.5189899570081002,0.0019655532853731206,0.0
5136,4.137931034482759,3.793103448275862,2.142857142857143,0,427942.58997121477,535009.7595963982,738271.4647620373,246578.60464562205,351536.1963404331,2.8529505998080983e-06,0.0,0.0,0.0,2.8529505998080983e-06,0.0,24.514326474000395,1.8463979322686783,0.018844131348057326,0.0
5137,4.137931034482759,3.793103448275862,2.5,0,735810.0678102402,705033.8075902681,719955.8856543552,-23201.73117358743,440084.38830692804,4.905400452068268e-06,0.0,0.0,0.0,4.905400452068268e-06,0.0,24.692589711314884,2.1601684047119956,0.0440084388306928,0.0
5138,4.137931034482759,3.793103448275862,2.857142857142857,0,628418.8494646797,854957.6563385931,528267.0310912143,130483.85852268022,292793.4867493931,4.189458996431198e-06,0.0,0.0,0.0,4.189458996431198e-06,0.0,24.11270705655477,2.453540789411535,0.015695222795259676,0.0
5139,4.137931034482759,3.793103448275862,3.2142857142857144,0,374314.42314563686,519546.6854835391,282070.09043806884,88054.59105490203,106896.12204947829,2.495429487637579e-06,0.0,0.0,0.0,2.495429487637579e-06,0.0,25.134675339886844,2.7332756712938147,0.004222129410063866,0.0
5140,4.137931034482759,3.793103448275862,3.5714285714285716,0,160595.92742239425,353750.3276464441,241243.382348623,169834.43942633364,13069.236549370573,1.070639516149295e-06,0.0,0.0,0.0,1.070639516149295e-06,0.0,23.38633638007575,3.0127368260416945,0.0004601378988457479,0.0
5141,4.137931034482759,3.793103448275862,3.928571428571429,0,220209.7819949348,316609.97164977493,306642.6972362323,91585.79688950969,-55218.506571317404,1.4680652132995654e-06,0.0,0.0,0.0,1.4680652132995654e-06,0.0,24.047192460045785,3.3003510155710782,-0.0018720888924895313,0.0
5142,4.137931034482759,3.793103448275862,4.285714285714286,0,187498.58809941995,294933.8795280299,253005.75538246284,90020.78961464758,-14315.766616963685,1.2499905873294663e-06,0.0,0.0,0.0,1.2499905873294663e-06,0.0,23.794009455118513,3.5963679817795087,-0.00047967327989012167,0.0
5143,4.137931034482759,3.793103448275862,4.642857142857143,0,240561.5925834308,360397.8931037468,213812.63489747365,82766.20414242573,26100.52026115642,1.6037439505562052e-06,0.0,0.0,0.0,1.6037439505562052e-06,0.0,25.18767363860944,3.8972916874076415,0.0008713928226182033,0.0
5144,4.137931034482759,3.793103448275862,5.0,0,83010.22122387402,295714.92665652285,255343.67693234977,200241.06583145304,22492.06077697359,5.534014748258268e-07,0.0,0.0,0.0,5.534014748258268e-07,0.0,24.750332939104243,4.200164413699152,0.0007500957862239567,0.0
5145,4.482758620689656,3.793103448275862,0.0,0,108515.80300605162,213288.72158400607,243629.3188011318,123172.4321462783,-67729.88813692555,7.234386867070107e-07,0.0,0.0,0.0,7.234386867070107e-07,0.0,24.358373794014817,-0.049832302691019965,-0.002258748284414147,0.0
5146,4.482758620689656,3.793103448275862,0.35714285714285715,0,233299.4126811895,399349.7964465785,234682.82683696557,132375.55829333578,6045.516094021081,1.5553294178745967e-06,0.0,0.0,0.0,1.5553294178745967e-06,0.0,24.677729636506044,0.2544517823848519,0.00020183579793207535,0.0
5147,4.482758620689656,3.793103448275862,0.7142857142857143,0,219198.87279830463,324502.09517618484,270737.43799019454,83423.20483603641,28585.318060011945,1.4613258186553642e-06,0.0,0.0,0.0,1.4613258186553642e-06,0.0,24.76643190480225,0.5607238132467527,0.0009577980444512468,0.0
5148,4.482758620689656,3.793103448275862,1.0714285714285714,0,141270.49543354506,274583.180058728,250072.9259356443,122661.34808096186,16974.38478029475,9.418033028903004e-07,0.0,0.0,0.0,9.418033028903004e-07,0.0,24.019235422196683,0.8720005791203549,0.0005754874439240924,0.0
5149,4.482758620689656,3.793103448275862,1.4285714285714286,0,222408.80575268625,271046.9348643096,315318.57103245106,74103.55825024634,28188.243945921975,1.482725371684575e-06,0.0,0.0,0.0,1.482725371684575e-06,0.0,24.716754608368174,1.1918479388331729,0.0009924435365777032,0.0
5150,4.482758620689656,3.793103448275862,1.7857142857142858,0,274779.86509225145,559193.0745258379,379439.3679132074,242886.47940237276,161443.32391204234,1.8318657672816764e-06,0.0,0.0,0.0,1.8318657672816764e-06,0.0,25.34290809120432,1.5200111627344928,0.006376607428583775,0.0
5151,4.482758620689656,3.793103448275862,2.142857142857143,0,538921.7649368908,749718.8942003784,498377.82552049705,131039.82127430465,286214.2362079182,3.592811766245939e-06,0.0,0.0,0.0,3.592811766245939e-06,0.0,25.435724330213933,1.847895192723929,0.015342541442198479,0.0
5152,4.482758620689656,3.793103448275862,2.5,0,673946.0944753544,1187689.3988896036,533280.7085141815,495772.4439261581,548736.4321234374,4.492973963169029e-06,0.0,0.0,0.0,4.492973963169029e-06,0.0,25.084637176995805,2.161869356714028,0.05487364321234374,0.0
5153,4.482758620689656,3.793103448275862,2.857142857142857,0,451066.34870578826,714598.4357014375,434936.78506838356,194237.8851219969,217424.19312671525,3.0071089913719217e-06,0.0,0.0,0.0,3.0071089913719217e-06,0.0,24.791865918270886,2.455038049866786,0.01165504461895424,0.0
5154,4.482758620689656,3.793103448275862,3.2142857142857144,0,203700.99019879638,431383.40214097966,196366.2731846438,305549.8613378672,21695.294697187775,1.3580066013253092e-06,0.0,0.0,0.0,1.3580066013253092e-06,0.0,25.129726894917404,2.734296877020207,0.000856909867680707,0.0
5155,4.482758620689656,3.793103448275862,3.5714285714285716,0,208646.97698252386,426530.2478092768,187232.70869121092,282672.45445798535,-7461.441330181919,1.3909798465501592e-06,0.0,0.0,0.0,1.3909798465501592e-06,0.0,25.025042974053154,3.0132765102617443,-0.00026270026738448477,0.0
5156,4.482758620689656,3.793103448275862,3.928571428571429,0,228908.57538043338,368867.9070491763,159315.12111442772,124574.99780885807,26648.572327575388,1.5260571692028892e-06,0.0,0.0,0.0,1.5260571692028892e-06,0.0,24.11494488316114,3.300572007691784,0.0009034742037205289,0.0
5157,4.482758620689656,3.793103448275862,4.285714285714286,0,122985.61232046763,312315.070281199,180830.76782866163,200103.90255718623,-22582.86216388104,8.199040821364508e-07,0.0,0.0,0.0,8.199040821364508e-07,0.0,24.224828292512395,3.5964380989610385,-0.0007566758982099735,0.0
5158,4.482758620689656,3.793103448275862,4.642857142857143,0,160901.01966815823,341901.5982426545,304912.0010907005,165726.85355064424,37182.30269464421,1.0726734644543883e-06,0.0,0.0,0.0,1.0726734644543883e-06,0.0,25.003719710706065,3.8973089252419952,0.0012413695731862359,0.0
5159,4.482758620689656,3.793103448275862,5.0,0,231840.52391401576,298833.72549778334,201283.80401857907,34158.23640478387,-32915.59238857281,1.5456034927601052e-06,0.0,0.0,0.0,1.5456034927601052e-06,0.0,24.356873081258573,4.20016769730898,-0.001097713873199659,0.0
5160,4.827586206896552,3.793103448275862,0.0,0,170589.7295028951,330018.8076822081,235935.28373252624,133103.5200172769,20164.98754572019,1.137264863352634e-06,0.0,0.0,0.0,1.137264863352634e-06,0.0,24.13905569147965,-0.04983048971069613,0.0006724893880238976,0.0
5161,4.827586206896552,3.793103448275862,0.35714285714285715,0,203197.87926686413,388807.4384041955,237971.9245671893,157743.0818996564,17408.629954462594,1.354652528445761e-06,0.0,0.0,0.0,1.354652528445761e-06,0.0,25.3010911230248,0.2544612999146886,0.000581205088716605,0.0
5162,4.827586206896552,3.793103448275862,0.7142857142857143,0,177009.89949155741,355904.5219952637,321882.77096185903,164353.12149803707,8149.521667944227,1.1800659966103828e-06,0.0,0.0,0.0,1.1800659966103828e-06,0.0,24.69250515143772,0.5607625270639056,0.0002730631123426018,0.0
5163,4.827586206896552,3.793103448275862,1.0714285714285714,0,154434.27119834183,314879.8870746626,190621.328058814,141981.46924725128,32299.59734560501,1.0295618079889456e-06,0.0,0.0,0.0,1.0295618079889456e-06,0.0,24.633406078063583,0.8721225955557925,0.0010950625284386218,0.0
5164,4.827586206896552,3.793103448275862,1.4285714285714286,0,284555.1232310586,481186.40399289416,248266.3423198561,164020.6138725069,-23362.62772809242,1.897034154873724e-06,0.0,0.0,0.0,1.897034154873724e-06,0.0,24.069141153950913,1.1921459148179372,-0.0008225446370727437,0.0
5165,4.827586206896552,3.793103448275862,1.7857142857142858,0,130686.42527464425,285938.0187163105,368259.3424031759,217570.86901903484,31860.55859320684,8.71242835164295e-07,0.0,0.0,0.0,8.71242835164295e-07,0.0,24.451000577099357,1.520575001310208,0.0012584123621919379,0.0
5166,4.827586206896552,3.793103448275862,2.142857142857143,0,684887.4083076664,1133742.8183074004,745403.2115707921,342944.9696394017,225737.95165614027,4.565916055384443e-06,0.0,0.0,0.0,4.565916055384443e-06,0.0,24.508366780512436,1.848721875517361,0.0121007044382145,0.0
5167,4.827586206896552,3.793103448275862,2.5,0,672636.7679409533,623107.777093406,916321.326234632,146850.53557699523,546585.0952563946,4.484245119606355e-06,0.0,0.0,0.0,4.484245119606355e-06,0.0,24.232255981346555,2.162808503772646,0.05465850952563946,0.0
5168,4.827586206896552,3.793103448275862,2.857142857142857,0,391391.1443425051,703020.4999442442,638983.1277052071,283559.63867174246,293534.41798610595,2.6092742956167007e-06,0.0,0.0,0.0,2.6092742956167007e-06,0.0,24.08181775227012,2.455864732660218,0.015734940484902576,0.0
5169,4.827586206896552,3.793103448275862,3.2142857142857144,0,466963.4750439372,538107.1687663882,513565.2575611116,59356.676666269654,103616.84941109845,3.113089833626248e-06,0.0,0.0,0.0,3.113089833626248e-06,0.0,25.568239609440713,2.7348607155959224,0.00409260634426254,0.0
5170,4.827586206896552,3.793103448275862,3.5714285714285716,0,223072.78757501004,367650.22397219297,278579.8916862402,113803.50658003676,19411.169690577564,1.4871519171667337e-06,0.0,0.0,0.0,1.4871519171667337e-06,0.0,25.403721133599124,3.013574486246509,0.0006834228458425746,0.0
5171,4.827586206896552,3.793103448275862,3.928571428571429,0,260694.331408267,391514.2778996467,216888.8089931937,91855.14334671426,22677.93085540527,1.7379622093884467e-06,0.0,0.0,0.0,1.7379622093884467e-06,0.0,24.651268326729543,3.300694024127222,0.0007688564051296277,0.0
5172,4.827586206896552,3.793103448275862,4.285714285714286,0,191889.3127312003,249414.11144598055,296015.08051786234,85117.23298973136,-6231.598070215947,1.2792620848746687e-06,0.0,0.0,0.0,1.2792620848746687e-06,0.0,24.044686864508105,3.5964768127781914,-0.00020879993124192314,0.0
5173,4.827586206896552,3.793103448275862,4.642857142857143,0,242050.19140086585,331780.74539126025,251487.05702516017,59786.99511795959,12792.375667453844,1.613667942672439e-06,0.0,0.0,0.0,1.613667942672439e-06,0.0,23.850531447165057,3.897318442771832,0.0004270866721934506,0.0
5174,4.827586206896552,3.793103448275862,5.0,0,123119.66206235075,278813.67650987743,174312.2636720773,143088.17016593894,57150.57336050288,8.207977470823383e-07,0.0,0.0,0.0,8.207977470823383e-07,0.0,24.49217529418211,4.200169510289304,0.0019059349289098117,0.0
5175,5.172413793103448,3.793103448275862,0.0,0,217306.57199932632,349986.3939980984,297260.47759027674,111168.42987925283,-44467.31653934899,1.4487104799955087e-06,0.0,0.0,0.0,1.4487104799955087e-06,0.0,23.52491650083981,-0.04983048971069613,-0.0014829564570179225,0.0
5176,5.172413793103448,3.793103448275862,0.35714285714285715,0,192130.94004457127,326262.2240499751,217597.76269944213,104423.80169225308,-60790.1595623789,1.280872933630475e-06,0.0,0.0,0.0,1.280872933630475e-06,0.0,24.430009937199436,0.2544612999146886,-0.002029542254270962,0.0
5177,5.172413793103448,3.793103448275862,0.7142857142857143,0,259390.85728212437,337762.9886516174,210179.47045240403,39289.63407744292,21124.634141909628,1.7292723818808291e-06,0.0,0.0,0.0,1.7292723818808291e-06,0.0,23.650434444580327,0.5607625270639056,0.0007078155726093966,0.0
5178,5.172413793103448,3.793103448275862,1.0714285714285714,0,185838.1986943542,304058.65496991517,300159.19938077417,116301.4144678561,-28770.080819996932,1.238921324629028e-06,0.0,0.0,0.0,1.238921324629028e-06,0.0,24.618744246568987,0.8721225955557925,-0.0009754003156456132,0.0
5179,5.172413793103448,3.793103448275862,1.4285714285714286,0,97922.02012492379,356513.2657064859,270856.10570475867,249763.95174022685,-49866.17518574395,6.528134674994919e-07,0.0,0.0,0.0,6.528134674994919e-07,0.0,24.768817440179664,1.1921459148179372,-0.0017556738671584656,0.0
5180,5.172413793103448,3.793103448275862,1.7857142857142858,0,212905.41312155098,601390.5651540076,442342.0517185092,359519.7879409708,90270.75385113114,1.4193694208103398e-06,0.0,0.0,0.0,1.4193694208103398e-06,0.0,24.58192294223274,1.520575001310208,0.003565468956180502,0.0
5181,5.172413793103448,3.793103448275862,2.142857142857143,0,521049.4991217852,1001643.5808141103,701376.1113033611,399987.79166906176,233169.1511204895,3.473663327478568e-06,0.0,0.0,0.0,3.473663327478568e-06,0.0,25.76596146702352,1.848721875517361,0.01249905459457848,0.0
5182,5.172413793103448,3.793103448275862,2.5,0,467883.01552306337,872798.7793945367,538753.8519608396,338046.78727832617,724641.079471944,3.119220103487089e-06,0.0,0.0,0.0,3.119220103487089e-06,0.0,24.5816675043144,2.162808503772646,0.0724641079471944,0.0
5183,5.172413793103448,3.793103448275862,2.857142857142857,0,246830.6699523731,696201.3013277797,654680.6667929561,431243.5080086966,330982.859298584,1.6455377996824874e-06,0.0,0.0,0.0,1.6455377996824874e-06,0.0,25.554690185002688,2.455864732660218,0.01774236775475037,0.0
5184,5.172413793103448,3.793103448275862,3.2142857142857144,0,449803.9286846368,638492.1474250652,551593.9198774045,151579.28338866823,48384.09655019631,2.9986928578975784e-06,0.0,0.0,0.0,2.9986928578975784e-06,0.0,24.842411813522702,2.7348607155959224,0.001911050776279779,0.0
5185,5.172413793103448,3.793103448275862,3.5714285714285716,0,233243.66276477565,394432.8471021666,201963.50124776104,135044.04643155888,-27627.41592852101,1.5549577517651711e-06,0.0,0.0,0.0,1.5549577517651711e-06,0.0,25.705395120449605,3.013574486246509,-0.0009726980660166756,0.0
5186,5.172413793103448,3.793103448275862,3.928571428571429,0,272015.1827107142,398378.3090581165,269883.97696140996,85919.20818508734,7570.501932840649,1.8134345514047612e-06,0.0,0.0,0.0,1.8134345514047612e-06,0.0,23.825950631916363,3.300694024127222,0.00025666490202404935,0.0
5187,5.172413793103448,3.793103448275862,4.285714285714286,0,87602.67395448266,271527.12377762713,177109.43565202036,192882.57373043185,-52750.24307456037,5.840178263632177e-07,0.0,0.0,0.0,5.840178263632177e-07,0.0,24.167246672547133,3.5964768127781914,-0.001767483557645632,0.0
5188,5.172413793103448,3.793103448275862,4.642857142857143,0,103674.08172900468,212907.58485587043,298904.3954603317,183782.99350136434,-81587.86303808188,6.911605448600313e-07,0.0,0.0,0.0,6.911605448600313e-07,0.0,24.569738319725083,3.897318442771832,-0.0027238950623504387,0.0
5189,5.172413793103448,3.793103448275862,5.0,0,166854.30605565984,295249.51262042753,298217.85132415144,129899.17962544042,-51361.500349892114,1.1123620403710655e-06,0.0,0.0,0.0,1.1123620403710655e-06,0.0,25.51953430734301,4.200169510289304,-0.0017128730607928852,0.0
5190,5.517241379310345,3.793103448275862,0.0,0,65285.67757525503,293064.0027108699,217751.92903930452,258286.91810232043,39359.61948080031,4.352378505017002e-07,0.0,0.0,0.0,4.352378505017002e-07,0.0,24.505310639586032,-0.049832302691019965,0.0013126180394351218,0.0
5191,5.517241379310345,3.793103448275862,0.35714285714285715,0,206471.16381130923,340726.405968563,395313.473232459,167033.54565494644,-31991.93533370934,1.3764744254087283e-06,0.0,0.0,0.0,1.3764744254087283e-06,0.0,24.28948197528688,0.2544517823848519,-0.0010680837988102565,0.0
5192,5.517241379310345,3.793103448275862,0.7142857142857143,0,148574.75373414758,303053.0429518243,319963.8532740005,163657.25326536264,-49813.49341026119,9.904983582276505e-07,0.0,0.0,0.0,9.904983582276505e-07,0.0,24.937657722340067,0.5607238132467527,-0.0016690829353540276,0.0
5193,5.517241379310345,3.793103448275862,1.0714285714285714,0,216929.88240464233,410821.35592602886,301043.57548636466,160944.76591106196,-2947.957733146698,1.4461992160309488e-06,0.0,0.0,0.0,1.4461992160309488e-06,0.0,25.091999075490527,0.8720005791203549,-9.994545797113692e-05,0.0
5194,5.517241379310345,3.793103448275862,1.4285714285714286,0,309797.5648799386,391833.10933871573,345161.00123188103,61347.5526824328,97728.03428751882,2.065317099199591e-06,0.0,0.0,0.0,2.065317099199591e-06,0.0,24.260214769158924,1.1918479388331729,0.003440780353581544,0.0
5195,5.517241379310345,3.793103448275862,1.7857142857142858,0,447441.69217331556,613544.8509647672,534143.0712647452,131717.75070615357,127776.02180698115,2.9829446144887703e-06,0.0,0.0,0.0,2.9829446144887703e-06,0.0,24.304193239779817,1.5200111627344928,0.005046833217415581,0.0
5196,5.517241379310345,3.793103448275862,2.142857142857143,0,524620.8295163437,910290.3204579935,442003.4901309935,343344.2638249055,262196.08032896434,3.497472196775624e-06,0.0,0.0,0.0,3.497472196775624e-06,0.0,25.500715120075647,1.847895192723929,0.014055045904519007,0.0
5197,5.517241379310345,3.793103448275862,2.5,0,583471.2170221966,1078816.570352541,767245.1113180693,405700.1143848931,514133.3155954958,3.889808113481311e-06,0.0,0.0,0.0,3.889808113481311e-06,0.0,25.282392270147625,2.161869356714028,0.05141333155954958,0.0
5198,5.517241379310345,3.793103448275862,2.857142857142857,0,365142.04986904876,878210.1669434141,685358.8753238538,457076.9587439179,262592.27659441624,2.434280332460325e-06,0.0,0.0,0.0,2.434280332460325e-06,0.0,25.42092344388735,2.455038049866786,0.014076284043133203,0.0
5199,5.517241379310345,3.793103448275862,3.2142857142857144,0,432766.969639542,656444.5043129526,369268.0271506722,158688.92783277784,8523.466322912958,2.88511313093028e-06,0.0,0.0,0.0,2.88511313093028e-06,0.0,25.137786716828344,2.734296877020207,0.0003366555974874615,0.0
5200,5.517241379310345,3.793103448275862,3.5714285714285716,0,168358.93375482006,349629.46897629276,329708.7438778098,172196.409820342,27837.217641997246,1.1223928916988005e-06,0.0,0.0,0.0,1.1223928916988005e-06,0.0,24.245389039160155,3.0132765102617443,0.0009800847040386065,0.0
5201,5.517241379310345,3.793103448275862,3.928571428571429,0,269421.9858946029,457935.8625919535,338595.2497282289,149455.24673868762,-11790.755141476995,1.796146572630686e-06,0.0,0.0,0.0,1.796146572630686e-06,0.0,24.66043893217815,3.300572007691784,-0.00039974535902947885,0.0
5202,5.517241379310345,3.793103448275862,4.285714285714286,0,160559.19481725505,330857.3525007382,213805.67288421723,147818.729153683,-38653.00809678344,1.0703946321150336e-06,0.0,0.0,0.0,1.0703946321150336e-06,0.0,24.150928491628132,3.5964380989610385,-0.0012951325393523332,0.0
5203,5.517241379310345,3.793103448275862,4.642857142857143,0,108340.9100730037,255374.6329168078,238558.85909198827,139609.04898899508,-46259.040280547095,7.222727338200247e-07,0.0,0.0,0.0,7.222727338200247e-07,0.0,25.17430497883917,3.8973089252419952,-0.0015444058309314757,0.0
5204,5.517241379310345,3.793103448275862,5.0,0,275671.8680157994,359131.832208084,185476.00346638274,41267.733066654575,79641.74376907294,1.8378124534386624e-06,0.0,0.0,0.0,1.8378124534386624e-06,0.0,24.41938403195528,4.20016769730898,0.0026560010219191586,0.0
5205,5.862068965517242,3.793103448275862,0.0,0,276707.66488426365,300041.46277663484,123884.47390259746,-18891.245957689105,26712.95985468811,1.844717765895091e-06,0.0,0.0,0.0,1.844717765895091e-06,0.0,23.720390700177827,-0.04983558630084781,0.0008908600605011961,0.0
5206,5.862068965517242,3.793103448275862,0.35714285714285715,0,296129.6846471654,409796.50636540493,309512.43000230327,76546.50617955207,-30962.180040202296,1.9741978976477693e-06,0.0,0.0,0.0,1.9741978976477693e-06,0.0,24.637812147617215,0.2544345445504983,-0.001033704354920375,0.0
5207,5.862068965517242,3.793103448275862,0.7142857142857143,0,366184.6488086224,523164.74908090115,252109.992466597,106589.00089649048,43992.47466707921,2.4412309920574824e-06,0.0,0.0,0.0,2.4412309920574824e-06,0.0,25.148316976113353,0.5606536960652228,0.0014740401390056065,0.0
5208,5.862068965517242,3.793103448275862,1.0714285714285714,0,232717.3902777253,314998.6471396216,265219.37512790324,61419.47968082811,-42837.115793991405,1.5514492685181687e-06,0.0,0.0,0.0,1.5514492685181687e-06,0.0,23.901904269482777,0.8717795869996491,-0.0014523190438090455,0.0
5209,5.862068965517242,3.793103448275862,1.4285714285714286,0,273016.03904084035,463275.2544567504,218348.517093165,168922.59708345254,-495.6779655984865,1.8201069269389357e-06,0.0,0.0,0.0,1.8201069269389357e-06,0.0,24.53266245911191,1.1913082546131226,-1.7451686388338195e-05,0.0
5210,5.862068965517242,3.793103448275862,1.7857142857142858,0,24748.220233954755,403789.52044445346,412501.5397979887,384575.42312451766,50204.827827616085,1.649881348930317e-07,0.0,0.0,0.0,1.649881348930317e-07,0.0,24.322649534753275,1.5189899570081002,0.0019829651070041344,0.0
5211,5.862068965517242,3.793103448275862,2.142857142857143,0,445509.21276057453,1005647.7428436578,847567.7472183863,502654.3338029928,364533.9431627426,2.9700614184038303e-06,0.0,0.0,0.0,2.9700614184038303e-06,0.0,25.100197762857892,1.8463979322686783,0.019540876806699088,0.0
5212,5.862068965517242,3.793103448275862,2.5,0,312985.3508927092,892625.4158709751,759529.5877765157,535089.6064031285,523724.4162060058,2.0865690059513948e-06,0.0,0.0,0.0,2.0865690059513948e-06,0.0,23.585844676745438,2.1601684047119956,0.052372441620600584,0.0
5213,5.862068965517242,3.793103448275862,2.857142857142857,0,223682.29703194677,806738.4755399867,650747.5893072065,550462.6281029817,359570.62224934885,1.4912153135463119e-06,0.0,0.0,0.0,1.4912153135463119e-06,0.0,25.18160989815555,2.453540789411535,0.019274817515541554,0.0
5214,5.862068965517242,3.793103448275862,3.2142857142857144,0,340102.78800442314,485209.54548026493,461415.8249559185,133834.7027861105,-43248.46043951284,2.2673519200294875e-06,0.0,0.0,0.0,2.2673519200294875e-06,0.0,24.26630561715506,2.7332756712938147,-0.0017082059971935343,0.0
5215,5.862068965517242,3.793103448275862,3.5714285714285716,0,337027.43290334864,498007.95066189824,196662.58841706003,134073.1772221463,-10904.804302823111,2.246849552688991e-06,0.0,0.0,0.0,2.246849552688991e-06,0.0,24.543593558293896,3.0127368260416945,-0.0003839331945879238,0.0
5216,5.862068965517242,3.793103448275862,3.928571428571429,0,220083.87150464187,449110.0326573944,308381.772273207,195487.6747007554,50150.93739180031,1.4672258100309459e-06,0.0,0.0,0.0,1.4672258100309459e-06,0.0,25.05762544712894,3.3003510155710782,0.001700281638690601,0.0
5217,5.862068965517242,3.793103448275862,4.285714285714286,0,232170.31261837055,364521.7533253971,162893.96175138143,110695.6707359947,37207.3974374474,1.5478020841224703e-06,0.0,0.0,0.0,1.5478020841224703e-06,0.0,25.372507116699904,3.5963679817795087,0.0012466949792159338,0.0
5218,5.862068965517242,3.793103448275862,4.642857142857143,0,161518.04105869972,299142.7033387722,185202.9360937343,114300.32592830149,-25172.706880797377,1.0767869403913314e-06,0.0,0.0,0.0,1.0767869403913314e-06,0.0,24.66345509604844,3.8972916874076415,-0.0008404168147729796,0.0
5219,5.862068965517242,3.793103448275862,5.0,0,263540.42292107496,476552.4560391796,177240.09987598972,279329.0665672909,-55177.62714131053,1.7569361528071664e-06,0.0,0.0,0.0,1.7569361528071664e-06,0.0,24.28002940498486,4.200164413699152,-0.0018401384392000859,0.0
5220,6.206896551724139,3.793103448275862,0.0,0,140910.87044335573,319921.71384378336,250298.9132592625,157751.08680222058,-82176.80697261945,9.394058029557049e-07,0.0,0.0,0.0,9.394058029557049e-07,0.0,24.24659005472897,-0.049839903760423694,-0.0027405437521583705,0.0
5221,6.206896551724139,3.793103448275862,0.35714285714285715,0,61455.15376681912,213692.9073870714,237003.58989361094,283393.0157198365,23247.167366638634,4.097010251121275e-07,0.0,0.0,0.0,4.097010251121275e-07,0.0,25.10012100383025,0.2544118793567332,0.0007761306896108397,0.0
5222,6.206896551724139,3.793103448275862,0.7142857142857143,0,349328.48846516636,412317.16885215277,264291.3475063746,13347.861081839686,10519.80280634782,2.328856589767776e-06,0.0,0.0,0.0,2.328856589767776e-06,0.0,24.0797125422458,0.5605615023781827,0.00035248327602230886,0.0
5223,6.206896551724139,3.793103448275862,1.0714285714285714,0,170277.15990701833,303141.694620789,201933.13067400025,106551.34781971369,15256.686686722911,1.135181066046789e-06,0.0,0.0,0.0,1.135181066046789e-06,0.0,24.69098384131046,0.8714890151601928,0.0005172518319653904,0.0
5224,6.206896551724139,3.793103448275862,1.4285714285714286,0,281749.45348102855,541607.3485931896,407475.1680522337,217852.39384987444,82132.83639346393,1.8783296898735238e-06,0.0,0.0,0.0,1.8783296898735238e-06,0.0,24.534998876625114,1.1905986499627639,0.002891709138599239,0.0
5225,6.206896551724139,3.793103448275862,1.7857142857142858,0,310337.70622072223,598388.1660771708,561486.9286556165,271249.6533538362,78137.48004357229,2.0689180414714817e-06,0.0,0.0,0.0,2.0689180414714817e-06,0.0,24.915647156169907,1.5176472230434976,0.003086234993328789,0.0
5226,6.206896551724139,3.793103448275862,2.142857142857143,0,946687.740913053,1075608.3545112326,638447.0119403527,-10661.863338114597,383861.76006922574,6.31125160608702e-06,0.0,0.0,0.0,6.31125160608702e-06,0.0,24.557819085725523,1.8444292569908542,0.020576946276211865,0.0
5227,6.206896551724139,3.793103448275862,2.5,0,937142.5077721423,1445760.9507086198,682427.4267002943,399844.5908745199,493772.0453281518,6.247616718480949e-06,0.0,0.0,0.0,6.247616718480949e-06,0.0,24.328543178895632,2.1579319052817043,0.049377204532815175,0.0
5228,6.206896551724139,3.793103448275862,2.857142857142857,0,258685.18940302156,727693.0319776933,560604.6108800265,858576.2494034399,517825.89902825886,1.724567929353477e-06,0.0,0.0,0.0,1.724567929353477e-06,0.0,24.298173587534,2.4515721141337115,0.027758106727833524,0.0
5229,6.206896551724139,3.793103448275862,3.2142857142857144,0,246164.94462592868,574446.8170452336,413255.7675756894,291094.6299270351,57612.88840789969,1.6410996308395246e-06,0.0,0.0,0.0,1.6410996308395246e-06,0.0,24.2935566675183,2.731932937329212,0.002275564967952063,0.0
5230,6.206896551724139,3.793103448275862,3.5714285714285716,0,235966.1172815947,445354.30947403394,189900.969251237,235544.1347364728,-31254.85019489676,1.5731074485439647e-06,0.0,0.0,0.0,1.5731074485439647e-06,0.0,23.869956487648206,3.0120272213913353,-0.0011004117220688792,0.0
5231,6.206896551724139,3.793103448275862,3.928571428571429,0,365970.28694247117,508777.85480388836,197703.3110683492,105533.65508679659,8337.496633948722,2.4398019129498078e-06,0.0,0.0,0.0,2.4398019129498078e-06,0.0,24.817447670414474,3.3000604437316223,0.00028266854373225526,0.0
5232,6.206896551724139,3.793103448275862,4.285714285714286,0,159207.8665255546,327958.18376317114,329355.87635809043,169453.7650024782,75555.29547403545,1.0613857768370305e-06,0.0,0.0,0.0,1.0613857768370305e-06,0.0,24.674137885549236,3.5962757880924685,0.0025316043047357664,0.0
5233,6.206896551724139,3.793103448275862,4.642857142857143,0,164120.12007305652,331724.4638378315,286268.36150011513,149667.4420359093,80388.0185840563,1.0941341338203767e-06,0.0,0.0,0.0,1.0941341338203767e-06,0.0,23.84083196159426,3.8972690222138766,0.0026838370161875757,0.0
5234,6.206896551724139,3.793103448275862,5.0,0,166192.51431261728,412410.6500383248,386523.39220446785,234793.58906591247,-36527.277104519846,1.1079500954174485e-06,0.0,0.0,0.0,1.1079500954174485e-06,0.0,24.375815685826982,4.200160096239577,-0.0012181612396488378,0.0
5235,6.551724137931035,3.793103448275862,0.0,0,100077.37869798268,345079.12475456024,249737.2953719336,240857.93681421634,45853.1746711066,6.671825246532179e-07,0.0,0.0,0.0,6.671825246532179e-07,0.0,24.300586547013655,-0.049844903834056674,0.0015291739359427443,0.0
5236,6.551724137931035,3.793103448275862,0.35714285714285715,0,192154.02063549805,402096.55284826335,244923.50765844277,187879.49148827122,13100.078131354527,1.2810268042366537e-06,0.0,0.0,0.0,1.2810268042366537e-06,0.0,24.1503638970704,0.2543856306714265,0.00043735963671148097,0.0
5237,6.551724137931035,3.793103448275862,0.7142857142857143,0,96950.72589461836,269972.76916243875,242073.9882598536,162131.48997944803,38663.706581653016,6.463381726307891e-07,0.0,0.0,0.0,6.463381726307891e-07,0.0,24.387865311023024,0.5604547323631786,0.001295491009664441,0.0
5238,6.551724137931035,3.793103448275862,1.0714285714285714,0,483832.24512803723,581884.2439380399,256555.78335220285,25882.136019187426,11417.981218589968,3.2255483008535815e-06,0.0,0.0,0.0,3.2255483008535815e-06,0.0,24.39907492747182,0.871152502317995,0.0003871070976243968,0.0
5239,6.551724137931035,3.793103448275862,1.4285714285714286,0,285183.57560355257,342335.1224439895,266202.10491575516,26811.419638050145,34708.10177050635,1.901223837357017e-06,0.0,0.0,0.0,1.901223837357017e-06,0.0,24.90445402762155,1.1897768529222248,0.0012219928043443616,0.0
5240,6.551724137931035,3.793103448275862,1.7857142857142858,0,306431.3206871999,628143.2025035255,506326.5073218806,279535.925683955,159422.3443284064,2.0428754712479994e-06,0.0,0.0,0.0,2.0428754712479994e-06,0.0,24.459671675755736,1.516092195468941,0.006296783790704205,0.0
5241,6.551724137931035,3.793103448275862,2.142857142857143,0,368898.75524830207,988201.0383765275,702053.5460172283,571858.1920664199,201164.58052501912,2.4593250349886804e-06,0.0,0.0,0.0,2.4593250349886804e-06,0.0,24.763563135456444,1.8421493233457185,0.010783446533964524,0.0
5242,6.551724137931035,3.793103448275862,2.5,0,880897.0162699074,1618039.7610470394,699883.6242749128,779855.4613036053,717462.4870498602,5.872646775132716e-06,0.0,0.0,0.0,5.872646775132716e-06,0.0,23.776043578192144,2.1553418030155322,0.07174624870498603,0.0
5243,6.551724137931035,3.793103448275862,2.857142857142857,0,644499.9551621466,731107.6699818505,945158.0000405094,220867.06214235857,258820.9468790192,4.296666367747644e-06,0.0,0.0,0.0,4.296666367747644e-06,0.0,23.94544518100077,2.4492921804885754,0.01387412155388288,0.0
5244,6.551724137931035,3.793103448275862,3.2142857142857144,0,787188.9272799604,937694.397801145,724593.3498209172,65894.00302079626,39593.74314863736,5.247926181866402e-06,0.0,0.0,0.0,5.247926181866402e-06,0.0,23.794058804157142,2.7303779097546554,0.0015638538068293976,0.0
5245,6.551724137931035,3.793103448275862,3.5714285714285716,0,231225.13432132808,539629.4972841447,437405.8309710195,274911.006281804,5936.544148111804,1.5415008954755204e-06,0.0,0.0,0.0,1.5415008954755204e-06,0.0,24.287819235460887,3.0112054243507966,0.0002090121286272643,0.0
5246,6.551724137931035,3.793103448275862,3.928571428571429,0,301832.3868510968,436925.18117285735,327315.0024966869,95603.08308980483,-40385.75231939225,2.0122159123406454e-06,0.0,0.0,0.0,2.0122159123406454e-06,0.0,24.518219202855693,3.2997239308894244,-0.001369209763656304,0.0
5247,6.551724137931035,3.793103448275862,4.285714285714286,0,291368.55110474577,314354.4515485707,333644.8484399938,33110.42191302898,-22752.33904228584,1.9424570073649717e-06,0.0,0.0,0.0,1.9424570073649717e-06,0.0,25.329012297184015,3.596169018077464,-0.0007623544994546765,0.0
5248,6.551724137931035,3.793103448275862,4.642857142857143,0,309175.62848235294,434764.7619374054,418007.8400944759,117551.43668676488,-54655.01297944993,2.0611708565490197e-06,0.0,0.0,0.0,2.0611708565490197e-06,0.0,24.085057153694873,3.8972427735285695,-0.0018247140499063476,0.0
5249,6.551724137931035,3.793103448275862,5.0,0,216869.6641479043,333667.60382010444,332404.0899884441,116168.94330388,-23144.82426356283,1.4457977609860286e-06,0.0,0.0,0.0,1.4457977609860286e-06,0.0,24.929280509133694,4.200155096165943,-0.0007718650294047646,0.0
5250,6.8965517241379315,3.793103448275862,0.0,0,254984.76424279634,504281.2332358002,234556.49085135752,267175.75711620995,20594.468370662835,1.699898428285309e-06,0.0,0.0,0.0,1.699898428285309e-06,0.0,23.94156745275735,-0.049850351211370436,0.000686812297794054,0.0
5251,6.8965517241379315,3.793103448275862,0.35714285714285715,0,88643.65026571127,324274.74626958405,313275.0355330376,230644.5811026158,34828.640298140206,5.909576684380752e-07,0.0,0.0,0.0,5.909576684380752e-07,0.0,24.374396891177273,0.25435703379399005,0.0011627901234795473,0.0
5252,6.8965517241379315,3.793103448275862,0.7142857142857143,0,267271.0490133685,394580.00742963457,333166.830009261,101947.60886089891,-31055.47640699658,1.7818069934224567e-06,0.0,0.0,0.0,1.7818069934224567e-06,0.0,24.291037581194725,0.560338410764695,-0.0010405647580928378,0.0
5253,6.8965517241379315,3.793103448275862,1.0714285714285714,0,139867.68449424455,369741.3809911669,208405.7610768279,282664.0097445265,55493.744857692735,9.324512299616303e-07,0.0,0.0,0.0,9.324512299616303e-07,0.0,23.910008369943796,0.8707858852325415,0.0018814203751881013,0.0
5254,6.8965517241379315,3.793103448275862,1.4285714285714286,0,158649.19108926097,387892.2049787139,310805.585237674,205429.45366280727,33984.09770374928,1.0576612739284064e-06,0.0,0.0,0.0,1.0576612739284064e-06,0.0,23.953857402139388,1.1888815383961318,0.001196502278652605,0.0
5255,6.8965517241379315,3.793103448275862,1.7857142857142858,0,322646.306025835,795059.4575236192,637063.4531206948,423865.31274554785,172183.3208033599,2.1509753735055666e-06,0.0,0.0,0.0,2.1509753735055666e-06,0.0,25.18013476956935,1.5143980560314678,0.006800810438659646,0.0
5256,6.8965517241379315,3.793103448275862,2.142857142857143,0,688056.620287187,1135721.2975369603,343972.3956339912,682643.9622822488,205257.4103398303,4.587044135247914e-06,0.0,0.0,0.0,4.587044135247914e-06,0.0,24.11951921100874,1.839665428161964,0.01100284306672116,0.0
5257,6.8965517241379315,3.793103448275862,2.5,0,1023285.0501490033,1498914.9039602329,543068.2304176263,419426.8189143998,734036.2859883575,6.821900334326688e-06,0.0,0.0,0.0,6.821900334326688e-06,0.0,24.890177688426167,2.152519991706198,0.07340362859883576,0.0
5258,6.8965517241379315,3.793103448275862,2.857142857142857,0,144902.09700194668,660679.554706877,681908.3053060988,527562.8518551062,449616.3749852175,9.660139800129779e-07,0.0,0.0,0.0,9.660139800129779e-07,0.0,24.734930953305117,2.446808285304821,0.024101728683022475,0.0
5259,6.8965517241379315,3.793103448275862,3.2142857142857144,0,536198.1641947658,839767.9318847853,533658.5500165923,220632.5011265231,-46055.55399057038,3.5746544279651058e-06,0.0,0.0,0.0,3.5746544279651058e-06,0.0,24.094796063208648,2.7286837703171822,-0.0018190791702468545,0.0
5260,6.8965517241379315,3.793103448275862,3.5714285714285716,0,484887.1898300221,725563.0619172085,207105.9016717188,283257.4034807302,122770.28781251174,3.2325812655334807e-06,0.0,0.0,0.0,3.2325812655334807e-06,0.0,24.403367692624037,3.0103101098247036,0.004322460769711721,0.0
5261,6.8965517241379315,3.793103448275862,3.928571428571429,0,177141.13455650158,378362.1667274615,280605.6761552009,173882.72297161748,-26210.140518159016,1.180940897043344e-06,0.0,0.0,0.0,1.180940897043344e-06,0.0,24.470149772345547,3.299357313803971,-0.0008886099241250205,0.0
5262,6.8965517241379315,3.793103448275862,4.285714285714286,0,276033.6933127358,556737.4729685597,375760.91277897573,239026.365366651,21962.125995669106,1.8402246220849055e-06,0.0,0.0,0.0,1.8402246220849055e-06,0.0,24.65800961221849,3.596052696478981,0.0007358771130858976,0.0
5263,6.8965517241379315,3.793103448275862,4.642857142857143,0,95838.51564800741,381251.1355896009,287227.93801440945,283695.0037651302,37295.20764060701,6.389234376533827e-07,0.0,0.0,0.0,6.389234376533827e-07,0.0,24.216744845402822,3.8972141766511332,0.0012451390214028104,0.0
5264,6.8965517241379315,3.793103448275862,5.0,0,132285.58404301878,291913.92630056443,357215.61394357943,204976.96581564125,4071.117818418464,8.819038936201252e-07,0.0,0.0,0.0,8.819038936201252e-07,0.0,23.67060454076038,4.20014964878863,0.0001357691654445125,0.0
5265,7.241379310344828,3.793103448275862,0.0,0,201984.33786552717,387642.8738277904,240122.06648489903,157434.77508335368,57218.18456400362,1.3465622524368477e-06,0.0,0.0,0.0,1.3465622524368477e-06,0.0,23.92244777589748,-0.049856097368700156,0.0019081897191378088,0.0
5266,7.241379310344828,3.793103448275862,0.35714285714285715,0,313857.0637998167,499536.35753723036,222180.7237344782,158839.61628606115,82394.8885865155,2.0923804253321116e-06,0.0,0.0,0.0,2.0923804253321116e-06,0.0,24.860185941919017,0.2543268684231292,0.0027508384436906626,0.0
5267,7.241379310344828,3.793103448275862,0.7142857142857143,0,432086.4860483583,344832.83267998503,360331.10858702933,-79296.00288279758,-45963.31179109272,2.880576573655722e-06,0.0,0.0,0.0,2.880576573655722e-06,0.0,24.26644128001239,0.5602157091108106,-0.0015400762747361625,0.0
5268,7.241379310344828,3.793103448275862,1.0714285714285714,0,246193.78014126036,375569.5308763142,330293.20419434045,109880.1012109495,5230.8523661955005,1.6412918676084025e-06,0.0,0.0,0.0,1.6412918676084025e-06,0.0,24.076476683452952,0.8703991597807431,0.0001773430905879269,0.0
5269,7.241379310344828,3.793103448275862,1.4285714285714286,0,299380.4177882032,554885.4321455238,229591.491207008,290914.60690081766,51652.871887592206,1.9958694519213546e-06,0.0,0.0,0.0,1.9958694519213546e-06,0.0,23.55405924111509,1.187937117286633,0.0018185793676563258,0.0
5270,7.241379310344828,3.793103448275862,1.7857142857142858,0,309953.76844735,710954.3514572949,383561.0308797383,422031.7002336695,-41186.79733933696,2.0663584563156666e-06,0.0,0.0,0.0,2.0663584563156666e-06,0.0,24.914880847616065,1.5126109957296925,-0.0016267754621843507,0.0
5271,7.241379310344828,3.793103448275862,2.142857142857143,0,859865.0301568344,1175791.0098134526,1066301.0094626981,266425.1434324768,509075.3972476226,5.732433534378896e-06,0.0,0.0,0.0,5.732433534378896e-06,0.0,24.197438925567578,1.8370452952623488,0.027289035244918484,0.0
5272,7.241379310344828,3.793103448275862,2.5,0,715882.9331778205,1297549.9709523274,638006.3104694101,536222.8210207094,926068.5757545547,4.772552887852137e-06,0.0,0.0,0.0,4.772552887852137e-06,0.0,24.849561369320224,2.149543408516839,0.09260685757545548,0.0
5273,7.241379310344828,3.793103448275862,2.857142857142857,0,689286.6579643647,1153684.7236940127,933607.1422039589,381233.304414626,532194.2069887184,4.595244386429098e-06,0.0,0.0,0.0,4.595244386429098e-06,0.0,24.65174959951733,2.444188152405206,0.02852832124706337,0.0
5274,7.241379310344828,3.793103448275862,3.2142857142857144,0,246691.96687451954,649087.8127229029,429411.45354330353,382202.98581576697,105996.15122941468,1.644613112496797e-06,0.0,0.0,0.0,1.644613112496797e-06,0.0,24.712910414620477,2.726896710015407,0.004186582814034582,0.0
5275,7.241379310344828,3.793103448275862,3.5714285714285716,0,149844.84525571702,518993.62108322355,346888.90627149615,417499.3400798846,82592.85016768058,9.989656350381136e-07,0.0,0.0,0.0,9.989656350381136e-07,0.0,25.149743011735296,3.0093656887152047,0.0029079051704568415,0.0
5276,7.241379310344828,3.793103448275862,3.928571428571429,0,106582.76164160385,347652.80578154547,323918.8792182373,231203.76647074305,15530.154435320983,7.10551744277359e-07,0.0,0.0,0.0,7.10551744277359e-07,0.0,24.38520515487774,3.2989705883521725,0.0005265232876130245,0.0
5277,7.241379310344828,3.793103448275862,4.285714285714286,0,408015.15660840203,521035.63977713167,115917.36413326146,110184.02711109245,-54663.42259841179,2.7201010440560134e-06,0.0,0.0,0.0,2.7201010440560134e-06,0.0,24.262744604522158,3.5959299948250965,-0.0018315877807570222,0.0
5278,7.241379310344828,3.793103448275862,4.642857142857143,0,197263.66783961066,360576.2169438728,168264.29250294578,158708.15779071848,-21552.236780747648,1.3150911189307377e-06,0.0,0.0,0.0,1.3150911189307377e-06,0.0,25.116165321376766,3.8971840112802725,-0.0007195436816660397,0.0
5279,7.241379310344828,3.793103448275862,5.0,0,217964.11437327368,506096.7263807416,296145.63002367725,280918.19151562353,-10554.229151397056,1.4530940958218246e-06,0.0,0.0,0.0,1.4530940958218246e-06,0.0,24.755943519441242,4.2001439026313,-0.0003519767660155774,0.0
5280,7.586206896551724,3.793103448275862,0.0,0,304971.91036449774,401882.976023479,234035.15565355474,49857.9692179128,-2696.0181698854644,2.0331460690966518e-06,0.0,0.0,0.0,2.0331460690966518e-06,0.0,23.832177793764828,-0.04986204889988007,-8.991047502790967e-05,0.0
5281,7.586206896551724,3.793103448275862,0.35714285714285715,0,296665.37122183014,438698.3323811971,379208.59107704385,116795.84931441724,-3973.2674628586606,1.9777691414788677e-06,0.0,0.0,0.0,1.9777691414788677e-06,0.0,24.710999327428663,0.2542956249094329,-0.0001326516373939925,0.0
5282,7.586206896551724,3.793103448275862,0.7142857142857143,0,195743.34406683542,381134.45096279157,160225.72661507817,229268.0328538934,-14302.399799277417,1.3049556271122362e-06,0.0,0.0,0.0,1.3049556271122362e-06,0.0,24.951548770928767,0.5600886219676963,-0.00047922540270318374,0.0
5283,7.586206896551724,3.793103448275862,1.0714285714285714,0,63948.91505729149,347252.97510093375,354334.9131357983,287139.81344126514,9816.707594239986,4.2632610038194327e-07,0.0,0.0,0.0,4.2632610038194327e-07,0.0,23.048794577137755,0.8699986123448872,0.00033281865789431566,0.0
5284,7.586206896551724,3.793103448275862,1.4285714285714286,0,99587.29985952945,329727.08639305097,215120.0748704097,264265.45733658987,82549.08330077575,6.63915332396863e-07,0.0,0.0,0.0,6.63915332396863e-07,0.0,23.58127508202505,1.186958941549767,0.002906364239270802,0.0
5285,7.586206896551724,3.793103448275862,1.7857142857142858,0,328045.36808022077,572364.0655625988,456752.8628341732,202165.60116907046,91954.29766342163,2.186969120534805e-06,0.0,0.0,0.0,2.186969120534805e-06,0.0,23.803213278660813,1.5107600639684984,0.0036319647252198374,0.0
5286,7.586206896551724,3.793103448275862,2.142857142857143,0,471176.2711251003,1005250.4829099027,523601.9469743968,545295.9013277576,472983.7762175866,3.1411751408340023e-06,0.0,0.0,0.0,3.1411751408340023e-06,0.0,24.574524328658665,1.8343315159916496,0.025354340455777415,0.0
5287,7.586206896551724,3.793103448275862,2.5,0,732927.3400229212,1318323.8687586603,1366522.9020755107,610685.6416566821,452277.3351763715,4.8861822668194745e-06,0.0,0.0,0.0,4.8861822668194745e-06,0.0,24.612174269133334,2.1464604390392297,0.04522773351763715,0.0
5288,7.586206896551724,3.793103448275862,2.857142857142857,0,807953.286511629,1292091.3039312663,464458.7708686268,505371.82496114034,418945.1673356787,5.38635524341086e-06,0.0,0.0,0.0,5.38635524341086e-06,0.0,24.482232180533234,2.4414743731345068,0.022457595670353325,0.0
5289,7.586206896551724,3.793103448275862,3.2142857142857144,0,333864.3500482996,660810.8956650525,490131.94587276084,276110.55775150453,155269.37071418154,2.2257623336553307e-06,0.0,0.0,0.0,2.2257623336553307e-06,0.0,24.665395299040217,2.725045778254213,0.006132751722003694,0.0
5290,7.586206896551724,3.793103448275862,3.5714285714285716,0,224687.92213931272,417121.0849365315,179605.87244780187,207950.23169479865,69513.60452885505,1.4979194809287515e-06,0.0,0.0,0.0,1.4979194809287515e-06,0.0,23.67783417774477,3.0083875129783384,0.0024474148744856945,0.0
5291,7.586206896551724,3.793103448275862,3.928571428571429,0,305131.1240660475,310059.3517153717,444487.6671273543,95224.26924257423,50183.90188719572,2.0342074937736497e-06,0.0,0.0,0.0,2.0342074937736497e-06,0.0,23.63364450317703,3.2985700409163163,0.0017013992434486464,0.0
5292,7.586206896551724,3.793103448275862,4.285714285714286,0,117035.60922735214,463623.66330857616,330055.8116661375,379033.6828166811,12840.500200987542,7.802373948490142e-07,0.0,0.0,0.0,7.802373948490142e-07,0.0,24.867973097408903,3.595802907681982,0.0004302420549060202,0.0
5293,7.586206896551724,3.793103448275862,4.642857142857143,0,313240.884159292,538311.6727529158,306715.55800429557,181905.4666514627,17454.181139702356,2.0882725610619463e-06,0.0,0.0,0.0,2.0882725610619463e-06,0.0,24.29803012535673,3.8971527677665763,0.0005827258620760064,0.0
5294,7.586206896551724,3.793103448275862,5.0,0,275649.9135845833,528351.6143585962,419413.94076198246,214880.24415046626,-28360.565987492322,1.837666090563889e-06,0.0,0.0,0.0,1.837666090563889e-06,0.0,24.855208626222648,4.20013795110012,-0.0009458066672095689,0.0
5295,7.931034482758621,3.793103448275862,0.0,0,291609.631647709,489289.24634893355,312550.8926631298,152708.78244995046,36205.18917750558,1.9440642109847268e-06,0.0,0.0,0.0,1.9440642109847268e-06,0.0,23.74505290485727,-0.04986814590960637,0.0012074198140746037,0.0
5296,7.931034482758621,3.793103448275862,0.35714285714285715,0,212106.9150178993,483267.46616878983,318796.49110993923,243865.45176164937,-28600.39141383783,1.4140461001193286e-06,0.0,0.0,0.0,1.4140461001193286e-06,0.0,23.571019516011834,0.2542636176828669,-0.0009548536026379331,0.0
5297,7.931034482758621,3.793103448275862,0.7142857142857143,0,446517.38233872823,575871.6015597048,312261.11332185345,60321.77363681025,29278.148484059668,2.9767825489248548e-06,0.0,0.0,0.0,2.9767825489248548e-06,0.0,23.46838315105346,0.5599584283210141,0.000981012466060833,0.0
5298,7.931034482758621,3.793103448275862,1.0714285714285714,0,405465.89982110076,472332.5148584152,359969.4855171097,22535.060284830397,2122.5389393941546,2.7031059988073384e-06,0.0,0.0,0.0,2.7031059988073384e-06,0.0,24.509055381530068,0.8695882739733939,7.196104746484283e-05,0.0
5299,7.931034482758621,3.793103448275862,1.4285714285714286,0,337967.8146310121,581229.2094545125,309606.9373387995,202749.06075910202,7239.020559093152,2.253118764206747e-06,0.0,0.0,0.0,2.253118764206747e-06,0.0,24.679286024158692,1.1859568553972437,0.0002548693412334568,0.0
5300,7.931034482758621,3.793103448275862,1.7857142857142858,0,178273.7787794507,690015.8478635137,484524.27981728956,597827.1371437627,151490.41201091916,1.1884918585296713e-06,0.0,0.0,0.0,1.1884918585296713e-06,0.0,24.38890561525866,1.5088638882433667,0.005983492306652073,0.0
5301,7.931034482758621,3.793103448275862,2.142857142857143,0,210192.76710145845,794829.1009187989,941731.7870007013,700961.2879787044,473321.90651307075,1.401285114009723e-06,0.0,0.0,0.0,1.401285114009723e-06,0.0,23.881068622635517,1.8315514014113343,0.025372465962530896,0.0
5302,7.931034482758621,3.793103448275862,2.5,0,743726.9584661828,1109556.2793630185,971052.1669137537,306313.5918117048,777972.9342394699,4.958179723107885e-06,0.0,0.0,0.0,4.958179723107885e-06,0.0,24.44605921015436,2.143302109808879,0.07779729342394699,0.0
5303,7.931034482758621,3.793103448275862,2.857142857142857,0,475092.90050497226,1090410.3700549752,739727.7482983207,549720.5430873707,357642.7712791306,3.167286003366482e-06,0.0,0.0,0.0,3.167286003366482e-06,0.0,24.43707556777505,2.4386942585541913,0.01917147488032941,0.0
5304,7.931034482758621,3.793103448275862,3.2142857142857144,0,499818.06772481394,746283.566854826,309597.32990594,201142.42410738836,195808.60055452536,3.3321204514987597e-06,0.0,0.0,0.0,3.3321204514987597e-06,0.0,23.124342036498295,2.7231496025290816,0.007733949887929955,0.0
5305,7.931034482758621,3.793103448275862,3.5714285714285716,0,402533.33128029463,713012.2549201502,514514.0091328411,249782.4764881385,23608.075195325804,2.683555541868631e-06,0.0,0.0,0.0,2.683555541868631e-06,0.0,23.966491244951516,3.0073854268258153,0.0008311862804788551,0.0
5306,7.931034482758621,3.793103448275862,3.928571428571429,0,215001.96070270461,450115.48316128034,251447.3059891544,221847.07160287644,33386.823378100526,1.4333464046846975e-06,0.0,0.0,0.0,1.4333464046846975e-06,0.0,24.286151885368618,3.2981597025448233,0.001131923064976884,0.0
5307,7.931034482758621,3.793103448275862,4.285714285714286,0,242243.34766443467,531266.100774049,385819.29652354796,251623.0044733539,3485.978584922853,1.6149556510962312e-06,0.0,0.0,0.0,1.6149556510962312e-06,0.0,24.705191109205828,3.5956727140352998,0.00011680343960589949,0.0
5308,7.931034482758621,3.793103448275862,4.642857142857143,0,322739.60632202297,391249.7484880027,315040.9695482832,37226.03387597615,-29729.098924607984,2.151597375480153e-06,0.0,0.0,0.0,2.151597375480153e-06,0.0,24.113333292759602,3.89712076054001,-0.0009925366684879313,0.0
5309,7.931034482758621,3.793103448275862,5.0,0,296593.35044728953,401746.6883892461,189081.1990938873,62932.42237562476,15207.795516970791,1.9772890029819304e-06,0.0,0.0,0.0,1.9772890029819304e-06,0.0,24.235155110052634,4.200131854090394,0.0005071702165554202,0.0
5310,8.275862068965518,3.793103448275862,0.0,0,214346.6341357477,318378.7595853472,412156.55665371276,166902.40625298602,-25834.866489526445,1.4289775609049847e-06,0.0,0.0,0.0,1.4289775609049847e-06,0.0,23.968855575906264,-0.04987434892611723,-0.0008615762105396451,0.0
5311,8.275862068965518,3.793103448275862,0.35714285714285715,0,266274.79598803166,369333.554540593,325689.2139168161,83932.84635601532,18987.66675920662,1.7751653065868777e-06,0.0,0.0,0.0,1.7751653065868777e-06,0.0,24.1399160212961,0.25423105395675066,0.0006339228630956725,0.0
5312,8.275862068965518,3.793103448275862,0.7142857142857143,0,377023.4768452427,480970.94707805885,420783.14924549893,77474.08374327635,-142071.03157601602,2.5134898456349516e-06,0.0,0.0,0.0,2.5134898456349516e-06,0.0,23.327613738041897,0.5598259710384721,-0.004760323321608779,0.0
5313,8.275862068965518,3.793103448275862,1.0714285714285714,0,214365.03606311145,448955.37162550195,297440.3463974758,203684.536426059,-17680.288077349258,1.4291002404207429e-06,0.0,0.0,0.0,1.4291002404207429e-06,0.0,23.714017926201706,0.8691708011780938,-0.0005994198862091926,0.0
5314,8.275862068965518,3.793103448275862,1.4285714285714286,0,444292.5385030796,619189.7456589855,438016.5400169754,112937.33724704788,5800.790387933569,2.9619502566871976e-06,0.0,0.0,0.0,2.9619502566871976e-06,0.0,22.90575560674669,1.1849373462889363,0.0002042325495192688,0.0
5315,8.275862068965518,3.793103448275862,1.7857142857142858,0,460790.7524430626,773297.7841837587,259316.36400593925,635451.7018421278,7383.261612301634,3.071938349620417e-06,0.0,0.0,0.0,3.071938349620417e-06,0.0,23.805236200642923,1.50693474430913,0.00029162036374963553,0.0
5316,8.275862068965518,3.793103448275862,2.142857142857143,0,609244.2985462532,1027698.9006519393,663333.871502089,324356.90044849017,457223.8699716087,4.061628656975021e-06,0.0,0.0,0.0,4.061628656975021e-06,0.0,24.278784484611496,1.8287229498559139,0.024509529177667452,0.0
5317,8.275862068965518,3.793103448275862,2.5,0,1349779.7375537448,1859864.0649198282,579428.8839209784,450055.90122190816,695699.7628109641,8.998531583691632e-06,0.0,0.0,0.0,8.998531583691632e-06,0.0,23.639671471672273,2.140088867704627,0.06956997628109642,0.0
5318,8.275862068965518,3.793103448275862,2.857142857142857,0,510539.21206599247,1084871.3746539513,691070.3016512466,508048.71029821446,416349.41676079883,3.4035947471066165e-06,0.0,0.0,0.0,3.4035947471066165e-06,0.0,23.914654598688568,2.435865806998771,0.022318450213102994,0.0
5319,8.275862068965518,3.793103448275862,3.2142857142857144,0,739271.8843395477,919822.6995451027,592789.5540299038,73437.2445884593,37449.70533783006,4.928479228930318e-06,0.0,0.0,0.0,4.928479228930318e-06,0.0,24.240504714589356,2.7212204585948445,0.0014791696768185032,0.0
5320,8.275862068965518,3.793103448275862,3.5714285714285716,0,200688.87404929165,479144.1210926935,301671.35044924845,261358.96232745147,57179.57127596291,1.3379258269952777e-06,0.0,0.0,0.0,1.3379258269952777e-06,0.0,25.41115376892776,3.006365917717508,0.002013161800571235,0.0
5321,8.275862068965518,3.793103448275862,3.928571428571429,0,263268.135385889,511897.0643898814,391242.49700188445,209925.48087510446,24761.99424859455,1.7551209025725932e-06,0.0,0.0,0.0,1.7551209025725932e-06,0.0,24.013812078156523,3.297742229749523,0.0008395130050975144,0.0
5322,8.275862068965518,3.793103448275862,4.285714285714286,0,337427.4278767792,515869.89424841007,230033.79789057112,143647.32453159505,12968.314320875552,2.249516185845195e-06,0.0,0.0,0.0,2.249516185845195e-06,0.0,24.418961526351357,3.595540256752758,0.0004345246769788264,0.0
5323,8.275862068965518,3.793103448275862,4.642857142857143,0,227423.98378341043,451812.83553702995,380399.201939261,197252.78457837887,2688.76693955114,1.5161598918894029e-06,0.0,0.0,0.0,1.5161598918894029e-06,0.0,23.970671081425742,3.8970881968138937,8.976726093482733e-05,0.0
5324,8.275862068965518,3.793103448275862,5.0,0,197795.06975879136,229441.07813306747,417141.8431444228,210600.70355770004,109738.6522305233,1.3186337983919424e-06,0.0,0.0,0.0,1.3186337983919424e-06,0.0,24.24681099418398,4.200125651073883,0.0036597135958427516,0.0
5325,8.620689655172415,3.793103448275862,0.0,0,122531.45139870576,439006.02480619954,394851.63049910514,300516.8494055509,-6885.249301094137,8.168763426580384e-07,0.0,0.0,0.0,8.168763426580384e-07,0.0,23.895371826449633,-0.04988063117934759,-0.000229618643621106,0.0
5326,8.620689655172415,3.793103448275862,0.35714285714285715,0,233596.5775586489,545160.0841710008,276130.839287026,393769.1441513356,-30488.43280986461,1.5573105170576593e-06,0.0,0.0,0.0,1.5573105170576593e-06,0.0,23.703290026380028,0.25419807426481716,-0.001017887814402373,0.0
5327,8.620689655172415,3.793103448275862,0.7142857142857143,0,385105.42627034563,485194.03775035654,120655.63663355,82380.04599010623,-51478.639914710286,2.567369508468971e-06,0.0,0.0,0.0,2.567369508468971e-06,0.0,23.81777007533681,0.5596918217597012,-0.001724876404656622,0.0
5328,8.620689655172415,3.793103448275862,1.0714285714285714,0,382499.296922819,492491.9673440869,369168.91985087394,63544.06811617981,41227.487767629835,2.5499953128187934e-06,0.0,0.0,0.0,2.5499953128187934e-06,0.0,24.547319821537837,0.8687479956265896,0.0013977473623873568,0.0
5329,8.620689655172415,3.793103448275862,1.4285714285714286,0,128886.42463901376,344472.68229078205,354669.1813545488,220987.36362143635,92321.22023120623,8.592428309267583e-07,0.0,0.0,0.0,8.592428309267583e-07,0.0,24.073071986135172,1.1839048140720967,0.003250418808748908,0.0
5330,8.620689655172415,3.793103448275862,1.7857142857142858,0,571770.5227612824,644268.4226701237,379617.8869219776,-11880.86254648644,15454.382726895936,3.811803485075216e-06,0.0,0.0,0.0,3.811803485075216e-06,0.0,23.334744465629242,1.5049809576810462,0.0006104094570933858,0.0
5331,8.620689655172415,3.793103448275862,2.142857142857143,0,585989.3595687294,1206995.8466263006,656592.8893471189,590948.4086568124,388853.3151482989,3.906595730458196e-06,0.0,0.0,0.0,3.906595730458196e-06,0.0,23.725849568305243,1.825858367940024,0.02084451906251472,0.0
5332,8.620689655172415,3.793103448275862,2.5,0,810154.6242571332,1419920.482670471,1295008.360514654,554564.5296327277,709984.7172130425,5.401030828380888e-06,0.0,0.0,0.0,5.401030828380888e-06,0.0,23.496751997313595,2.136834579963485,0.07099847172130426,0.0
5333,8.620689655172415,3.793103448275862,2.857142857142857,0,858669.3019521871,1386172.8429489818,526988.0054569,528020.0067787054,406786.4076070758,5.724462013014581e-06,0.0,0.0,0.0,5.724462013014581e-06,0.0,24.411151041818467,2.433001225082881,0.021805824194925005,0.0
5334,8.620689655172415,3.793103448275862,3.2142857142857144,0,424813.5197658599,730920.9481786464,597413.1211301818,255390.47996535592,-53775.41322172781,2.832090131772399e-06,0.0,0.0,0.0,2.832090131772399e-06,0.0,23.57247453674705,2.7192666719667606,-0.0021239942979101025,0.0
5335,8.620689655172415,3.793103448275862,3.5714285714285716,0,287012.6506353634,568122.2370419045,390736.85752712376,236989.6950004165,48996.41099828989,1.9134176709024227e-06,0.0,0.0,0.0,1.9134176709024227e-06,0.0,24.38782232439946,3.005333385500668,0.0017250514613129102,0.0
5336,8.620689655172415,3.793103448275862,3.928571428571429,0,206549.4597090173,453653.52812406636,284200.7204197071,223575.8642948262,54109.393079861286,1.3769963980601154e-06,0.0,0.0,0.0,1.3769963980601154e-06,0.0,24.449933609951287,3.297319424198019,0.0018344862991418905,0.0
5337,8.620689655172415,3.793103448275862,4.285714285714286,0,165218.34848182203,352260.19161674,363800.9085676489,193114.77897173722,-83583.35149069274,1.1014556565454801e-06,0.0,0.0,0.0,1.1014556565454801e-06,0.0,24.03853402769775,3.595406107473987,-0.002800597510875947,0.0
5338,8.620689655172415,3.793103448275862,4.642857142857143,0,339529.0940858785,240115.98139707884,449067.2014393939,57303.32771277559,76908.98696581293,2.2635272939058567e-06,0.0,0.0,0.0,2.2635272939058567e-06,0.0,24.2433270590464,3.8970552171219603,0.0025676859528575933,0.0
5339,8.620689655172415,3.793103448275862,5.0,0,252378.87110331352,475114.7922954866,280294.3503573238,190011.09479712587,70752.61512969274,1.6825258073554234e-06,0.0,0.0,0.0,1.6825258073554234e-06,0.0,23.725118321991165,4.200119368820652,0.0023595542889266936,0.0
5340,8.965517241379311,3.793103448275862,0.0,0,149581.3174624527,455474.4591108697,286705.26318563137,339273.3652088098,-135123.00391635977,9.972087830830179e-07,0.0,0.0,0.0,9.972087830830179e-07,0.0,24.240259462715724,-0.049886974009061495,-0.004506265426925566,0.0
5341,8.965517241379311,3.793103448275862,0.35714285714285715,0,178177.05388400969,385818.4754044325,362946.67460283154,197309.92585404086,-95679.97697022396,1.187847025893398e-06,0.0,0.0,0.0,1.187847025893398e-06,0.0,23.200537833984605,0.25416477656695613,-0.0031943748387348856,0.0
5342,8.965517241379311,3.793103448275862,0.7142857142857143,0,174741.2051121979,298631.2226991278,390267.0198750355,188767.87877207875,-5864.734822672556,1.1649413674146526e-06,0.0,0.0,0.0,1.1649413674146526e-06,0.0,23.593810958054494,0.5595563789495683,-0.0001965075754129481,0.0
5343,8.965517241379311,3.793103448275862,1.0714285714285714,0,197448.17281765424,512326.388526596,306890.6799673236,323976.1327531764,60173.809210974294,1.3163211521176949e-06,0.0,0.0,0.0,1.3163211521176949e-06,0.0,23.6760599220041,0.8683211131821946,0.0020400899415335566,0.0
5344,8.965517241379311,3.793103448275862,1.4285714285714286,0,319399.2826298754,500656.11703538196,337850.05866685294,132658.35261797268,21969.19903755177,2.129328550865836e-06,0.0,0.0,0.0,2.129328550865836e-06,0.0,24.327869104629993,1.182862325686897,0.0007734852029248757,0.0
5345,8.965517241379311,3.793103448275862,1.7857142857142858,0,566521.6380719519,841829.0783828355,194267.91165150682,437766.6919114993,81408.803830676,3.7768109204796796e-06,0.0,0.0,0.0,3.7768109204796796e-06,0.0,24.691980947142614,1.5030083317099465,0.003215444099389522,0.0
5346,8.965517241379311,3.793103448275862,2.142857142857143,0,1097545.0258859606,1540649.8484342883,610956.513203788,329909.21337594016,487652.6574893921,7.316966839239737e-06,0.0,0.0,0.0,7.316966839239737e-06,0.0,23.61661587870564,1.822966164358321,0.026140667236042366,0.0
5347,8.965517241379311,3.793103448275862,2.5,0,169802.90537328777,754933.5934442361,623445.8037548617,815150.99243683,655207.0655108595,1.1320193691552518e-06,0.0,0.0,0.0,1.1320193691552518e-06,0.0,23.800458347274905,2.1335489128269955,0.06552070655108594,0.0
5348,8.965517241379311,3.793103448275862,2.857142857142857,0,324993.00877555826,965233.4672351445,939247.7104085257,628027.678707816,566625.8520266629,2.166620058503722e-06,0.0,0.0,0.0,2.166620058503722e-06,0.0,23.262978588101387,2.430109021501178,0.030374032864755145,0.0
5349,8.965517241379311,3.793103448275862,3.2142857142857144,0,420333.63131618797,725747.315499186,493276.7638022742,240529.05418832006,71940.3982354265,2.8022242087745864e-06,0.0,0.0,0.0,2.8022242087745864e-06,0.0,23.816737302807656,2.717294045995661,0.002841465764500887,0.0
5350,8.965517241379311,3.793103448275862,3.5714285714285716,0,442209.5011499724,682634.9067052279,340213.9247329908,183384.56107308605,-79704.30272384995,2.948063340999816e-06,0.0,0.0,0.0,2.948063340999816e-06,0.0,24.413780698634326,3.0042908971154687,-0.0028062060278558534,0.0
5351,8.965517241379311,3.793103448275862,3.928571428571429,0,42115.69325781318,306099.33003443555,317688.3392970652,270991.4781710541,-35904.03230412101,2.807712883854212e-07,0.0,0.0,0.0,2.807712883854212e-07,0.0,22.96988225212866,3.296892541753624,-0.0012172647223864718,0.0
5352,8.965517241379311,3.793103448275862,4.285714285714286,0,525700.0002582499,612650.3051456604,232294.47390763002,12768.140703248097,16303.58446432823,3.5046666683883327e-06,0.0,0.0,0.0,3.5046666683883327e-06,0.0,23.88174506289194,3.5952706646638544,0.0005462783826542031,0.0
5353,8.965517241379311,3.793103448275862,4.642857142857143,0,311449.8514870595,452210.6914076464,444937.0169146227,137187.71086660936,-12753.036165551228,2.0763323432470635e-06,0.0,0.0,0.0,2.0763323432470635e-06,0.0,24.23624840257745,3.897021919424099,-0.0004257732822969921,0.0
5354,8.965517241379311,3.793103448275862,5.0,0,196537.41276252936,431710.32793781435,422396.0331650744,230681.3710928214,-17309.971505783105,1.3102494184168625e-06,0.0,0.0,0.0,1.3102494184168625e-06,0.0,23.910492663088874,4.200113025990938,-0.0005772764361119489,0.0
5355,9.310344827586208,3.793103448275862,0.0,0,290201.96839473915,424911.85156916647,452888.64968700847,149711.46015465588,8978.50903692307,1.9346797892982608e-06,0.0,0.0,0.0,1.9346797892982608e-06,0.0,23.62643166316188,-0.04989336407656204,0.00029942751186518447,0.0
5356,9.310344827586208,3.793103448275862,0.35714285714285715,0,200270.35473084816,403913.7706759452,370253.5531944968,188946.19121515262,15870.094710568968,1.3351356982056543e-06,0.0,0.0,0.0,1.3351356982056543e-06,0.0,24.164088401585392,0.25413123088678774,0.0005298395007720124,0.0
5357,9.310344827586208,3.793103448275862,0.7142857142857143,0,470050.58543954766,536997.7876307021,308139.3181275746,-3653.69381215771,-54615.09835339583,3.1336705695969846e-06,0.0,0.0,0.0,3.1336705695969846e-06,0.0,23.32620278413082,0.5594199274384525,-0.001829968597535807,0.0
5358,9.310344827586208,3.793103448275862,1.0714285714285714,0,322867.8441082992,359628.8056288392,467865.6239290145,104785.66679547288,56252.07373100225,2.152452294055328e-06,0.0,0.0,0.0,2.152452294055328e-06,0.0,23.34559485628833,0.8678910515602497,0.001907130216846772,0.0
5359,9.310344827586208,3.793103448275862,1.4285714285714286,0,276278.8163674562,568231.5724630998,299670.6322880635,284832.8592507781,-288.1825901364364,1.8418587757830415e-06,0.0,0.0,0.0,1.8418587757830415e-06,0.0,22.816931330202745,1.18181207344138,-1.0146249247871444e-05,0.0
5360,9.310344827586208,3.793103448275862,1.7857142857142858,0,446402.33548120596,702881.4522254509,400303.5467593866,190192.43935697517,112155.83777318441,2.9760155698747064e-06,0.0,0.0,0.0,2.9760155698747064e-06,0.0,23.907454421983882,1.5010210147430372,0.004429875023467467,0.0
5361,9.310344827586208,3.793103448275862,2.142857142857143,0,698525.972775892,956116.7690001825,653935.9868495128,157373.98982100267,436446.9927749595,4.656839818505947e-06,0.0,0.0,0.0,4.656839818505947e-06,0.0,23.860093323294958,1.8200524212900042,0.023395782693032458,0.0
5362,9.310344827586208,3.793103448275862,2.5,0,1095963.9056497735,2013777.7071300924,1067913.91856036,812736.5129516661,711418.9780398969,7.306426037665157e-06,0.0,0.0,0.0,7.306426037665157e-06,0.0,23.467519678277178,2.130238775911217,0.07114189780398969,0.0
5363,9.310344827586208,3.793103448275862,2.857142857142857,0,631464.1359032257,1222606.9926019423,617704.0037852796,567570.4226125409,528300.917967778,4.209760906021505e-06,0.0,0.0,0.0,4.209760906021505e-06,0.0,23.312159214360264,2.427195278432861,0.028319621117602164,0.0
5364,9.310344827586208,3.793103448275862,3.2142857142857144,0,620178.4380610686,854769.393423888,509308.66878535226,138795.10722232756,86381.70730417751,4.134522920407124e-06,0.0,0.0,0.0,4.134522920407124e-06,0.0,23.74001225593416,2.7153067290287516,0.003411861346398362,0.0
5365,9.310344827586208,3.793103448275862,3.5714285714285716,0,438467.32691189955,652461.7986541698,201777.7695921532,227328.57753341398,10578.037686140662,2.923115512745997e-06,0.0,0.0,0.0,2.923115512745997e-06,0.0,23.81652249446002,3.0032406448699516,0.000372428490097711,0.0
5366,9.310344827586208,3.793103448275862,3.928571428571429,0,261356.25098059105,327354.04778368684,364167.60943006654,86356.393051486,-113532.46727460071,1.7423750065372736e-06,0.0,0.0,0.0,1.7423750065372736e-06,0.0,23.174421828338108,3.296462480131679,-0.003849123855734883,0.0
5367,9.310344827586208,3.793103448275862,4.285714285714286,0,429598.21907433926,599519.8110350927,176056.63833971834,164038.73114625883,36406.98392918319,2.8639881271622617e-06,0.0,0.0,0.0,2.8639881271622617e-06,0.0,22.804932024237157,3.5951342131527384,0.0012198758096213065,0.0
5368,9.310344827586208,3.793103448275862,4.642857142857143,0,31831.323445694703,220469.870644173,227266.7154420429,192585.94453952395,-7546.487514533023,2.12208822971298e-07,0.0,0.0,0.0,2.12208822971298e-07,0.0,22.91997099659989,3.896988373743931,-0.00025194727884135303,0.0
5369,9.310344827586208,3.793103448275862,5.0,0,292854.9270219403,374411.4275644086,417410.4888056162,105433.21578414073,33401.05355245278,1.9523661801462685e-06,0.0,0.0,0.0,1.9523661801462685e-06,0.0,23.060614874383194,4.200106635923438,0.0011139036913320436,0.0
5370,9.655172413793103,3.793103448275862,0.0,0,166596.64912546106,404074.6301787095,416474.58360026346,244024.42082586294,73187.8198294397,1.1106443275030738e-06,0.0,0.0,0.0,1.1106443275030738e-06,0.0,23.023186162979723,-0.04989979162808768,0.0024407668021768354,0.0
5371,9.655172413793103,3.793103448275862,0.35714285714285715,0,209443.46563695098,496783.74870916025,344821.06232221844,257869.68394766102,36640.63505811179,1.3962897709130065e-06,0.0,0.0,0.0,1.3962897709130065e-06,0.0,23.588708338557222,0.25409748842824154,0.0012232854397668201,0.0
5372,9.655172413793103,3.793103448275862,0.7142857142857143,0,228524.84303575536,465958.45797329216,337113.8832662111,202104.7022880709,2423.7106520609873,1.5234989535717024e-06,0.0,0.0,0.0,1.5234989535717024e-06,0.0,23.67789176574787,0.5592826755051399,8.121040731420498e-05,0.0
5373,9.655172413793103,3.793103448275862,1.0714285714285714,0,201908.89457519553,444593.3301943621,273115.0301786432,222056.53336329613,-12879.102602400724,1.3460592971679702e-06,0.0,0.0,0.0,1.3460592971679702e-06,0.0,23.55619255563339,0.867458467204292,-0.0004366439156779277,0.0
5374,9.655172413793103,3.793103448275862,1.4285714285714286,0,411144.0514076346,533214.1829247526,291524.7936222802,58492.235074286116,141717.68311073823,2.740960342717564e-06,0.0,0.0,0.0,2.740960342717564e-06,0.0,23.824285561089898,1.1807556604344123,0.004989555180941551,0.0
5375,9.655172413793103,3.793103448275862,1.7857142857142858,0,121907.13409633888,615891.1635045456,480489.47641088,514856.60290238645,117662.56323062899,8.127142273089258e-07,0.0,0.0,0.0,8.127142273089258e-07,0.0,23.850053172658168,1.499022040209279,0.004647376903435223,0.0
5376,9.655172413793103,3.793103448275862,2.142857142857143,0,353185.3664600762,794705.1007362896,450660.54536283447,433038.65356378676,451630.29652338213,2.3545691097338413e-06,0.0,0.0,0.0,2.3545691097338413e-06,0.0,23.81935473981255,1.8171215862554009,0.024209685139242144,0.0
5377,9.655172413793103,3.793103448275862,2.5,0,1081937.2790557013,1528696.5156627675,1001718.9188592578,284234.10132587823,745734.9170622323,7.212915193704676e-06,0.0,0.0,0.0,7.212915193704676e-06,0.0,23.703679826506303,2.12690922178972,0.07457349170622322,0.0
5378,9.655172413793103,3.793103448275862,2.857142857142857,0,702158.459903514,1291783.469334547,805155.9549928025,486845.50548428297,326144.9042537406,4.68105639935676e-06,0.0,0.0,0.0,4.68105639935676e-06,0.0,23.13566708658894,2.424264443398258,0.01748302871293876,0.0
5379,9.655172413793103,3.793103448275862,3.2142857142857144,0,602039.9143138928,1008293.1666496999,393023.92120013805,420417.79897510883,-68703.93455583003,4.0135994287592855e-06,0.0,0.0,0.0,4.0135994287592855e-06,0.0,23.001063567919935,2.713307754494994,-0.0027136335454807908,0.0
5380,9.655172413793103,3.793103448275862,3.5714285714285716,0,240869.5925545905,450044.38628978946,541838.7427980925,268568.5061083947,88024.98361688862,1.6057972836972698e-06,0.0,0.0,0.0,1.6057972836972698e-06,0.0,23.392294769734615,3.0021842318629837,0.0030991581531483728,0.0
5381,9.655172413793103,3.793103448275862,3.928571428571429,0,387692.6203878997,523668.6650191701,377785.320718545,84197.17785378265,-35552.03116585639,2.584617469252665e-06,0.0,0.0,0.0,2.584617469252665e-06,0.0,24.24576924677942,3.296029895775721,-0.0012053307266664363,0.0
5382,9.655172413793103,3.793103448275862,4.285714285714286,0,156802.08629817708,421098.94194878585,374272.77033448406,246218.44543417636,-8490.023744622868,1.0453472419878472e-06,0.0,0.0,0.0,1.0453472419878472e-06,0.0,24.85490200241673,3.594996961219426,-0.00028447219383295665,0.0
5383,9.655172413793103,3.793103448275862,4.642857142857143,0,340789.16192362003,550963.7737933564,268132.3432331347,172604.94445409588,-4719.642874112739,2.271927746157467e-06,0.0,0.0,0.0,2.271927746157467e-06,0.0,23.966141398047785,3.896954631285385,-0.00015757015127179587,0.0
5384,9.655172413793103,3.793103448275862,5.0,0,279683.05258204154,535859.8005548344,311326.49538398423,222567.76138005484,63762.01257664899,1.864553683880277e-06,0.0,0.0,0.0,1.864553683880277e-06,0.0,23.871227879039985,4.200100208371913,0.0021264221819935333,0.0
5385,10.0,3.793103448275862,0.0,0,322484.5848472699,467396.65619065583,370186.6567068664,107489.60142119264,-34364.60180706175,2.1498972323151328e-06,0.0,0.0,0.0,2.1498972323151328e-06,0.0,24.063886098766556,-0.049906249384656744,-0.0011460374069916402,0.0
5386,10.0,3.793103448275862,0.35714285714285715,0,126716.46011883974,418083.2215736129,327685.2058014921,273243.8086131197,11543.228687887944,8.44776400792265e-07,0.0,0.0,0.0,8.44776400792265e-07,0.0,24.291683785357012,0.25406358740349455,0.00038538261030128724,0.0
5387,10.0,3.793103448275862,0.7142857142857143,0,308712.908599264,536452.771196994,459144.4311652821,196433.0003621769,23052.295732238403,2.0580860573284264e-06,0.0,0.0,0.0,2.0580860573284264e-06,0.0,23.07876127046328,0.5591447785827378,0.0007724050411507137,0.0
5388,10.0,3.793103448275862,1.0714285714285714,0,223096.32414509312,523568.9834978905,305617.8096452599,295660.91905072413,-63884.630247898946,1.487308827633954e-06,0.0,0.0,0.0,1.487308827633954e-06,0.0,24.99612207215858,0.8670238500012687,-0.0021658989732622714,0.0
5389,10.0,3.793103448275862,1.4285714285714286,0,365160.3578428149,464992.66306387284,322752.4365172668,50117.0037933158,-72878.78719390555,2.434402385618766e-06,0.0,0.0,0.0,2.434402385618766e-06,0.0,24.34329713247964,1.179694283017494,-0.0025658952520409574,0.0
5390,10.0,3.793103448275862,1.7857142857142858,0,513788.076625389,566793.4740130624,638109.7717548059,92389.1983320713,26111.476196565076,3.42525384416926e-06,0.0,0.0,0.0,3.42525384416926e-06,0.0,22.87083294993759,1.497013671878776,0.001031337989404996,0.0
5391,10.0,3.793103448275862,2.142857142857143,0,627693.9681983755,1077419.4312542558,511181.00026512693,402470.85600489913,459107.614091985,4.184626454655837e-06,0.0,0.0,0.0,4.184626454655837e-06,0.0,23.059568195561447,1.8141769783246733,0.02461050746098518,0.0
5392,10.0,3.793103448275862,2.5,0,726414.1331231102,1753101.6509469994,1190445.070125538,933033.4679677619,791938.6202415448,4.842760887487401e-06,0.0,0.0,0.0,4.842760887487401e-06,0.0,24.971998408686034,2.1235640210683577,0.07919386202415449,0.0
5393,10.0,3.793103448275862,2.857142857142857,0,783189.4952731982,1405580.164134449,502933.7552443655,906216.5507125473,417630.44710611325,5.221263301821321e-06,0.0,0.0,0.0,5.221263301821321e-06,0.0,24.086694196499245,2.4213198354675303,0.022387119966998194,0.0
5394,10.0,3.793103448275862,3.2142857142857144,0,449100.5710728845,600050.8205737179,638778.3707368516,171568.13136002826,131638.98802407586,2.9940038071525633e-06,0.0,0.0,0.0,2.9940038071525633e-06,0.0,23.274424312607337,2.7112993861644905,0.0051994107194107365,0.0
5395,10.0,3.793103448275862,3.5714285714285716,0,166309.8729570905,412916.249737089,307267.6542379215,221211.59144364164,-39387.03286108148,1.1087324863806034e-06,0.0,0.0,0.0,1.1087324863806034e-06,0.0,23.61734611338071,3.0011228544460655,-0.0013867272563322993,0.0
5396,10.0,3.793103448275862,3.928571428571429,0,331519.37030746776,581775.3481429023,368700.4288907692,199821.1098370816,-7609.160633803675,2.2101291353831182e-06,0.0,0.0,0.0,2.2101291353831182e-06,0.0,23.95953550690615,3.295595278572698,-0.0002579755590693913,0.0
5397,10.0,3.793103448275862,4.285714285714286,0,134420.42644129178,347772.59087870305,396637.85230013676,244619.99237255505,-5102.832847483982,8.961361762752785e-07,0.0,0.0,0.0,8.961361762752785e-07,0.0,24.03157497956132,3.5948590642970237,-0.00017097879800466012,0.0
5398,10.0,3.793103448275862,4.642857142857143,0,209636.79832427643,494229.9843015231,327742.5140656849,258805.3407144188,-37219.3951220095,1.3975786554951762e-06,0.0,0.0,0.0,1.3975786554951762e-06,0.0,24.27608610783635,3.896920730260638,-0.0012426079421787384,0.0
5399,10.0,3.793103448275862,5.0,0,273380.4091797563,393197.3363485853,206322.44701857519,79430.18436585758,103220.23582234446,1.8225360611983753e-06,0.0,0.0,0.0,1.8225360611983753e-06,0.0,23.71781020749081,4.200093750615343,0.0034423285936808494,0.0
5400,0.0,4.137931034482759,0.0,0,386428.6820364577,593486.9307007812,233484.8694069312,185174.68000856784,-96885.5223494522,2.5761912135763845e-06,0.0,0.0,0.0,2.5761912135763845e-06,0.0,23.690574052038638,-0.04990490142894272,-0.0032310699664670583,0.0
5401,0.0,4.137931034482759,0.35714285714285715,0,334550.3125605155,379428.35922295705,248612.51190208373,-764.1291823699553,55649.79498373995,2.230335417070103e-06,0.0,0.0,0.0,2.230335417070103e-06,0.0,23.37317712575078,0.25407066371235354,0.0018579258744192153,0.0
5402,0.0,4.137931034482759,0.7142857142857143,0,366427.76048953226,552870.4602898826,144440.99913959595,252956.53898807295,36007.44336835644,2.442851736596882e-06,0.0,0.0,0.0,2.442851736596882e-06,0.0,23.095341154615717,0.559173562409212,0.0012064885467251787,0.0
5403,0.0,4.137931034482759,1.0714285714285714,0,304160.62948185345,480729.0726993025,429049.9102078038,154039.63413277883,37768.46957792998,2.027737529879023e-06,0.0,0.0,0.0,2.027737529879023e-06,0.0,23.077010803373618,0.8671145695469745,0.0012804752749307213,0.0
5404,0.0,4.137931034482759,1.4285714285714286,0,420723.8051307155,565913.1838618029,388981.6609320865,85618.44522833775,11935.690015378786,2.804825367538103e-06,0.0,0.0,0.0,2.804825367538103e-06,0.0,23.49740447414268,1.1799158289581873,0.00042022832046873236,0.0
5405,0.0,4.137931034482759,1.7857142857142858,0,105224.2941252442,467623.95949311095,364950.8352741508,360021.73959404853,184209.02314242546,7.014952941682946e-07,0.0,0.0,0.0,7.014952941682946e-07,0.0,23.746122838145137,1.4974328873660738,0.007275795597606208,0.0
5406,0.0,4.137931034482759,2.142857142857143,0,668289.0550231633,639638.4482010012,1133264.9202148635,372778.6942044542,379980.8713995308,4.455260366821089e-06,0.0,0.0,0.0,4.455260366821089e-06,0.0,22.85111942548673,1.8147916191900126,0.020368910868762392,0.0
5407,0.0,4.137931034482759,2.5,0,482897.4170052788,1286001.7764292837,753038.3283635756,877560.9469476999,829063.4046160826,3.2193161133685255e-06,0.0,0.0,0.0,3.2193161133685255e-06,0.0,24.606656039434267,2.124262279415303,0.08290634046160825,0.0
5408,0.0,4.137931034482759,2.857142857142857,0,830217.0414486573,1199863.742550361,857681.8203063905,253244.58401784473,439616.1072040056,5.534780276324382e-06,0.0,0.0,0.0,5.534780276324382e-06,0.0,23.240408669917226,2.42193447633287,0.023565663374395168,0.0
5409,0.0,4.137931034482759,3.2142857142857144,0,217141.35410684507,598064.318660551,412836.6243932886,651800.714508199,63363.80546243406,1.4476090273789671e-06,0.0,0.0,0.0,1.4476090273789671e-06,0.0,23.164337619405917,2.7117186016517882,0.00250271180513619,0.0
5410,0.0,4.137931034482759,3.5714285714285716,0,227347.3939935822,421435.23356763984,159654.41830636704,307572.48363060947,13336.60026411658,1.5156492932905479e-06,0.0,0.0,0.0,1.5156492932905479e-06,0.0,23.58356705699751,3.001344400386759,0.0004695511631528161,0.0
5411,0.0,4.137931034482759,3.928571428571429,0,279958.57405232603,515647.91994573444,198004.53172116913,304828.03717917966,-43686.347596546104,1.8663904936821736e-06,0.0,0.0,0.0,1.8663904936821736e-06,0.0,22.417462034248075,3.2956859981184037,-0.0014811107935942041,0.0
5412,0.0,4.137931034482759,4.285714285714286,0,358391.2263675501,500627.8569174369,274619.9278311613,87399.67094998383,-29873.45081388758,2.389274842450334e-06,0.0,0.0,0.0,2.389274842450334e-06,0.0,23.788028851529692,3.594887848123498,-0.001000959048644571,0.0
5413,0.0,4.137931034482759,4.642857142857143,0,83679.4136048463,436185.3954501434,394564.1077328556,339856.5712120902,70883.75535836314,5.57862757365642e-07,0.0,0.0,0.0,5.57862757365642e-07,0.0,23.116782984633492,3.8969278065694968,0.0023665273734572506,0.0
5414,0.0,4.137931034482759,5.0,0,391078.88001826196,518429.93624318956,344997.98281324044,70627.1160356251,129226.16223898839,2.6071925334550796e-06,0.0,0.0,0.0,2.6071925334550796e-06,0.0,22.655631835396203,4.200095098571057,0.004309609542963418,0.0
5415,0.3448275862068966,4.137931034482759,0.0,0,156554.5118314869,307238.3585258719,292333.97427448165,143764.66252215247,20878.028049112145,1.0436967455432459e-06,0.0,0.0,0.0,1.0436967455432459e-06,0.0,23.719062517435344,-0.04989834847740244,0.0006962688310151271,0.0
5416,0.3448275862068966,4.137931034482759,0.35714285714285715,0,220232.7052588651,373024.7874412818,119678.90617293921,265439.6124938879,33476.953047263385,1.4682180350591007e-06,0.0,0.0,0.0,1.4682180350591007e-06,0.0,23.723157303469055,0.2541050644783095,0.0011176626487375398,0.0
5417,0.3448275862068966,4.137931034482759,0.7142857142857143,0,289399.21909996495,535681.5454613259,384370.36165495333,201993.7806474634,10159.88980583852,1.9293281273330995e-06,0.0,0.0,0.0,1.9293281273330995e-06,0.0,24.629435491301287,0.5593134920953795,0.0003404237996387795,0.0
5418,0.3448275862068966,4.137931034482759,1.0714285714285714,0,316888.4418786597,420759.5995756909,309130.7020108852,63162.90062334473,19154.783915791293,2.112589612524398e-06,0.0,0.0,0.0,2.112589612524398e-06,0.0,23.751354946781564,0.8675555935217135,0.0006494101422405505,0.0
5419,0.3448275862068966,4.137931034482759,1.4285714285714286,0,181406.27400073558,494561.6283728073,326142.0947843187,302489.0701433006,32294.646231759736,1.2093751600049038e-06,0.0,0.0,0.0,1.2093751600049038e-06,0.0,23.75237017234681,1.1809928523338182,0.0011370205600696964,0.0
5420,0.3448275862068966,4.137931034482759,1.7857142857142858,0,594931.7400860208,1009674.0819458379,640195.9685478837,323379.22760147724,144334.66637718232,3.966211600573472e-06,0.0,0.0,0.0,3.966211600573472e-06,0.0,23.691663505235304,1.4994708614216261,0.005700858254902729,0.0
5421,0.3448275862068966,4.137931034482759,2.142857142857143,0,568023.89039794,737253.5141723853,972074.7719416843,324291.28106507333,543477.7046616101,3.786825935986266e-06,0.0,0.0,0.0,3.786825935986266e-06,0.0,22.386537606904994,1.8177796341250487,0.029133174216478666,0.0
5422,0.3448275862068966,4.137931034482759,2.5,0,1173033.9822607806,1396471.4933381907,1121380.260403552,110338.77363905267,588515.7719654816,7.820226548405205e-06,0.0,0.0,0.0,7.820226548405205e-06,0.0,23.71889308967128,2.1276567923526004,0.058851577196548155,0.0
5423,0.3448275862068966,4.137931034482759,2.857142857142857,0,795537.2113534834,1364486.0271326555,666051.0445779781,498527.89877907286,675631.7149656005,5.303581409023222e-06,0.0,0.0,0.0,5.303581409023222e-06,0.0,23.66098820004659,2.424922491267906,0.036217302548826116,0.0
5424,0.3448275862068966,4.137931034482759,3.2142857142857144,0,355568.898813649,646099.6840703952,345016.89574186713,253812.3328917685,82341.42184930574,2.370459325424327e-06,0.0,0.0,0.0,2.370459325424327e-06,0.0,23.617581782295222,2.713756575707341,0.0032522801780920725,0.0
5425,0.3448275862068966,4.137931034482759,3.5714285714285716,0,312871.92983898154,565308.598600692,433069.38881010725,208030.20880162952,12748.989399046986,2.08581286559321e-06,0.0,0.0,0.0,2.08581286559321e-06,0.0,23.277772966691728,3.00242142376239,0.00044886272984068996,0.0
5426,0.3448275862068966,4.137931034482759,3.928571428571429,0,259140.03411425042,333562.8289034082,177237.91318296856,34435.55976210919,-16873.326985500436,1.7276002274283362e-06,0.0,0.0,0.0,1.7276002274283362e-06,0.0,23.981944668657757,3.2961270220931427,-0.0005720612524734132,0.0
5427,0.3448275862068966,4.137931034482759,4.285714285714286,0,277353.51048578,347560.2279922509,438936.31641979096,127423.55998658207,-16476.15298075788,1.8490234032385335e-06,0.0,0.0,0.0,1.8490234032385335e-06,0.0,23.215839598220178,3.5950277778096655,-0.0005520605743101843,0.0
5428,0.3448275862068966,4.137931034482759,4.642857142857143,0,204650.48289593516,432536.1330777516,283379.1639314514,199225.26659764253,24754.402234734727,1.3643365526395677e-06,0.0,0.0,0.0,1.3643365526395677e-06,0.0,24.061588725243357,3.8969622073354526,0.0008264512821859028,0.0
5429,0.3448275862068966,4.137931034482759,5.0,0,234452.1646459925,465665.527598687,195878.0822872941,311307.2661234932,25584.07252065748,1.5630144309732834e-06,0.0,0.0,0.0,1.5630144309732834e-06,0.0,23.90771303972287,4.200101651522598,0.0008532123926963471,0.0
5430,0.6896551724137931,4.137931034482759,0.0,0,297246.7004027473,442682.0099772199,164037.15106395964,129798.68961705823,20439.221404305415,1.9816446693516486e-06,0.0,0.0,0.0,1.9816446693516486e-06,0.0,24.445268253030914,-0.049891811683883444,0.0006816349111400054,0.0
5431,0.6896551724137931,4.137931034482759,0.35714285714285715,0,280919.63176881446,475226.6376455611,160761.20179505678,249077.61718861051,-16450.656411599546,1.8727975451254297e-06,0.0,0.0,0.0,1.8727975451254297e-06,0.0,23.516808512189737,0.25413938042015144,-0.000549222152700141,0.0
5432,0.6896551724137931,4.137931034482759,0.7142857142857143,0,135755.16916431472,357944.7800936749,264173.2959563598,202271.87183871734,-98004.45996245075,9.050344610954315e-07,0.0,0.0,0.0,9.050344610954315e-07,0.0,24.42214883077546,0.5594530767481931,-0.003283800442677202,0.0
5433,0.6896551724137931,4.137931034482759,1.0714285714285714,0,261979.0800030909,463056.90631818,261194.7968503993,167005.87585094964,-66880.72530723634,1.746527200020606e-06,0.0,0.0,0.0,1.746527200020606e-06,0.0,23.86444414438635,0.8679955300361334,-0.0022674764448330402,0.0
5434,0.6896551724137931,4.137931034482759,1.4285714285714286,0,280377.29099294223,404675.5487434427,196710.36983697995,85810.9251962852,6037.848509983606,1.8691819399529481e-06,0.0,0.0,0.0,1.8691819399529481e-06,0.0,23.725417973447367,1.1820672200257434,0.00021257882328762264,0.0
5435,0.6896551724137931,4.137931034482759,1.7857142857142858,0,526716.3242917577,734566.6447058561,391241.44365918735,128132.90781291593,86452.03196809131,3.511442161945051e-06,0.0,0.0,0.0,3.511442161945051e-06,0.0,23.341192688486036,1.5015038103174514,0.003414638994699073,0.0
5436,0.6896551724137931,4.137931034482759,2.142857142857143,0,528062.9250991342,960249.096321205,393147.86805659905,482668.58619388996,309042.6975225323,3.5204195006608947e-06,0.0,0.0,0.0,3.5204195006608947e-06,0.0,23.970288309518814,1.8207602813253116,0.016566263289237066,0.0
5437,0.6896551724137931,4.137931034482759,2.5,0,758766.3005715098,1181527.8605474653,887240.137288828,319700.60689241166,550779.220550598,5.058442003810065e-06,0.0,0.0,0.0,5.058442003810065e-06,0.0,23.539183673689603,2.1310429352276485,0.05507792205505979,0.0
5438,0.6896551724137931,4.137931034482759,2.857142857142857,0,645024.8628206912,1000082.5228982916,635325.1694058034,255323.9670118719,375092.9478813448,4.300165752137941e-06,0.0,0.0,0.0,4.300165752137941e-06,0.0,23.76802464332367,2.4279031384681686,0.020106893262169315,0.0
5439,0.6896551724137931,4.137931034482759,3.2142857142857144,0,181516.3801514778,422574.01945688674,388509.9833762772,226438.8821033774,58852.52833644144,1.210109201009852e-06,0.0,0.0,0.0,1.210109201009852e-06,0.0,24.175406217152975,2.715789524603166,0.002324527644051417,0.0
5440,0.6896551724137931,4.137931034482759,3.5714285714285716,0,163359.3669075094,336748.7697047412,192176.0600435044,159532.28825489074,-15239.00603181863,1.0890624460500626e-06,0.0,0.0,0.0,1.0890624460500626e-06,0.0,23.77606661140089,3.003495791454315,-0.0005365305149608307,0.0
5441,0.6896551724137931,4.137931034482759,3.928571428571429,0,154649.69760211415,381484.52742601297,239231.98725250267,216871.94775831845,-60150.961261247394,1.0309979840140943e-06,0.0,0.0,0.0,1.0309979840140943e-06,0.0,23.95478362434207,3.2965669586075625,-0.0020393153209297805,0.0
5442,0.6896551724137931,4.137931034482759,4.285714285714286,0,124514.67282008122,240397.0226427447,223891.55295541065,108452.81335442468,-30616.19209592418,8.300978188005415e-07,0.0,0.0,0.0,8.300978188005415e-07,0.0,24.557723602539223,3.595167362462479,-0.0010258458155496782,0.0
5443,0.6896551724137931,4.137931034482759,4.642857142857143,0,193209.22978022246,421811.79792784003,276162.5561713396,202633.05085533395,33730.475483675764,1.2880615318681498e-06,0.0,0.0,0.0,1.2880615318681498e-06,0.0,24.0870489072273,3.8969965232772945,0.0011261267570867976,0.0
5444,0.6896551724137931,4.137931034482759,5.0,0,217833.23393177625,424646.1618384553,265208.2546331233,176445.80536097966,-34810.05098256283,1.452221559545175e-06,0.0,0.0,0.0,1.452221559545175e-06,0.0,23.47079819694156,4.200108188316117,-0.001160892851000682,0.0
5445,1.0344827586206897,4.137931034482759,0.0,0,300314.13165250793,349891.30576224346,281904.7182026688,21412.111463937126,21794.584030842336,2.0020942110167197e-06,0.0,0.0,0.0,2.0020942110167197e-06,0.0,23.63779057835381,-0.049885295093204184,0.000726835384544896,0.0
5446,1.0344827586206897,4.137931034482759,0.35714285714285715,0,90259.20877102927,254816.3469191346,198093.77073752353,150734.27712698077,45538.9229770349,6.017280584735285e-07,0.0,0.0,0.0,6.017280584735285e-07,0.0,23.915622228964263,0.25417359030395875,0.0015203639710970733,0.0
5447,1.0344827586206897,4.137931034482759,0.7142857142857143,0,410163.7136707543,420471.8465926874,108054.19912153699,-44007.44633127516,-26062.18204294126,2.7344247578050285e-06,0.0,0.0,0.0,2.7344247578050285e-06,0.0,24.910781939438593,0.5595922299958596,-0.0008732562269363501,0.0
5448,1.0344827586206897,4.137931034482759,1.0714285714285714,0,349996.3598501934,477808.0803390255,304933.38566279766,75011.43273642304,-14877.834893875852,2.3333090656679557e-06,0.0,0.0,0.0,2.3333090656679557e-06,0.0,23.18738986440941,0.868434106867573,-0.0005044075107888895,0.0
5449,1.0344827586206897,4.137931034482759,1.4285714285714286,0,207912.0591044798,406124.42163808906,202307.02739556145,194346.36266282952,43911.98357891919,1.3860803940298653e-06,0.0,0.0,0.0,1.3860803940298653e-06,0.0,23.95454758596284,1.1831382672397874,0.001546040411911129,0.0
5450,1.0344827586206897,4.137931034482759,1.7857142857142858,0,377252.7359481876,622847.3576385977,270486.4931941251,224853.95761161172,129202.77465856602,2.515018239654584e-06,0.0,0.0,0.0,2.515018239654584e-06,0.0,24.546425141654485,1.5035304761112318,0.005103186385894234,0.0
5451,1.0344827586206897,4.137931034482759,2.142857142857143,0,731305.3297052169,871097.2505973309,578899.0706809899,38869.41689244968,261812.50183575653,4.875368864701446e-06,0.0,0.0,0.0,4.875368864701446e-06,0.0,24.17625270304152,1.8237317164344309,0.014034484142789933,0.0
5452,1.0344827586206897,4.137931034482759,2.5,0,802067.2333103357,1089704.3686302057,749199.673128956,173560.43290831457,408727.3397184728,5.347114888735571e-06,0.0,0.0,0.0,5.347114888735571e-06,0.0,23.807603969540654,2.1344186127726217,0.04087273397184728,0.0
5453,1.0344827586206897,4.137931034482759,2.857142857142857,0,808245.0801576691,817291.9154415412,497224.1812208153,-101970.23995383098,420874.5322113701,5.388300534384461e-06,0.0,0.0,0.0,5.388300534384461e-06,0.0,23.01859584393953,2.430874573577288,0.022561019458612806,0.0
5454,1.0344827586206897,4.137931034482759,3.2142857142857144,0,422030.8387194514,561235.584264901,334712.02194183297,74309.066187246,92526.49718324214,2.8135389247963427e-06,0.0,0.0,0.0,2.8135389247963427e-06,0.0,24.6388671346973,2.717816190396946,0.0036545651748408283,0.0
5455,1.0344827586206897,4.137931034482759,3.5714285714285716,0,244278.68024647117,465984.1353193887,245310.14028248575,203498.14977013436,20764.726545152836,1.6285245349764744e-06,0.0,0.0,0.0,1.6285245349764744e-06,0.0,23.651276541922474,3.004566838668359,0.0007310784839266921,0.0
5456,1.0344827586206897,4.137931034482759,3.928571428571429,0,348912.6158491713,498748.5467435388,333820.14938683284,97946.50660155655,31300.726243252826,2.326084105661142e-06,0.0,0.0,0.0,2.326084105661142e-06,0.0,23.416122828185156,3.2970055354390024,0.0010611975144812608,0.0
5457,1.0344827586206897,4.137931034482759,4.285714285714286,0,91047.99815566602,237246.98006994755,230484.85569724775,143006.44824157152,-39046.64932705354,6.069866543711068e-07,0.0,0.0,0.0,6.069866543711068e-07,0.0,24.022810717330454,3.5953065157101456,-0.0013083221354861444,0.0
5458,1.0344827586206897,4.137931034482759,4.642857142857143,0,174842.2353574995,321647.77557643567,166338.42510516633,132283.38049981504,12849.662846434609,1.16561490238333e-06,0.0,0.0,0.0,1.16561490238333e-06,0.0,24.615655959974887,3.897030733161102,0.00042899926382351767,0.0
5459,1.0344827586206897,4.137931034482759,5.0,0,104723.80113191,250869.3226483397,166974.0985302623,133501.10298667685,-9368.22599495185,6.981586742127333e-07,0.0,0.0,0.0,6.981586742127333e-07,0.0,24.109259506645564,4.200114704906796,-0.00031242432220355404,0.0
5460,1.3793103448275863,4.137931034482759,0.0,0,208822.08955681106,397684.57460898475,196013.1010999692,182379.94397321486,18181.56768859626,1.3921472637120737e-06,0.0,0.0,0.0,1.3921472637120737e-06,0.0,23.754294020983227,-0.049878804202624645,0.0006063436092135949,0.0
5461,1.3793103448275863,4.137931034482759,0.35714285714285715,0,141898.84839394543,266236.23498774774,225542.6392075146,108436.51198367024,24107.05793335774,9.459923226263029e-07,0.0,0.0,0.0,9.459923226263029e-07,0.0,24.065334655071798,0.2542076652709869,0.0008048390241796054,0.0
5462,1.3793103448275863,4.137931034482759,0.7142857142857143,0,56654.97904813648,215302.70749164445,241161.1299186347,176190.6548548517,29560.93669543019,3.776998603209099e-07,0.0,0.0,0.0,3.776998603209099e-07,0.0,24.00529902690246,0.5597308344516012,0.0009904877496758665,0.0
5463,1.3793103448275863,4.137931034482759,1.0714285714285714,0,336647.10841654043,351621.78320955636,226018.2415338933,-29769.20330281021,18864.275741674854,2.2443140561102697e-06,0.0,0.0,0.0,2.2443140561102697e-06,0.0,23.716745633504342,0.8688709540417638,0.000639560960150876,0.0
5464,1.3793103448275863,4.137931034482759,1.4285714285714286,0,281158.8649200572,488786.7315254593,192644.8846563102,225497.2669491396,13638.980958445121,1.8743924328003812e-06,0.0,0.0,0.0,1.8743924328003812e-06,0.0,23.989167797977423,1.1842050904628567,0.0004801972951448608,0.0
5465,1.3793103448275863,4.137931034482759,1.7857142857142858,0,445526.9273057735,587981.4135640218,319349.18136230216,73702.42319612917,69429.59341249656,2.970179515371823e-06,0.0,0.0,0.0,2.970179515371823e-06,0.0,23.548131048714954,1.5055491491499695,0.002742295255013967,0.0
5466,1.3793103448275863,4.137931034482759,2.142857142857143,0,597480.641928995,800581.1129602417,651242.7118504075,142596.68978092517,318274.07225480035,3.983204279526634e-06,0.0,0.0,0.0,3.983204279526634e-06,0.0,23.470513939031754,1.8266914328117168,0.017061112012608737,0.0
5467,1.3793103448275863,4.137931034482759,2.5,0,669612.0360317386,978962.8712172885,426017.4777982442,234442.2894350272,465641.73406910343,4.464080240211591e-06,0.0,0.0,0.0,4.464080240211591e-06,0.0,24.24601613494199,2.13778097733634,0.04656417340691034,0.0
5468,1.3793103448275863,4.137931034482759,2.857142857142857,0,516216.40558221616,986705.0360828697,466715.63100822154,474346.22882815887,261572.83184503912,3.441442703881441e-06,0.0,0.0,0.0,3.441442703881441e-06,0.0,23.777251816539327,2.4338342899545737,0.014021636610068456,0.0
5469,1.3793103448275863,4.137931034482759,3.2142857142857144,0,311560.0846589339,428330.93054981006,425388.9593004224,115310.27800737115,75563.87055785257,2.0770672310595594e-06,0.0,0.0,0.0,2.0770672310595594e-06,0.0,23.96637143845481,2.719834863435684,0.0029845838567735534,0.0
5470,1.3793103448275863,4.137931034482759,3.5714285714285716,0,240430.34494942392,354263.6507333434,317093.8397776619,97413.02250538033,28126.40073957642,1.6028689663294929e-06,0.0,0.0,0.0,1.6028689663294929e-06,0.0,23.5980083670626,3.0056336618914283,0.0009902661788630251,0.0
5471,1.3793103448275863,4.137931034482759,3.928571428571429,0,192212.45793628105,283589.95526647015,206244.133917381,64753.65506513323,-20099.52139892899,1.2814163862418737e-06,0.0,0.0,0.0,1.2814163862418737e-06,0.0,23.705199328209137,3.2974423826131933,-0.0006814398485531673,0.0
5472,1.3793103448275863,4.137931034482759,4.285714285714286,0,82702.15558323743,231969.51162473534,186973.0333396291,136525.1674143482,-32581.501865207367,5.513477038882495e-07,0.0,0.0,0.0,5.513477038882495e-07,0.0,23.751689787358544,3.595445120165887,-0.0010916967481790975,0.0
5473,1.3793103448275863,4.137931034482759,4.642857142857143,0,136640.94289493762,281886.20112771797,131413.57323876108,165549.5408664354,-50543.79957274815,9.109396192995841e-07,0.0,0.0,0.0,9.109396192995841e-07,0.0,23.70451035413129,3.89706480812813,-0.001687456944722003,0.0
5474,1.3793103448275863,4.137931034482759,5.0,0,136337.72153451163,368467.4289398952,242859.35275282143,223474.9931818537,-38047.003401952665,9.089181435634108e-07,0.0,0.0,0.0,9.089181435634108e-07,0.0,23.79795806064565,4.200121195797376,-0.0012688431359508927,0.0
5475,1.7241379310344829,4.137931034482759,0.0,0,57549.440125381196,312920.97401786246,270882.881955019,247331.34160335892,-15165.338704084563,3.8366293416920794e-07,0.0,0.0,0.0,3.8366293416920794e-07,0.0,24.130891489512276,-0.049872346665654245,-0.0005057543091044204,0.0
5476,1.7241379310344829,4.137931034482759,0.35714285714285715,0,181337.86962765758,317352.0788345534,341014.0616664414,149006.7513641218,-12555.46269861471,1.2089191308510506e-06,0.0,0.0,0.0,1.2089191308510506e-06,0.0,24.73188004060446,0.2542415651429157,-0.0004191770880715269,0.0
5477,1.7241379310344829,4.137931034482759,0.7142857142857143,0,136036.04501462824,290285.03380425106,219213.54474242008,133433.84044210677,-7972.7137501235875,9.069069667641883e-07,0.0,0.0,0.0,9.069069667641883e-07,0.0,24.422097567272505,0.5598687266847618,-0.00026713887257809814,0.0
5478,1.7241379310344829,4.137931034482759,1.0714285714285714,0,239197.94484518122,320967.7388171099,200433.0006112759,45481.43587612035,-34826.39816150919,1.5946529656345415e-06,0.0,0.0,0.0,1.5946529656345415e-06,0.0,23.879091849836886,0.8693055564654508,-0.0011807293824466737,0.0
5479,1.7241379310344829,4.137931034482759,1.4285714285714286,0,100988.15341379047,283592.43293349247,174244.05935544134,264001.1055889806,-56957.50307011207,6.732543560919364e-07,0.0,0.0,0.0,6.732543560919364e-07,0.0,23.734824457793138,1.1852664317872006,-0.002005343287435089,0.0
5480,1.7241379310344829,4.137931034482759,1.7857142857142858,0,272759.9426850921,453747.24062525923,156825.65876022013,214313.0085099038,57071.88305090384,1.818399617900614e-06,0.0,0.0,0.0,1.818399617900614e-06,0.0,23.16634386788312,1.5075574491850832,0.002254196609727459,0.0
5481,1.7241379310344829,4.137931034482759,2.142857142857143,0,433292.116070613,744151.0402887183,527005.165232809,245222.09914534327,279384.5285578361,2.88861410713742e-06,0.0,0.0,0.0,2.88861410713742e-06,0.0,23.72401006122953,1.8296359406098435,0.014976434311932029,0.0
5482,1.7241379310344829,4.137931034482759,2.5,0,542163.1953274589,890004.1984118294,986605.5391017679,402635.1327250157,538919.8058037673,3.6144213021830595e-06,0.0,0.0,0.0,3.6144213021830595e-06,0.0,23.51611607372331,2.1411260643027785,0.053891980580376725,0.0
5483,1.7241379310344829,4.137931034482759,2.857142857142857,0,532093.860663231,762523.1309678149,683783.1252992388,195446.87917868805,328693.78264663625,3.54729240442154e-06,0.0,0.0,0.0,3.54729240442154e-06,0.0,24.097310482487934,2.4367787977527002,0.01761966158240133,0.0
5484,1.7241379310344829,4.137931034482759,3.2142857142857144,0,491545.7014516322,470306.27865768963,446595.8241751137,-32665.571573239595,69928.06696627231,3.2769713430108815e-06,0.0,0.0,0.0,3.2769713430108815e-06,0.0,24.909074398445885,2.7218431634707976,0.002761983713408758,0.0
5485,1.7241379310344829,4.137931034482759,3.5714285714285716,0,120355.4747447214,312169.53118783975,252946.17631706392,173677.70873319276,8116.187671267765,8.023698316314761e-07,0.0,0.0,0.0,8.023698316314761e-07,0.0,23.88192751176114,3.006695003215772,0.00028575238711053656,0.0
5486,1.7241379310344829,4.137931034482759,3.928571428571429,0,266075.58844011603,474059.0096661632,224282.05739832023,194235.62994175058,25639.16079790655,1.7738372562674402e-06,0.0,0.0,0.0,1.7738372562674402e-06,0.0,23.35789240952188,3.29787698503688,0.0008692518346276007,0.0
5487,1.7241379310344829,4.137931034482759,4.285714285714286,0,241778.02462851343,333170.12895488396,60705.630351802516,144222.26579943244,40165.695284346046,1.611853497523423e-06,0.0,0.0,0.0,1.611853497523423e-06,0.0,23.990994001425555,3.5955830123990475,0.0013458176087670663,0.0
5488,1.7241379310344829,4.137931034482759,4.642857142857143,0,169483.80348413112,304354.90827420796,239660.20186766877,112052.23047786222,-19023.06714673991,1.1298920232275407e-06,0.0,0.0,0.0,1.1298920232275407e-06,0.0,23.873317129912003,3.8970987080000588,-0.0006351047415910343,0.0
5489,1.7241379310344829,4.137931034482759,5.0,0,136620.99510389692,267960.4182080824,164181.94966684957,113174.05859566506,21649.71689657254,9.108066340259794e-07,0.0,0.0,0.0,9.108066340259794e-07,0.0,24.729007398636355,4.200127653334346,0.0007220041586267552,0.0
5490,2.0689655172413794,4.137931034482759,0.0,0,113683.3376726426,242377.8734121687,149103.53986182998,115748.04891176059,-16629.35751927753,7.578889178176174e-07,0.0,0.0,0.0,7.578889178176174e-07,0.0,23.18469196568778,-0.049865933438872974,-0.0005545783966399245,0.0
5491,2.0689655172413794,4.137931034482759,0.35714285714285715,0,127101.50772224137,259502.4404717778,169303.5147366504,114138.78353455279,5836.719425768416,8.473433848149424e-07,0.0,0.0,0.0,8.473433848149424e-07,0.0,23.63600784908788,0.2542752324014279,0.00019486490554060295,0.0
5492,2.0689655172413794,4.137931034482759,0.7142857142857143,0,157321.25792644717,282980.17582072824,168039.70966425698,103684.26759410885,28595.109664864758,1.0488083861763145e-06,0.0,0.0,0.0,1.0488083861763145e-06,0.0,24.51705879639766,0.560005672731945,0.0009581261282584788,0.0
5493,2.0689655172413794,4.137931034482759,1.0714285714285714,0,53462.83951798034,171833.6751009797,153259.82471424172,111561.12182788979,-7360.650428958268,3.564189301198689e-07,0.0,0.0,0.0,3.564189301198689e-07,0.0,23.356516667313965,0.8697371767435181,-0.00024955024619787217,0.0
5494,2.0689655172413794,4.137931034482759,1.4285714285714286,0,7026.877360192383,219599.44165633534,224929.16830814304,227562.6552724656,-26448.9280542569,4.684584906794922e-08,0.0,0.0,0.0,4.684584906794922e-08,0.0,24.432924947650417,1.186320490422335,-0.0009312062059351318,0.0
5495,2.0689655172413794,4.137931034482759,1.7857142857142858,0,156367.99943556625,400079.34198435827,269743.4423097106,226696.94676435282,27240.749908949074,1.0424533295704417e-06,0.0,0.0,0.0,1.0424533295704417e-06,0.0,23.818089741406332,1.5095519687099506,0.0010759414760577821,0.0
5496,2.0689655172413794,4.137931034482759,2.142857142857143,0,365043.47820600856,707422.2215322481,489126.2265045565,285997.2877952909,191459.57088375534,2.433623188040057e-06,0.0,0.0,0.0,2.433623188040057e-06,0.0,24.668632388378946,1.8325602438473103,0.010263208566102371,0.0
5497,2.0689655172413794,4.137931034482759,2.5,0,397787.4488098464,761007.9753165529,321752.07344759145,425080.65234761045,375313.6470167179,2.651916325398976e-06,0.0,0.0,0.0,2.651916325398976e-06,0.0,24.13575452596825,2.144448198022984,0.03753136470167179,0.0
5498,2.0689655172413794,4.137931034482759,2.857142857142857,0,481917.14880009316,880092.988629025,446415.65296054824,361282.27787817887,338158.57299717213,3.212780992000621e-06,0.0,0.0,0.0,3.212780992000621e-06,0.0,24.08513689354793,2.439703100990167,0.018127022572262532,0.0
5499,2.0689655172413794,4.137931034482759,3.2142857142857144,0,88465.85757626635,322549.2650606222,220409.4788472503,270135.49289715337,72702.71530557683,5.897723838417757e-07,0.0,0.0,0.0,5.897723838417757e-07,0.0,24.4691074067693,2.7238376829956654,0.0028715753817626396,0.0
5500,2.0689655172413794,4.137931034482759,3.5714285714285716,0,166772.05493080866,271963.89348316565,182980.886654416,79572.29988074978,-19006.81899127002,1.1118136995387245e-06,0.0,0.0,0.0,1.1118136995387245e-06,0.0,24.183968916199596,3.0077490618509066,-0.0006691865834202572,0.0
5501,2.0689655172413794,4.137931034482759,3.928571428571429,0,239443.38265167817,359143.5091901499,200687.82738745515,83696.45115141217,-26934.90334893332,1.5962892176778544e-06,0.0,0.0,0.0,1.5962892176778544e-06,0.0,23.561115290726562,3.2983086053149475,-0.0009131817666001415,0.0
5502,2.0689655172413794,4.137931034482759,4.285714285714286,0,194724.78351519612,274334.40444859705,101369.4385722063,63432.944864657504,-24467.298892901683,1.2981652234346408e-06,0.0,0.0,0.0,1.2981652234346408e-06,0.0,23.923489223408374,3.5957199584462307,-0.0008198170467589892,0.0
5503,2.0689655172413794,4.137931034482759,4.642857142857143,0,168604.4786846054,313630.8219502616,142701.45093912893,147451.6220943538,-19178.770279088883,1.1240298578973693e-06,0.0,0.0,0.0,1.1240298578973693e-06,0.0,23.37506983026397,3.8971323752585714,-0.0006403030514572934,0.0
5504,2.0689655172413794,4.137931034482759,5.0,0,204633.31621741925,375719.5991614303,216811.2505451393,144819.4058855655,30709.19844707991,1.3642221081161284e-06,0.0,0.0,0.0,1.3642221081161284e-06,0.0,23.761211309636916,4.2001340665611275,0.0010241320518327962,0.0
5505,2.413793103448276,4.137931034482759,0.0,0,161102.20318762187,221675.4894324466,107425.98993552313,37412.1980436441,-2833.6204412376856,1.0740146879174792e-06,0.0,0.0,0.0,1.0740146879174792e-06,0.0,23.151709684463203,-0.049859580724213204,-9.449942243204498e-05,0.0
5506,2.413793103448276,4.137931034482759,0.35714285714285715,0,139952.69651699805,252328.74766670063,271749.2403415583,123100.55220137168,54876.80213175975,9.33017976779987e-07,0.0,0.0,0.0,9.33017976779987e-07,0.0,25.394956544245005,0.25430858199189144,0.0018321187097952534,0.0
5507,2.413793103448276,4.137931034482759,0.7142857142857143,0,69416.57550983324,244192.5520340199,242996.00673396,174185.43870053624,-1022.7154648602384,4.6277717006555497e-07,0.0,0.0,0.0,4.6277717006555497e-07,0.0,24.217423509282884,0.5601413266221331,-3.426776187050671e-05,0.0
5508,2.413793103448276,4.137931034482759,1.0714285714285714,0,67118.21597988936,162063.66475027127,159938.54211223483,93908.1246133987,-15146.159415993645,4.474547731992624e-07,0.0,0.0,0.0,4.474547731992624e-07,0.0,24.501848225711,0.8701647244603615,-0.0005135045941515209,0.0
5509,2.413793103448276,4.137931034482759,1.4285714285714286,0,136267.02454755816,290015.9792848175,167765.2684179126,143101.4943042766,32574.48932556178,9.084468303170544e-07,0.0,0.0,0.0,9.084468303170544e-07,0.0,23.822431779984196,1.1873646034674605,0.0011468731947436603,0.0
5510,2.413793103448276,4.137931034482759,1.7857142857142858,0,247559.09575874562,520991.9083149398,327947.6858524737,241888.43981171088,-27319.463357661327,1.6503939717249708e-06,0.0,0.0,0.0,1.6503939717249708e-06,0.0,24.50761361417388,1.5115276689084567,-0.001079050460372683,0.0
5511,2.413793103448276,4.137931034482759,2.142857142857143,0,569719.7074921612,727212.7211172393,269399.4106581841,89177.99953214596,259882.53755630855,3.7981313832810745e-06,0.0,0.0,0.0,3.7981313832810745e-06,0.0,24.636417989654166,1.8354569547667678,0.013931028223434882,0.0
5512,2.413793103448276,4.137931034482759,2.5,0,592441.1652754191,867775.5369828983,231319.5697766903,332339.3913126099,351940.8451658005,3.949607768502794e-06,0.0,0.0,0.0,3.949607768502794e-06,0.0,24.722374509989816,2.147738985688204,0.03519408451658004,0.0
5513,2.413793103448276,4.137931034482759,2.857142857142857,0,194478.61203504077,606973.0797765257,399092.94160059607,429471.35863368114,104311.11955554027,1.2965240802336052e-06,0.0,0.0,0.0,1.2965240802336052e-06,0.0,24.21767995270158,2.442599811909625,0.005591607517036294,0.0
5514,2.413793103448276,4.137931034482759,3.2142857142857144,0,229486.8751432026,384817.93227830646,298183.1003586258,124624.90614830804,41446.784620871615,1.529912500954684e-06,0.0,0.0,0.0,1.529912500954684e-06,0.0,24.77144487019017,2.7258133831941715,0.0016370443094218764,0.0
5515,2.413793103448276,4.137931034482759,3.5714285714285716,0,193334.2618578718,387705.3658886927,222287.74755906922,175166.30035910127,29699.038391294675,1.2888950790524787e-06,0.0,0.0,0.0,1.2888950790524787e-06,0.0,23.964636039679373,3.008793174896032,0.001045635150261909,0.0
5516,2.413793103448276,4.137931034482759,3.928571428571429,0,115862.56392099729,239613.71519266214,153541.28699231768,107876.95686575143,5862.647491078148,7.724170928066486e-07,0.0,0.0,0.0,7.724170928066486e-07,0.0,24.46027250634997,3.2987361530317907,0.00019876302222070707,0.0
5517,2.413793103448276,4.137931034482759,4.285714285714286,0,192963.39687652249,273454.34467950015,246587.88150192576,68465.59267594558,2424.454772292776,1.2864226458434832e-06,0.0,0.0,0.0,1.2864226458434832e-06,0.0,24.30206764073592,3.5958556123364187,8.123534028508702e-05,0.0
5518,2.413793103448276,4.137931034482759,4.642857142857143,0,165296.44994580996,265852.1406109556,103227.16739874988,98007.83944809744,-66903.58406639005,1.1019763329720663e-06,0.0,0.0,0.0,1.1019763329720663e-06,0.0,23.695091408884036,3.897165724849035,-0.00223364524459877,0.0
5519,2.413793103448276,4.137931034482759,5.0,0,237238.12040281846,332637.99909776315,121578.17432184822,75872.38144668918,-3988.6291053051677,1.581587469352123e-06,0.0,0.0,0.0,1.581587469352123e-06,0.0,23.37249361557887,4.200140419275787,-0.00013301821982281717,0.0
5520,2.7586206896551726,4.137931034482759,0.0,0,214680.03300006824,302908.26928832295,202227.70182783634,56391.829843920044,-3682.4490889056647,1.431200220000455e-06,0.0,0.0,0.0,1.431200220000455e-06,0.0,24.164381427340608,-0.04985331340493012,-0.0001228073128541516,0.0
5521,2.7586206896551726,4.137931034482759,0.35714285714285715,0,88289.62809520226,187965.40439529854,118639.69701892264,88568.33910487544,15760.339904466002,5.885975206346818e-07,0.0,0.0,0.0,5.885975206346818e-07,0.0,24.170946223529324,0.254341483285683,0.0005261752232277708,0.0
5522,2.7586206896551726,4.137931034482759,0.7142857142857143,0,83507.15743025979,194047.52099657786,117050.05600305252,105279.63164881637,-26925.05753553274,5.567143828683986e-07,0.0,0.0,0.0,5.567143828683986e-07,0.0,24.188524943932826,0.5602751570060451,-0.0009021682879347254,0.0
5523,2.7586206896551726,4.137931034482759,1.0714285714285714,0,170126.19145130858,292549.79468280455,190003.37612376618,96169.400714645,21921.00051606617,1.1341746096753906e-06,0.0,0.0,0.0,1.1341746096753906e-06,0.0,24.853069453232795,0.8705865249336583,0.0007431939783699528,0.0
5524,2.7586206896551726,4.137931034482759,1.4285714285714286,0,177401.87217806774,300774.7776041548,149086.10784473762,105706.55731448591,-11690.489740154824,1.182679147853785e-06,0.0,0.0,0.0,1.182679147853785e-06,0.0,25.02090835484787,1.1883946811857111,-0.00041159538012736357,0.0
5525,2.7586206896551726,4.137931034482759,1.7857142857142858,0,175308.812792788,396737.10603874864,293912.17375991464,194316.51157768568,32912.84886533917,1.1687254186185867e-06,0.0,0.0,0.0,1.1687254186185867e-06,0.0,24.666154007888277,1.5134768110649741,0.0012999751955362342,0.0
5526,2.7586206896551726,4.137931034482759,2.142857142857143,0,434297.19583331636,778030.4514945511,362156.1883732008,327399.0631752181,278040.848258502,2.8953146388887756e-06,0.0,0.0,0.0,2.8953146388887756e-06,0.0,24.635904044156828,1.8383147271011677,0.014904406201273613,0.0
5527,2.7586206896551726,4.137931034482759,2.5,0,573828.9546036525,789417.5805521377,401496.93762569525,130249.93946123449,348531.492851833,3.82552636402435e-06,0.0,0.0,0.0,3.82552636402435e-06,0.0,24.307056655483308,2.150985537453131,0.0348531492851833,0.0
5528,2.7586206896551726,4.137931034482759,2.857142857142857,0,451763.7827786656,653458.9202795489,180770.65077724066,226026.1533791371,297199.6690628429,3.0117585518577706e-06,0.0,0.0,0.0,3.0117585518577706e-06,0.0,24.440043154407917,2.445457584244025,0.015931416618605615,0.0
5529,2.7586206896551726,4.137931034482759,3.2142857142857144,0,439673.89648634405,504545.46999971865,317712.72396996367,2309.7248781365815,-13149.751916080539,2.9311593099089605e-06,0.0,0.0,0.0,2.9311593099089605e-06,0.0,24.571273519610234,2.727762525350689,-0.0005193823053209468,0.0
5530,2.7586206896551726,4.137931034482759,3.5714285714285716,0,158715.4576980161,281836.654152539,137284.1942372433,111994.87565639132,23792.916140722245,1.0581030513201073e-06,0.0,0.0,0.0,1.0581030513201073e-06,0.0,24.431251401650204,3.0098232526142827,0.0008376941070006329,0.0
5531,2.7586206896551726,4.137931034482759,3.928571428571429,0,207747.10792923972,344443.43845571845,174712.4601536086,112770.5683375619,-6005.838111097617,1.3849807195282647e-06,0.0,0.0,0.0,1.3849807195282647e-06,0.0,24.66223051119026,3.2991579535050874,-0.00020361765494969833,0.0
5532,2.7586206896551726,4.137931034482759,4.285714285714286,0,75235.6003214285,214381.72203332905,152079.14046707633,130797.74294070387,-3909.7664677079288,5.015706688095234e-07,0.0,0.0,0.0,5.015706688095234e-07,0.0,24.393589885148312,3.595989442720331,-0.00013100314886019317,0.0
5533,2.7586206896551726,4.137931034482759,4.642857142857143,0,157011.94143648125,287012.4661122719,167100.07021613186,109291.61838979568,-77757.08823001703,1.0467462762432084e-06,0.0,0.0,0.0,1.0467462762432084e-06,0.0,24.127813489932116,3.8971986261428264,-0.002596000689387222,0.0
5534,2.7586206896551726,4.137931034482759,5.0,0,180238.6894282336,326365.1969277989,169949.916908313,129259.78444469713,-14983.523682742312,1.2015912628548906e-06,0.0,0.0,0.0,1.2015912628548906e-06,0.0,24.510898163186557,4.20014668659507,-0.0004996908948742463,0.0
5535,3.1034482758620694,4.137931034482759,0.0,0,81214.59333452306,184562.973042047,188176.26700793137,105215.33332041002,-5355.007664735197,5.414306222301537e-07,0.0,0.0,0.0,5.414306222301537e-07,0.0,24.286774335873385,-0.04984717142444267,-0.00017858606751707955,0.0
5536,3.1034482758620694,4.137931034482759,0.35714285714285715,0,147467.5914822446,237286.2677236727,141263.0441361393,67490.64246151966,39456.090824551575,9.831172765482973e-07,0.0,0.0,0.0,9.831172765482973e-07,0.0,25.135667028516853,0.25437372659344376,0.0013172823380173824,0.0
5537,3.1034482758620694,4.137931034482759,0.7142857142857143,0,241116.02897590635,313983.1758682709,242441.6512647157,45192.46351465915,-914.5203886776635,1.607440193172709e-06,0.0,0.0,0.0,1.607440193172709e-06,0.0,24.20055098034498,0.560406310944354,-3.064250808919963e-05,0.0
5538,3.1034482758620694,4.137931034482759,1.0714285714285714,0,235049.4658200163,324275.7390939703,87035.37151048987,91480.21920061689,-17025.75410832041,1.5669964388001088e-06,0.0,0.0,0.0,1.5669964388001088e-06,0.0,25.84883530899778,0.8709998899083101,-0.0005772290330104848,0.0
5539,3.1034482758620694,4.137931034482759,1.4285714285714286,0,191112.00091691944,295519.5401399508,200342.84061554234,75507.74709001102,29357.85301588861,1.2740800061127963e-06,0.0,0.0,0.0,1.2740800061127963e-06,0.0,25.243554094485976,1.189404158597071,0.001033622794286624,0.0
5540,3.1034482758620694,4.137931034482759,1.7857142857142858,0,212279.2578664424,373951.6665378365,380167.8219276312,164848.75752503533,24031.15175602867,1.4151950524429494e-06,0.0,0.0,0.0,1.4151950524429494e-06,0.0,23.862148059843655,1.5153869727388676,0.0009491703781347023,0.0
5541,3.1034482758620694,4.137931034482759,2.142857142857143,0,501354.8718602446,773647.7013146986,516563.8173511853,195897.99560586832,311996.84352431283,3.342365812401631e-06,0.0,0.0,0.0,3.342365812401631e-06,0.0,25.05901566970988,1.8411153474497814,0.016724620567544136,0.0
5542,3.1034482758620694,4.137931034482759,2.5,0,567418.5736776246,945077.6597074575,385939.6026651654,369726.0883789685,460907.92451056326,3.782790491184164e-06,0.0,0.0,0.0,3.782790491184164e-06,0.0,24.375178733013538,2.154167162114492,0.04609079245105632,0.0
5543,3.1034482758620694,4.137931034482759,2.857142857142857,0,203569.72283163606,498191.96725834295,349646.0923983484,266149.5006083209,186533.03676799708,1.3571314855442403e-06,0.0,0.0,0.0,1.3571314855442403e-06,0.0,24.725427698380262,2.4482582045926384,0.009999121234742246,0.0
5544,3.1034482758620694,4.137931034482759,3.2142857142857144,0,116282.23461101601,332812.0406344606,218585.50605140984,214577.72799853925,87288.08320642632,7.752148974067734e-07,0.0,0.0,0.0,7.752148974067734e-07,0.0,25.2357316535435,2.729672687024582,0.0034476609271510343,0.0
5545,3.1034482758620694,4.137931034482759,3.5714285714285716,0,148393.56648156798,319802.01817713125,250885.52563819222,149481.56831439852,22239.25712082137,9.892904432104531e-07,0.0,0.0,0.0,9.892904432104531e-07,0.0,24.064618299212647,3.0108327300256423,0.0007829933297793068,0.0
5546,3.1034482758620694,4.137931034482759,3.928571428571429,0,181007.19244586607,296474.3508042647,145361.41385210762,95868.83622464791,23755.307584392358,1.2067146163057737e-06,0.0,0.0,0.0,1.2067146163057737e-06,0.0,24.22516295342246,3.2995713184797393,0.0008053830179013522,0.0
5547,3.1034482758620694,4.137931034482759,4.285714285714286,0,127042.0033233345,240306.6395749598,191957.93915245245,96188.66517301764,-4651.226364342372,8.4694668882223e-07,0.0,0.0,0.0,8.4694668882223e-07,0.0,24.838306753563398,3.59612059665864,-0.00015584698084221158,0.0
5548,3.1034482758620694,4.137931034482759,4.642857142857143,0,141210.97960637734,289395.62642806844,191814.7573132535,127472.43247493719,15315.733195087303,9.414065307091822e-07,0.0,0.0,0.0,9.414065307091822e-07,0.0,24.282944549423096,3.897230869450587,0.000511331569095057,0.0
5549,3.1034482758620694,4.137931034482759,5.0,0,76753.88653399405,218552.17267699607,298972.25740346895,226503.62583497702,48920.77823913864,5.116925768932937e-07,0.0,0.0,0.0,5.116925768932937e-07,0.0,23.35864033460117,4.200152828575558,0.0016314765454280465,0.0
5550,3.4482758620689657,4.137931034482759,0.0,0,128679.69881490468,150155.1511876797,198446.62572000007,52606.94857713415,4459.9699960771895,8.578646587660312e-07,0.0,0.0,0.0,8.578646587660312e-07,0.0,24.97467530101911,-0.04984122224463713,0.0001487371359127599,0.0
5551,3.4482758620689657,4.137931034482759,0.35714285714285715,0,118715.05637725307,238193.36577605896,139959.31192426314,106276.4740644246,-10374.962629187712,7.914337091816871e-07,0.0,0.0,0.0,7.914337091816871e-07,0.0,24.682264140473364,0.25440495776322464,-0.00034637884147699734,0.0
5552,3.4482758620689657,4.137931034482759,0.7142857142857143,0,198173.3069873279,264390.8203426968,106516.45628366296,41998.33697506118,40314.72899274827,1.3211553799155193e-06,0.0,0.0,0.0,1.3211553799155193e-06,0.0,24.490628585379845,0.5605333478769525,0.0013508112280147266,0.0
5553,3.4482758620689657,4.137931034482759,1.0714285714285714,0,128077.42841559471,254149.51635567733,173452.09863303596,106470.60322163139,18116.900715608353,8.538495227706314e-07,0.0,0.0,0.0,8.538495227706314e-07,0.0,24.56960015737683,0.871400279092962,0.0006142224899223105,0.0
5554,3.4482758620689657,4.137931034482759,1.4285714285714286,0,145027.934537712,240159.2754730095,211370.4858542163,82896.0387473696,-10152.63736022216,9.6685289691808e-07,0.0,0.0,0.0,9.6685289691808e-07,0.0,25.630921970765865,1.1903819478691287,-0.00035745111851238584,0.0
5555,3.4482758620689657,4.137931034482759,1.7857142857142858,0,150409.663295741,285180.95147948776,115465.89328140665,168375.55737580825,124864.57751113488,1.0027310886382733e-06,0.0,0.0,0.0,1.0027310886382733e-06,0.0,25.022832182543997,1.5172371732204346,0.004931838450986491,0.0
5556,3.4482758620689657,4.137931034482759,2.142857142857143,0,277041.364428228,595224.1353333616,369686.5978905216,285982.640750516,170383.5075944431,1.84694242952152e-06,0.0,0.0,0.0,1.84694242952152e-06,0.0,24.090752950593714,1.8438280545407626,0.00913342418242214,0.0
5557,3.4482758620689657,4.137931034482759,2.5,0,593334.9217928482,920758.49563284,592853.2878315788,235840.47978863897,491721.5946297986,3.9555661452856544e-06,0.0,0.0,0.0,3.9555661452856544e-06,0.0,24.58750446207701,2.157248913550023,0.049172159462979856,0.0
5558,3.4482758620689657,4.137931034482759,2.857142857142857,0,694969.9043093985,830118.9098383567,393769.1704335817,28692.510702180803,326285.0065005287,4.63313269539599e-06,0.0,0.0,0.0,4.63313269539599e-06,0.0,25.123688185202507,2.4509709116836196,0.017490538907246254,0.0
5559,3.4482758620689657,4.137931034482759,3.2142857142857144,0,216358.75553526322,554153.0996438952,400196.5780023138,306780.72748181794,95159.34051064923,1.4423917035684214e-06,0.0,0.0,0.0,1.4423917035684214e-06,0.0,25.117884004377864,2.731522887506149,0.003758555899963584,0.0
5560,3.4482758620689657,4.137931034482759,3.5714285714285716,0,122214.43621189162,261584.05484290433,121389.10439825585,177508.01313622834,-24203.169157313117,8.147629080792775e-07,0.0,0.0,0.0,8.147629080792775e-07,0.0,23.788949661167823,3.0118105192977005,-0.0008521381765020259,0.0
5561,3.4482758620689657,4.137931034482759,3.928571428571429,0,116267.56778723924,206922.21883105754,224707.19442286517,100571.84002967745,-33197.32652525718,7.751171185815949e-07,0.0,0.0,0.0,7.751171185815949e-07,0.0,24.294269385880973,3.2999717076643913,-0.0011254984987327469,0.0
5562,3.4482758620689657,4.137931034482759,4.285714285714286,0,206915.05000453469,287022.1417715194,230483.59148768903,57714.60617346323,5995.802729022389,1.3794336666968979e-06,0.0,0.0,0.0,1.3794336666968979e-06,0.0,23.98267122380993,3.596247633591238,0.00020089922094680704,0.0
5563,3.4482758620689657,4.137931034482759,4.642857142857143,0,163013.928733398,293316.08854256273,231967.86431602083,108528.90917253766,18341.67890453943,1.08675952488932e-06,0.0,0.0,0.0,1.08675952488932e-06,0.0,24.874211781503472,3.897262100620368,0.0006123558914635684,0.0
5564,3.4482758620689657,4.137931034482759,5.0,0,170359.43737069995,281031.9497602347,100655.3851222434,122868.97289754247,-28049.210060719764,1.135729582471333e-06,0.0,0.0,0.0,1.135729582471333e-06,0.0,24.10555991750764,4.200158777755363,-0.0009354231469530771,0.0
5565,3.793103448275862,4.137931034482759,0.0,0,51479.14174762292,160945.7374434673,205609.1836941333,149307.1137670343,8133.236535744359,3.431942783174861e-07,0.0,0.0,0.0,3.431942783174861e-07,0.0,25.35357668910639,-0.04983558630084781,0.00027123821664532476,0.0
5566,3.793103448275862,4.137931034482759,0.35714285714285715,0,69366.37557732215,222824.20812949998,152637.91551839936,154307.9065589865,-39287.91514522349,4.6244250384881434e-07,0.0,0.0,0.0,4.6244250384881434e-07,0.0,25.22862967827373,0.2544345445504983,-0.0013116676192899733,0.0
5567,3.793103448275862,4.137931034482759,0.7142857142857143,0,137220.5212227026,268814.5036625168,113244.27313491327,164992.8952627071,28691.14801901715,9.148034748180174e-07,0.0,0.0,0.0,9.148034748180174e-07,0.0,24.462305126645504,0.5606536960652228,0.0009613440510958725,0.0
5568,3.793103448275862,4.137931034482759,1.0714285714285714,0,252561.87250830152,305750.72675219603,171960.9376689364,14439.436424313026,-15737.527849182916,1.68374581672201e-06,0.0,0.0,0.0,1.68374581672201e-06,0.0,23.95803914770228,0.8717795869996491,-0.0005335539280412867,0.0
5569,3.793103448275862,4.137931034482759,1.4285714285714286,0,239908.2740766034,373451.2188602745,168035.8043994674,109779.6629034075,-1240.8966357832592,1.5993884938440228e-06,0.0,0.0,0.0,1.5993884938440228e-06,0.0,24.200686144055762,1.1913082546131226,-4.3689129699130384e-05,0.0
5570,3.793103448275862,4.137931034482759,1.7857142857142858,0,175862.14591917914,477169.3323288256,410058.82391860156,277633.2686516858,88940.02685808096,1.172414306127861e-06,0.0,0.0,0.0,1.172414306127861e-06,0.0,24.825450522152575,1.5189899570081002,0.003512908568896084,0.0
5571,3.793103448275862,4.137931034482759,2.142857142857143,0,518426.9808704333,732607.7573461931,551513.8941120552,147924.9193039442,312158.6411249118,3.4561798724695556e-06,0.0,0.0,0.0,3.4561798724695556e-06,0.0,25.030742773097995,1.8463979322686783,0.016733293743362805,0.0
5572,3.793103448275862,4.137931034482759,2.5,0,391660.8756361303,822235.7636943583,379605.74009003467,520563.8097086662,504831.04177138506,2.6110725042408687e-06,0.0,0.0,0.0,2.6110725042408687e-06,0.0,24.590157222467525,2.1601684047119956,0.0504831041771385,0.0
5573,3.793103448275862,4.137931034482759,2.857142857142857,0,351106.5273861038,781372.6855254323,381474.29570666817,523658.8652957155,329906.22731290275,2.3407101825740255e-06,0.0,0.0,0.0,2.3407101825740255e-06,0.0,23.330105433461423,2.453540789411535,0.01768465479442679,0.0
5574,3.793103448275862,4.137931034482759,3.2142857142857144,0,200216.35956441253,492809.4124237597,289339.45815520734,296013.5394400806,67825.09570889396,1.3347757304294169e-06,0.0,0.0,0.0,1.3347757304294169e-06,0.0,24.958876518272497,2.7332756712938147,0.0026789216095263893,0.0
5575,3.793103448275862,4.137931034482759,3.5714285714285716,0,137744.68266258665,328022.38282604376,221947.5042709911,172346.31677250864,50935.86995949837,9.182978844172443e-07,0.0,0.0,0.0,9.182978844172443e-07,0.0,23.613381516116906,3.0127368260416945,0.001793335371236555,0.0
5576,3.793103448275862,4.137931034482759,3.928571428571429,0,171213.01337816907,263649.0161449738,251097.80287028695,86505.78169582662,-47484.34461335473,1.1414200891877937e-06,0.0,0.0,0.0,1.1414200891877937e-06,0.0,23.568765635423382,3.3003510155710782,-0.0016098753776144664,0.0
5577,3.793103448275862,4.137931034482759,4.285714285714286,0,133992.74417872,274816.7619198213,226654.4333982172,123400.02495415132,-1607.0292755040982,8.932849611914666e-07,0.0,0.0,0.0,8.932849611914666e-07,0.0,25.132199931590346,3.5963679817795087,-5.384615606593275e-05,0.0
5578,3.793103448275862,4.137931034482759,4.642857142857143,0,227033.27519039606,295684.87887708476,191462.37735100187,35253.29623207762,-2751.2477752721893,1.5135551679359736e-06,0.0,0.0,0.0,1.5135551679359736e-06,0.0,24.044806745012732,3.8972916874076415,-9.185324815859685e-05,0.0
5579,3.793103448275862,4.137931034482759,5.0,0,188987.52798989482,283923.5351563239,174605.09299938875,65699.665119052,-5901.3983633015905,1.2599168532659654e-06,0.0,0.0,0.0,1.2599168532659654e-06,0.0,24.767832807030736,4.200164413699152,-0.0001968078465123683,0.0
5580,4.137931034482759,4.137931034482759,0.0,0,219482.91346937575,303490.3886248128,97386.61207651324,72713.50563779597,14028.036658850711,1.4632194231291718e-06,0.0,0.0,0.0,1.4632194231291718e-06,0.0,24.69764358191706,-0.04983048971069613,0.0004678260160834825,0.0
5581,4.137931034482759,4.137931034482759,0.35714285714285715,0,211766.58170854035,357814.212629466,270332.65765011735,116322.78840932892,6036.15274346508,1.411777211390269e-06,0.0,0.0,0.0,1.411777211390269e-06,0.0,24.253746471695752,0.2544612999146886,0.00020152319280434153,0.0
5582,4.137931034482759,4.137931034482759,0.7142857142857143,0,180561.05286918872,297973.808809111,172774.34625164024,90992.24091399122,23343.661562442627,1.2037403524612582e-06,0.0,0.0,0.0,1.2037403524612582e-06,0.0,24.764204576817104,0.5607625270639056,0.0007821677319769498,0.0
5583,4.137931034482759,4.137931034482759,1.0714285714285714,0,146713.04274450915,253688.96692863634,294726.90474067343,131864.57400680674,-34326.5389688864,9.78086951630061e-07,0.0,0.0,0.0,9.78086951630061e-07,0.0,24.390708508852786,0.8721225955557925,-0.0011637825126303142,0.0
5584,4.137931034482759,4.137931034482759,1.4285714285714286,0,182376.44131566008,398658.93751627725,250439.40850243918,194994.57154282823,81915.91077109885,1.2158429421044006e-06,0.0,0.0,0.0,1.2158429421044006e-06,0.0,24.6943929706413,1.1921459148179372,0.0028840716840544526,0.0
5585,4.137931034482759,4.137931034482759,1.7857142857142858,0,356660.99737366376,352702.436873617,536292.6724927402,125235.84998535128,32146.544240834253,2.3777399824910916e-06,0.0,0.0,0.0,2.3777399824910916e-06,0.0,24.48224661536867,1.520575001310208,0.0012697080798527243,0.0
5586,4.137931034482759,4.137931034482759,2.142857142857143,0,269051.3639044385,563516.9389578275,590514.3781907158,308982.097009701,291809.07697765663,1.7936757593629235e-06,0.0,0.0,0.0,1.7936757593629235e-06,0.0,24.429352768208314,1.848721875517361,0.015642453415514356,0.0
5587,4.137931034482759,4.137931034482759,2.5,0,598102.8961024206,902853.6684579528,349913.2508151376,268026.45157217816,470708.7231422805,3.9873526406828046e-06,0.0,0.0,0.0,3.9873526406828046e-06,0.0,24.354994001327967,2.162808503772646,0.047070872314228046,0.0
5588,4.137931034482759,4.137931034482759,2.857142857142857,0,436998.2794246262,793291.8846374061,414964.8619925295,314958.8829246762,277019.3519949786,2.9133218628308415e-06,0.0,0.0,0.0,2.9133218628308415e-06,0.0,24.240325433048007,2.455864732660218,0.014849648796597299,0.0
5589,4.137931034482759,4.137931034482759,3.2142857142857144,0,90474.64262898275,364461.1640570823,323298.9374314109,260724.08713817206,25161.10228106763,6.031642841932183e-07,0.0,0.0,0.0,6.031642841932183e-07,0.0,25.120540511655186,2.7348607155959224,0.0009938005971942474,0.0
5590,4.137931034482759,4.137931034482759,3.5714285714285716,0,126102.0616944794,312849.0982317619,177946.1072083783,197935.85787954667,11230.914598550502,8.406804112965293e-07,0.0,0.0,0.0,8.406804112965293e-07,0.0,24.472563214311197,3.013574486246509,0.00039541479151985727,0.0
5591,4.137931034482759,4.137931034482759,3.928571428571429,0,90243.29536538364,256191.1455604575,182085.7149320487,155694.42956898303,17098.366922617144,6.016219691025576e-07,0.0,0.0,0.0,6.016219691025576e-07,0.0,24.13796347796763,3.300694024127222,0.0005796908461151502,0.0
5592,4.137931034482759,4.137931034482759,4.285714285714286,0,127503.61948688651,255424.5729462051,120717.27920814579,136615.78306325598,-67957.258858323,8.500241299125768e-07,0.0,0.0,0.0,8.500241299125768e-07,0.0,24.504000208916036,3.5964768127781914,-0.0022770196051035904,0.0
5593,4.137931034482759,4.137931034482759,4.642857142857143,0,262412.4739447105,335298.28439462726,197769.49507094137,32707.71377689548,-9267.204774098105,1.7494164929647367e-06,0.0,0.0,0.0,1.7494164929647367e-06,0.0,24.44931180943116,3.897318442771832,-0.00030939520151635657,0.0
5594,4.137931034482759,4.137931034482759,5.0,0,235086.2898527383,321859.3996857027,210798.21511974488,51818.61268268173,-10337.943362090371,1.5672419323515886e-06,0.0,0.0,0.0,1.5672419323515886e-06,0.0,24.52092323690379,4.200169510289304,-0.0003447637738052257,0.0
5595,4.482758620689656,4.137931034482759,0.0,0,198804.82320647905,295910.7075584861,148279.2346993395,69854.80265738655,68946.58447963514,1.3253654880431936e-06,0.0,0.0,0.0,1.3253654880431936e-06,0.0,25.06947384179868,-0.049826362147073006,0.0022993243262819903,0.0
5596,4.482758620689656,4.137931034482759,0.35714285714285715,0,161969.49083252225,264663.8812103389,323265.9426172097,140151.82807596965,25553.230223468727,1.0797966055501484e-06,0.0,0.0,0.0,1.0797966055501484e-06,0.0,24.403609947345966,0.25448296821931354,0.0008531209795300314,0.0
5597,4.482758620689656,4.137931034482759,0.7142857142857143,0,172806.51365019928,217600.34222492116,212423.9141793374,42263.77190183567,44714.04639677063,1.1520434243346618e-06,0.0,0.0,0.0,1.1520434243346618e-06,0.0,24.532451501352696,0.5608506657719168,0.0014982175852799077,0.0
5598,4.482758620689656,4.137931034482759,1.0714285714285714,0,240821.28001055893,394292.68463287724,164791.11700835364,143557.8512069247,17335.017233642706,1.6054752000703928e-06,0.0,0.0,0.0,1.6054752000703928e-06,0.0,25.04853980342343,0.8724003870981027,0.0005877140695991636,0.0
5599,4.482758620689656,4.137931034482759,1.4285714285714286,0,252730.83265887757,399110.08824252244,133495.08761025363,161615.54309375628,7424.550063137569,1.6848722177258503e-06,0.0,0.0,0.0,1.6848722177258503e-06,0.0,24.953665748984633,1.1928243087415278,0.00026140141032887794,0.0
5600,4.482758620689656,4.137931034482759,1.7857142857142858,0,400174.1214149683,438935.22515768127,363956.184972483,6574.922276684906,72461.38626575073,2.6678274760997884e-06,0.0,0.0,0.0,2.6678274760997884e-06,0.0,24.392891603093126,1.5218586774559664,0.0028620434883972227,0.0
5601,4.482758620689656,4.137931034482759,2.142857142857143,0,630714.2922438689,866367.147524734,490699.796439528,138203.89715103505,370699.6681213991,4.20476194829246e-06,0.0,0.0,0.0,4.20476194829246e-06,0.0,25.22418445988137,1.8506039620359924,0.01987139108143511,0.0
5602,4.482758620689656,4.137931034482759,2.5,0,295835.39690994535,878617.8641252529,763352.3235712653,542499.9534269744,670143.0006820033,1.9722359793996358e-06,0.0,0.0,0.0,1.9722359793996358e-06,0.0,25.200613492124962,2.16494663466406,0.06701430006820033,0.0
5603,4.482758620689656,4.137931034482759,2.857142857142857,0,269609.45260185964,713877.5182710572,508440.0979545053,408585.718383334,308525.65512787545,1.7973963506790642e-06,0.0,0.0,0.0,1.7973963506790642e-06,0.0,25.170223907243972,2.4577468191788494,0.01653854718233582,0.0
5604,4.482758620689656,4.137931034482759,3.2142857142857144,0,392610.3288327461,555677.1312951376,235786.17398025322,117531.7211544506,22003.125470287087,2.617402192218307e-06,0.0,0.0,0.0,2.617402192218307e-06,0.0,24.90665645231888,2.736144391741681,0.0008690684131499591,0.0
5605,4.482758620689656,4.137931034482759,3.5714285714285716,0,273475.6917675035,303929.9698762704,369035.0147123281,68882.1301114618,37479.11964418842,1.8231712784500235e-06,0.0,0.0,0.0,1.8231712784500235e-06,0.0,24.67328080263894,3.0142528801700994,0.0013195539998467484,0.0
5606,4.482758620689656,4.137931034482759,3.928571428571429,0,293999.60787183046,285961.0369066729,241704.57926765582,-27657.833094888843,-26001.836324373227,1.959997385812203e-06,0.0,0.0,0.0,1.959997385812203e-06,0.0,24.227754218721877,3.300971815669532,-0.0008815477271975882,0.0
5607,4.482758620689656,4.137931034482759,4.285714285714286,0,105728.21477269834,305294.4456234254,193490.21090358813,206926.8690871894,11640.132210464195,7.048547651513223e-07,0.0,0.0,0.0,7.048547651513223e-07,0.0,24.077779382040287,3.5965649514862026,0.0003900217532976408,0.0
5608,4.482758620689656,4.137931034482759,4.642857142857143,0,128711.41922953393,267427.60061231634,217756.88512204387,121281.71382252486,20242.24691368252,8.580761281968929e-07,0.0,0.0,0.0,8.580761281968929e-07,0.0,24.731918236674257,3.8973401110764567,0.0006758083171429821,0.0
5609,4.482758620689656,4.137931034482759,5.0,0,103488.6590824945,336796.6604188538,236095.24459259503,230729.51689976556,-3210.362359863979,6.899243938832967e-07,0.0,0.0,0.0,6.899243938832967e-07,0.0,24.78615016891966,4.200173637852927,-0.00010706352353676979,0.0
5610,4.827586206896552,4.137931034482759,0.0,0,309795.12491657224,431242.8563245517,130027.2444886106,113527.64239664467,-28402.500166394126,2.065300832777148e-06,0.0,0.0,0.0,2.065300832777148e-06,0.0,24.618220533379407,-0.049823926005878476,-0.0009472051451527375,0.0
5611,4.827586206896552,4.137931034482759,0.35714285714285715,0,109577.35839552325,266599.6947866309,229677.0223444139,143330.27363055898,-14271.239731645212,7.305157226368216e-07,0.0,0.0,0.0,7.305157226368216e-07,0.0,24.698051065517376,0.254495757131692,-0.0004764600761819597,0.0
5612,4.827586206896552,4.137931034482759,0.7142857142857143,0,24524.179624209402,210074.7958937055,192121.81739203434,182132.46080279764,-9961.796697112759,1.6349453082806268e-07,0.0,0.0,0.0,1.6349453082806268e-07,0.0,25.440093181037273,0.5609026863722089,-0.00033378636458353625,0.0
5613,4.827586206896552,4.137931034482759,1.0714285714285714,0,57395.96105044937,194585.21961597903,260071.30513252507,236158.65294853674,-33980.78248844741,3.8263974033632915e-07,0.0,0.0,0.0,3.8263974033632915e-07,0.0,25.57670392387615,0.8725643432430601,-0.0011520602313386224,0.0
5614,4.827586206896552,4.137931034482759,1.4285714285714286,0,168216.69546295752,365751.33065338625,208145.2731702838,188626.8667313407,-9819.535795830689,1.1214446364197168e-06,0.0,0.0,0.0,1.1214446364197168e-06,0.0,24.214783219373437,1.193224705569845,-0.00034572337501625143,0.0
5615,4.827586206896552,4.137931034482759,1.7857142857142858,0,220418.6787984729,468541.8787209442,312801.45637566346,216335.54220691184,-21531.757251368603,1.469457858656486e-06,0.0,0.0,0.0,1.469457858656486e-06,0.0,24.91674832516018,1.5226163196450768,-0.0008504505476754384,0.0
5616,4.827586206896552,4.137931034482759,2.142857142857143,0,505439.9253110091,833614.1924192919,826412.8081987852,324612.0527968852,349168.3784204457,3.369599502073394e-06,0.0,0.0,0.0,3.369599502073394e-06,0.0,24.803210402845156,1.8517147937319645,0.01871720424252161,0.0
5617,4.827586206896552,4.137931034482759,2.5,0,751998.3293320005,966672.6543998218,891019.2539638412,179707.17560340642,574751.1252139237,5.01332219554667e-06,0.0,0.0,0.0,5.01332219554667e-06,0.0,25.119443247479854,2.16620858704553,0.05747511252139238,0.0
5618,4.827586206896552,4.137931034482759,2.857142857142857,0,443496.53878815245,543717.8366534694,32724.206384903275,259009.5120445769,323122.8711351124,2.9566435919210162e-06,0.0,0.0,0.0,2.9566435919210162e-06,0.0,25.653467653984016,2.458857650874821,0.01732103233925535,0.0
5619,4.827586206896552,4.137931034482759,3.2142857142857144,0,244465.24779799915,344112.7396906819,503106.0212828274,221609.10898357653,36055.94650863455,1.6297683186533276e-06,0.0,0.0,0.0,1.6297683186533276e-06,0.0,25.88543055246042,2.7369020339307912,0.0014241196896865212,0.0
5620,4.827586206896552,4.137931034482759,3.5714285714285716,0,142709.8841145117,399418.8895390014,258414.90833387052,255062.18353379777,-4764.623331330169,9.51399227430078e-07,0.0,0.0,0.0,9.51399227430078e-07,0.0,25.155975548176592,3.0146532769984167,-0.00016775147960538516,0.0
5621,4.827586206896552,4.137931034482759,3.928571428571429,0,203674.74161918147,333286.1737953801,181187.26753623478,101889.23143692059,-26691.05281561674,1.3578316107945432e-06,0.0,0.0,0.0,1.3578316107945432e-06,0.0,24.820935695395573,3.301135771814489,-0.0009049144319111815,0.0
5622,4.827586206896552,4.137931034482759,4.285714285714286,0,117355.93070164151,288142.8646506103,157031.3145541891,192926.75338829544,15915.585575123421,7.823728713442767e-07,0.0,0.0,0.0,7.823728713442767e-07,0.0,24.624353145139967,3.5966169720864944,0.0005332778424275933,0.0
5623,4.827586206896552,4.137931034482759,4.642857142857143,0,77636.33908748638,209907.46118179927,160177.15868372004,120446.84641561848,-42631.278035883865,5.175755939165758e-07,0.0,0.0,0.0,5.175755939165758e-07,0.0,26.053759712051445,3.897352899988835,-0.0014232892420461025,0.0
5624,4.827586206896552,4.137931034482759,5.0,0,154878.9320237892,343496.2225158982,177044.7960504331,203631.95743428427,2629.3768814321693,1.0325262134919281e-06,0.0,0.0,0.0,1.0325262134919281e-06,0.0,24.43139724954744,4.200176073994122,8.76880308440256e-05,0.0
5625,5.172413793103448,4.137931034482759,0.0,0,249307.305684754,416265.0953256441,157486.87843214278,177653.6974235979,-21029.205933049412,1.6620487045650267e-06,0.0,0.0,0.0,1.6620487045650267e-06,0.0,25.160171406542172,-0.049823926005878476,-0.0007013105163829567,0.0
5626,5.172413793103448,4.137931034482759,0.35714285714285715,0,194393.40865070405,350368.29791264853,142418.10646494286,173206.2106227631,58327.80895804083,1.2959560576713603e-06,0.0,0.0,0.0,1.2959560576713603e-06,0.0,24.621450257129226,0.254495757131692,0.0019473341365047023,0.0
5627,5.172413793103448,4.137931034482759,0.7142857142857143,0,100037.43469034709,276537.16732931597,163798.20087034706,198374.73981164335,17545.17238376199,6.669162312689805e-07,0.0,0.0,0.0,6.669162312689805e-07,0.0,24.088971314637522,0.5609026863722089,0.0005878798257009924,0.0
5628,5.172413793103448,4.137931034482759,1.0714285714285714,0,131635.05958167108,346106.62226534786,262322.9752282769,194383.0443314989,204.5811051747022,8.775670638778073e-07,0.0,0.0,0.0,8.775670638778073e-07,0.0,25.62077855284344,0.8725643432430601,6.935971984612388e-06,0.0
5629,5.172413793103448,4.137931034482759,1.4285714285714286,0,42508.07041271933,289737.09169997234,283055.8850300701,244284.05364214815,-39081.58501010424,2.8338713608479555e-07,0.0,0.0,0.0,2.8338713608479555e-07,0.0,23.896627215459656,1.193224705569845,-0.001375973136776449,0.0
5630,5.172413793103448,4.137931034482759,1.7857142857142858,0,224460.56488120113,691908.4527492163,463238.62014415313,471908.37696132186,-17711.96696584382,1.4964037658746742e-06,0.0,0.0,0.0,1.4964037658746742e-06,0.0,23.69810880941783,1.5226163196450768,-0.000699578386968565,0.0
5631,5.172413793103448,4.137931034482759,2.142857142857143,0,264770.9248878312,859951.2346988993,581039.9339089656,612052.0165614985,361066.24205499364,1.765139499252208e-06,0.0,0.0,0.0,1.765139499252208e-06,0.0,25.127283782732178,1.8517147937319645,0.01935499035793367,0.0
5632,5.172413793103448,4.137931034482759,2.5,0,185661.24777225158,643486.1246959599,436707.9029522383,491085.033821985,753504.2135821708,1.2377416518150105e-06,0.0,0.0,0.0,1.2377416518150105e-06,0.0,24.629800176653074,2.16620858704553,0.07535042135821707,0.0
5633,5.172413793103448,4.137931034482759,2.857142857142857,0,483067.0563324524,795221.3054874636,675940.500725342,263688.0676816888,353718.1154494401,3.2204470422163495e-06,0.0,0.0,0.0,3.2204470422163495e-06,0.0,25.002492841897272,2.458857650874821,0.01896109333009216,0.0
5634,5.172413793103448,4.137931034482759,3.2142857142857144,0,346583.6252690846,623989.6020146448,285001.28372211364,270279.81011544896,70165.41076698533,2.310557501793897e-06,0.0,0.0,0.0,2.310557501793897e-06,0.0,24.787862808517982,2.7369020339307912,0.0027713581997986657,0.0
5635,5.172413793103448,4.137931034482759,3.5714285714285716,0,347340.48995349807,372105.5750006176,330617.9651805022,5884.564424691923,12575.598032755133,2.315603266356654e-06,0.0,0.0,0.0,2.315603266356654e-06,0.0,25.096473099143154,3.0146532769984167,0.0004427580167870901,0.0
5636,5.172413793103448,4.137931034482759,3.928571428571429,0,149914.13721402522,324120.6992051191,160141.18148825096,194096.71438609442,3753.9145216605093,9.994275814268348e-07,0.0,0.0,0.0,9.994275814268348e-07,0.0,24.65305217421777,3.301135771814489,0.00012727004252241454,0.0
5637,5.172413793103448,4.137931034482759,4.285714285714286,0,166319.30037788922,251435.65413488567,187299.78482608436,62597.019478240305,6775.290771366497,1.1087953358525948e-06,0.0,0.0,0.0,1.1087953358525948e-06,0.0,25.256753334049243,3.5966169720864944,0.00022701724842731028,0.0
5638,5.172413793103448,4.137931034482759,4.642857142857143,0,161711.3866879236,369523.67935955036,208350.23252995464,207279.66838061792,-22741.413583912723,1.078075911252824e-06,0.0,0.0,0.0,1.078075911252824e-06,0.0,25.27589270534208,3.897352899988835,-0.0007592455772885675,0.0
5639,5.172413793103448,4.137931034482759,5.0,0,21345.675823565514,288810.49037019786,277054.6626033918,264171.2262821149,-32307.759174924486,1.4230450549043677e-07,0.0,0.0,0.0,1.4230450549043677e-07,0.0,25.5895610483159,4.200176073994122,-0.0010774430257746272,0.0
5640,5.517241379310345,4.137931034482759,0.0,0,196440.63010201196,199145.18235399164,257444.3751450235,38453.202047218634,3825.0141760350157,1.3096042006800797e-06,0.0,0.0,0.0,1.3096042006800797e-06,0.0,25.34477560207567,-0.049826362147073006,0.00012756176697815324,0.0
5641,5.517241379310345,4.137931034482759,0.35714285714285715,0,163321.40488746797,324233.0063006218,246568.17245171726,136571.7901408307,52305.32083148439,1.088809365916453e-06,0.0,0.0,0.0,1.088809365916453e-06,0.0,24.6642714777701,0.25448296821931354,0.0017462671510471445,0.0
5642,5.517241379310345,4.137931034482759,0.7142857142857143,0,335598.34457373124,420303.62802082254,378458.36291048024,65744.997375648,27306.41206103384,2.2373222971582084e-06,0.0,0.0,0.0,2.2373222971582084e-06,0.0,25.07031079453368,0.5608506657719168,0.0009149461978394101,0.0
5643,5.517241379310345,4.137931034482759,1.0714285714285714,0,277983.46592831035,333975.5822546853,120398.55246085855,19669.726906784043,-44416.479432406326,1.8532231061887357e-06,0.0,0.0,0.0,1.8532231061887357e-06,0.0,24.93564820954207,0.8724003870981027,-0.001505864662991261,0.0
5644,5.517241379310345,4.137931034482759,1.4285714285714286,0,385903.0993145476,566891.7979841892,207105.4665702822,159322.2196729317,-5447.214424804455,2.5726873287636507e-06,0.0,0.0,0.0,2.5726873287636507e-06,0.0,24.94224774278524,1.1928243087415278,-0.00019178394931664814,0.0
5645,5.517241379310345,4.137931034482759,1.7857142857142858,0,350475.03172140045,654299.8015333388,291515.42498768494,317590.6149605751,107405.3280263893,2.336500211476003e-06,0.0,0.0,0.0,2.336500211476003e-06,0.0,24.074551132825263,1.5218586774559664,0.004242241772324316,0.0
5646,5.517241379310345,4.137931034482759,2.142857142857143,0,575257.2895853157,953300.9861792983,308796.3170996714,491832.101359124,472161.5528983866,3.8350485972354384e-06,0.0,0.0,0.0,3.8350485972354384e-06,0.0,25.117779914730296,1.8506039620359924,0.025310265096295984,0.0
5647,5.517241379310345,4.137931034482759,2.5,0,517868.41792692937,1023523.983357098,584179.2123332563,452540.01617351215,794313.6032404572,3.4524561195128625e-06,0.0,0.0,0.0,3.4524561195128625e-06,0.0,25.05027468574605,2.16494663466406,0.07943136032404573,0.0
5648,5.517241379310345,4.137931034482759,2.857142857142857,0,762965.6903313778,880618.203482028,747777.7326466213,59955.49935548398,317920.72035546135,5.086437935542519e-06,0.0,0.0,0.0,5.086437935542519e-06,0.0,25.66078192029899,2.4577468191788494,0.017042170550328188,0.0
5649,5.517241379310345,4.137931034482759,3.2142857142857144,0,279899.8451438159,570852.6933406179,350514.968586042,255909.83701142526,113144.16074573412,1.8659989676254394e-06,0.0,0.0,0.0,1.8659989676254394e-06,0.0,25.338166230367605,2.736144391741681,0.004468911308498577,0.0
5650,5.517241379310345,4.137931034482759,3.5714285714285716,0,308982.5351327874,395237.5905626739,266451.2674612842,42693.827323204925,15773.876026154569,2.0598835675519163e-06,0.0,0.0,0.0,2.0598835675519163e-06,0.0,24.83489627651207,3.0142528801700994,0.0005553620629567408,0.0
5651,5.517241379310345,4.137931034482759,3.928571428571429,0,324254.1729873196,400421.92276102066,128682.89773867285,41484.717811837145,-4102.00691507765,2.1616944865821307e-06,0.0,0.0,0.0,2.1616944865821307e-06,0.0,24.71396880852688,3.300971815669532,-0.00013907151894290904,0.0
5652,5.517241379310345,4.137931034482759,4.285714285714286,0,186663.7246801723,285594.7368381599,189976.87117973415,70494.84807686263,2195.4993085803167,1.2444248312011488e-06,0.0,0.0,0.0,1.2444248312011488e-06,0.0,24.26754140644318,3.5965649514862026,7.356381132221739e-05,0.0
5653,5.517241379310345,4.137931034482759,4.642857142857143,0,61649.47178219952,274874.8078784044,212826.16865538608,213632.4117405344,2613.711908797632,4.109964785479968e-07,0.0,0.0,0.0,4.109964785479968e-07,0.0,25.68317110985444,3.8973401110764567,8.726147122467627e-05,0.0
5654,5.517241379310345,4.137931034482759,5.0,0,103811.36161575376,271507.71864938666,290108.40194887196,178254.12455743787,41150.64275971092,6.920757441050251e-07,0.0,0.0,0.0,6.920757441050251e-07,0.0,24.24634106057754,4.200173637852927,0.0013723475158873293,0.0
5655,5.862068965517242,4.137931034482759,0.0,0,367475.3399602731,518811.6653884188,134391.29844668755,171025.5789338108,-51709.54604663178,2.449835599735154e-06,0.0,0.0,0.0,2.449835599735154e-06,0.0,23.71717538889626,-0.04983048971069613,-0.0017244801613216672,0.0
5656,5.862068965517242,4.137931034482759,0.35714285714285715,0,281002.5831713298,407311.2514914586,224264.43000238156,83768.7734140399,17239.593700137768,1.873350554475532e-06,0.0,0.0,0.0,1.873350554475532e-06,0.0,25.10634631912966,0.2544612999146886,0.0005755616388042242,0.0
5657,5.862068965517242,4.137931034482759,0.7142857142857143,0,250536.34609719584,391924.52270602755,338898.88019907963,119119.8590312547,56875.41305997764,1.670242307314639e-06,0.0,0.0,0.0,1.670242307314639e-06,0.0,24.704620581902432,0.5607625270639056,0.0019057041552533534,0.0
5658,5.862068965517242,4.137931034482759,1.0714285714285714,0,226080.57212638855,300106.1271140416,232543.4712209292,47946.93687486004,54738.51629745118,1.5072038141759237e-06,0.0,0.0,0.0,1.5072038141759237e-06,0.0,24.798082152370515,0.8721225955557925,0.0018558156443340891,0.0
5659,5.862068965517242,4.137931034482759,1.4285714285714286,0,324973.7033289493,497444.70515685907,122468.38398560004,297608.39588474523,30725.63633848459,2.1664913555263285e-06,0.0,0.0,0.0,2.1664913555263285e-06,0.0,24.763895586288935,1.1921459148179372,0.0010817793137403852,0.0
5660,5.862068965517242,4.137931034482759,1.7857142857142858,0,81155.54568470488,618820.2479651878,605609.490672077,531869.8040427294,18774.388803734895,5.410369712313658e-07,0.0,0.0,0.0,5.410369712313658e-07,0.0,24.146323061261697,1.520575001310208,0.0007415413918152493,0.0
5661,5.862068965517242,4.137931034482759,2.142857142857143,0,437055.2616796557,978937.6904460614,795083.6037364234,479990.30624573136,426970.14194778504,2.913701744531038e-06,0.0,0.0,0.0,2.913701744531038e-06,0.0,24.864506939857026,1.848721875517361,0.022887775200170248,0.0
5662,5.862068965517242,4.137931034482759,2.5,0,330248.0479333741,888786.4466896523,965223.5916798908,603459.357317532,783655.422386371,2.201653652889161e-06,0.0,0.0,0.0,2.201653652889161e-06,0.0,24.52342336688595,2.162808503772646,0.07836554223863709,0.0
5663,5.862068965517242,4.137931034482759,2.857142857142857,0,631284.1979382836,968818.182608529,329722.0324444465,345647.2794969268,305694.06711756304,4.208561319588557e-06,0.0,0.0,0.0,4.208561319588557e-06,0.0,24.458164860785846,2.455864732660218,0.01638675963685576,0.0
5664,5.862068965517242,4.137931034482759,3.2142857142857144,0,561350.6121926474,579884.4757484845,635170.3516607245,48222.386235226,89398.42775020006,3.7423374146176494e-06,0.0,0.0,0.0,3.7423374146176494e-06,0.0,25.405802353982498,2.7348607155959224,0.0035310142574010387,0.0
5665,5.862068965517242,4.137931034482759,3.5714285714285716,0,235846.68157999302,374576.9325224673,241207.86204376034,102263.66511752152,-3519.4125434893385,1.5723112105332868e-06,0.0,0.0,0.0,1.5723112105332868e-06,0.0,25.09456588086787,3.013574486246509,-0.00012391045848891198,0.0
5666,5.862068965517242,4.137931034482759,3.928571428571429,0,281146.18497251143,436486.20121239097,227644.65084641005,116816.54111905373,-23124.74461476411,1.8743078998167428e-06,0.0,0.0,0.0,1.8743078998167428e-06,0.0,23.553293417831714,3.300694024127222,-0.0007840048603821584,0.0
5667,5.862068965517242,4.137931034482759,4.285714285714286,0,119753.71161731987,255812.83995117998,206673.92512590435,119306.00391339326,-11638.070956822348,7.983580774487992e-07,0.0,0.0,0.0,7.983580774487992e-07,0.0,24.81664376800405,3.5964768127781914,-0.0003899526876079349,0.0
5668,5.862068965517242,4.137931034482759,4.642857142857143,0,276071.89968110673,409847.27796952304,327518.1270114247,101976.63399854014,4733.203823982215,1.8404793312073783e-06,0.0,0.0,0.0,1.8404793312073783e-06,0.0,25.246252644462675,3.897318442771832,0.0001580228975874213,0.0
5669,5.862068965517242,4.137931034482759,5.0,0,235374.00384093457,418581.08396732324,244485.35398744483,150787.73691436747,-33807.473810014395,1.5691600256062305e-06,0.0,0.0,0.0,1.5691600256062305e-06,0.0,24.094983905485876,4.200169510289304,-0.0011274575459857318,0.0
5670,6.206896551724139,4.137931034482759,0.0,0,223732.0965552842,317476.2811252715,306795.87780528574,88595.26044621257,-41688.66119924668,1.4915473103685613e-06,0.0,0.0,0.0,1.4915473103685613e-06,0.0,24.144406203632574,-0.04983558630084781,-0.0013902900854192287,0.0
5671,6.206896551724139,4.137931034482759,0.35714285714285715,0,46076.6718510106,322110.30831133475,275580.167068388,321189.56931556197,-34279.11231284411,3.071778123400707e-07,0.0,0.0,0.0,3.071778123400707e-07,0.0,25.081107618769707,0.2544345445504983,-0.0011444435641993667,0.0
5672,6.206896551724139,4.137931034482759,0.7142857142857143,0,282565.5658112726,369317.29996851046,263244.0138459218,49064.1857445814,12680.723790362817,1.8837704387418173e-06,0.0,0.0,0.0,1.8837704387418173e-06,0.0,24.358716542114372,0.5606536960652228,0.0004248884837711977,0.0
5673,6.206896551724139,4.137931034482759,1.0714285714285714,0,205345.9043987311,420721.08029075625,203366.98275347002,229977.97479860098,-58121.712737040034,1.3689726959915407e-06,0.0,0.0,0.0,1.3689726959915407e-06,0.0,23.601334354686497,0.8717795869996491,-0.0019705171252132254,0.0
5674,6.206896551724139,4.137931034482759,1.4285714285714286,0,311537.72923231084,448667.3090553039,491708.793239282,160888.3102572384,-96787.7829591742,2.0769181948820723e-06,0.0,0.0,0.0,2.0769181948820723e-06,0.0,25.19505054562165,1.1913082546131226,-0.003407676256874973,0.0
5675,6.206896551724139,4.137931034482759,1.7857142857142858,0,424991.81595846167,720464.281480897,270044.2217878877,326555.1970985699,160829.41667376514,2.833278773056411e-06,0.0,0.0,0.0,2.833278773056411e-06,0.0,24.512761451928842,1.5189899570081002,0.006352359628419598,0.0
5676,6.206896551724139,4.137931034482759,2.142857142857143,0,737707.0565168497,1328605.832570862,768572.9834261497,492726.01907646464,270946.5022965841,4.9180470434456645e-06,0.0,0.0,0.0,4.9180470434456645e-06,0.0,24.791500492247508,1.8463979322686783,0.014524113109049682,0.0
5677,6.206896551724139,4.137931034482759,2.5,0,484573.258702657,1038392.7736922182,896090.4699164674,498601.2652356862,644446.0796550645,3.2304883913510466e-06,0.0,0.0,0.0,3.2304883913510466e-06,0.0,24.58474311275683,2.1601684047119956,0.06444460796550645,0.0
5678,6.206896551724139,4.137931034482759,2.857142857142857,0,652598.0035571359,645311.8705202093,914361.0104349299,170251.68469694693,461064.655270514,4.3506533570475726e-06,0.0,0.0,0.0,4.3506533570475726e-06,0.0,25.174607588115393,2.453540789411535,0.02471541484009912,0.0
5679,6.206896551724139,4.137931034482759,3.2142857142857144,0,500864.43796053325,772489.4816176579,648137.2577923224,221163.51686253952,-25517.436154846873,3.3390962530702218e-06,0.0,0.0,0.0,3.3390962530702218e-06,0.0,24.069365196125823,2.7332756712938147,-0.0010078748938052034,0.0
5680,6.206896551724139,4.137931034482759,3.5714285714285716,0,375022.26068692934,618629.0612902101,311254.1106054193,200778.42466415468,-60802.08601469411,2.5001484045795288e-06,0.0,0.0,0.0,2.5001484045795288e-06,0.0,24.95564700649645,3.0127368260416945,-0.002140702251317595,0.0
5681,6.206896551724139,4.137931034482759,3.928571428571429,0,227792.1617643588,429541.0408142846,321026.16847414407,167780.20510090064,-24937.792831584273,1.5186144117623922e-06,0.0,0.0,0.0,1.5186144117623922e-06,0.0,25.28767407246215,3.3003510155710782,-0.0008454731549633097,0.0
5682,6.206896551724139,4.137931034482759,4.285714285714286,0,293546.61662445473,302463.8609318822,407037.76358902163,75523.59243051492,37165.57672099868,1.9569774441630314e-06,0.0,0.0,0.0,1.9569774441630314e-06,0.0,23.95837363564335,3.5963679817795087,0.0012452937074040184,0.0
5683,6.206896551724139,4.137931034482759,4.642857142857143,0,117000.9366305228,375781.80955892144,264707.8748444864,253640.37581460882,-834.05410686877,7.800062442034853e-07,0.0,0.0,0.0,7.800062442034853e-07,0.0,24.26802213485755,3.8972916874076415,-2.784575767565488e-05,0.0
5684,6.206896551724139,4.137931034482759,5.0,0,297447.8517127081,299070.4280102345,187507.97003232964,-38030.17102982441,-311.135154131442,1.982985678084721e-06,0.0,0.0,0.0,1.982985678084721e-06,0.0,25.46484604892444,4.200164413699152,-1.037615763065435e-05,0.0
5685,6.551724137931035,4.137931034482759,0.0,0,274273.12961817905,452395.22190429224,249776.33062075687,140289.81258716475,-11842.229074954266,1.8284875307878603e-06,0.0,0.0,0.0,1.8284875307878603e-06,0.0,25.03340755329384,-0.04984122224463713,-0.0003949307365253013,0.0
5686,6.551724137931035,4.137931034482759,0.35714285714285715,0,178983.20035967272,292579.8008087529,176039.28712361987,86496.42711421436,22538.05792152832,1.1932213357311515e-06,0.0,0.0,0.0,1.1932213357311515e-06,0.0,24.08790282194093,0.25440495776322464,0.0007524563384968697,0.0
5687,6.551724137931035,4.137931034482759,0.7142857142857143,0,178788.85693638667,378072.6610599234,311461.31850736996,175540.36023873868,57596.77000563335,1.1919257129092444e-06,0.0,0.0,0.0,1.1919257129092444e-06,0.0,23.89504550016515,0.5605333478769525,0.001929874404835669,0.0
5688,6.551724137931035,4.137931034482759,1.0714285714285714,0,112379.14515368883,331149.5981372733,378289.6985104665,250018.02241444183,123919.49284395015,7.491943010245923e-07,0.0,0.0,0.0,7.491943010245923e-07,0.0,24.648372046849154,0.871400279092962,0.004201278167790916,0.0
5689,6.551724137931035,4.137931034482759,1.4285714285714286,0,381447.7950650432,493775.4035748279,325434.6897709509,57116.077459689644,-1078.0122359423503,2.5429853004336212e-06,0.0,0.0,0.0,2.5429853004336212e-06,0.0,24.676572019854927,1.1903819478691287,-3.7954342880143924e-05,0.0
5690,6.551724137931035,4.137931034482759,1.7857142857142858,0,362271.9833182436,639284.7856061121,259242.60448887252,600647.133131294,177928.1842108789,2.415146555454957e-06,0.0,0.0,0.0,2.415146555454957e-06,0.0,24.48692905040074,1.5172371732204346,0.007027718171930445,0.0
5691,6.551724137931035,4.137931034482759,2.142857142857143,0,553431.57840676,1058178.3035803621,924267.4696254532,450078.3325418663,487605.60115319776,3.6895438560450667e-06,0.0,0.0,0.0,3.6895438560450667e-06,0.0,25.68790820105634,1.8438280545407626,0.026138144776650604,0.0
5692,6.551724137931035,4.137931034482759,2.5,0,727265.9120140126,1207936.5465527752,414571.1170234331,572833.6602455826,725985.3760737487,4.84843941342675e-06,0.0,0.0,0.0,4.84843941342675e-06,0.0,24.849345688470457,2.157248913550023,0.07259853760737486,0.0
5693,6.551724137931035,4.137931034482759,2.857142857142857,0,615051.9744542952,820364.2077865741,399425.0106487357,114519.42260165072,159604.4787513244,4.100346496361968e-06,0.0,0.0,0.0,4.100346496361968e-06,0.0,24.110482997560485,2.4509709116836196,0.008555613312762729,0.0
5694,6.551724137931035,4.137931034482759,3.2142857142857144,0,443642.7330575827,776314.6625295623,458274.56058408675,269506.249530886,46596.449830462516,2.9576182203838845e-06,0.0,0.0,0.0,2.9576182203838845e-06,0.0,25.064264995224242,2.731522887506149,0.0018404432028198297,0.0
5695,6.551724137931035,4.137931034482759,3.5714285714285716,0,166342.87511332976,476863.9242811083,361342.42685943074,286208.33057597023,-10236.218369406244,1.1089525007555317e-06,0.0,0.0,0.0,1.1089525007555317e-06,0.0,24.569263513214157,3.0118105192977005,-0.00036039381449956835,0.0
5696,6.551724137931035,4.137931034482759,3.928571428571429,0,145750.9624849893,332459.7899507627,325065.1898341125,183152.28083367384,15133.798638594042,9.716730832332619e-07,0.0,0.0,0.0,9.716730832332619e-07,0.0,24.206551729836775,3.2999717076643913,0.0005130855231641075,0.0
5697,6.551724137931035,4.137931034482759,4.285714285714286,0,369447.04844905535,582483.2740037297,276230.70896661055,172164.17196281743,-7936.813487853283,2.462980322993702e-06,0.0,0.0,0.0,2.462980322993702e-06,0.0,25.000163764423945,3.596247633591238,-0.00026593597531015113,0.0
5698,6.551724137931035,4.137931034482759,4.642857142857143,0,274659.32944476954,439139.59294160624,421788.17360160616,156215.9235048724,-22580.619899237805,1.8310621962984635e-06,0.0,0.0,0.0,1.8310621962984635e-06,0.0,25.292175055877816,3.897262100620368,-0.0007538773140759533,0.0
5699,6.551724137931035,4.137931034482759,5.0,0,300792.5739894779,388569.5406878703,285824.28249598603,49866.55902449088,81374.2973558488,2.0052838265965192e-06,0.0,0.0,0.0,2.0052838265965192e-06,0.0,24.6670388934812,4.200158777755363,0.0027137805716782554,0.0
5700,6.8965517241379315,4.137931034482759,0.0,0,424865.1992199092,531893.5103302379,375975.62552911456,51097.56937128798,54231.39326963339,2.8324346614660613e-06,0.0,0.0,0.0,2.8324346614660613e-06,0.0,23.916143328067783,-0.04984717142444267,0.0018085821470948276,0.0
5701,6.8965517241379315,4.137931034482759,0.35714285714285715,0,270397.90116888797,567376.7174370342,355507.7112924163,262825.3265303606,-83874.09956456775,1.8026526744592532e-06,0.0,0.0,0.0,1.8026526744592532e-06,0.0,24.466068859077698,0.25437372659344376,-0.002800223429756671,0.0
5702,6.8965517241379315,4.137931034482759,0.7142857142857143,0,198230.97528035188,403870.7461656473,183616.45568345397,239784.7721405724,-11686.379884224552,1.321539835202346e-06,0.0,0.0,0.0,1.321539835202346e-06,0.0,23.93615761037093,0.560406310944354,-0.0003915713575873358,0.0
5703,6.8965517241379315,4.137931034482759,1.0714285714285714,0,187074.10844014614,458324.46651195455,285436.7945580833,259723.99134921996,27312.799449668986,1.2471607229343075e-06,0.0,0.0,0.0,1.2471607229343075e-06,0.0,24.53223257665962,0.8709998899083101,0.0009259936866724208,0.0
5704,6.8965517241379315,4.137931034482759,1.4285714285714286,0,388331.846990252,399610.3326140568,560104.3267904578,117251.64612595223,72541.80383683907,2.588878979935013e-06,0.0,0.0,0.0,2.588878979935013e-06,0.0,24.80095558895733,1.189404158597071,0.002554030839511518,0.0
5705,6.8965517241379315,4.137931034482759,1.7857142857142858,0,375352.19395781,692402.3095377667,427421.54814100004,262879.6636287942,45186.31408106203,2.5023479597187335e-06,0.0,0.0,0.0,2.5023479597187335e-06,0.0,23.440139443875854,1.5153869727388676,0.0017847463683081867,0.0
5706,6.8965517241379315,4.137931034482759,2.142857142857143,0,381982.9282422014,1014896.59736616,597272.521920536,683188.0333513996,375886.548942863,2.546552854948009e-06,0.0,0.0,0.0,2.546552854948009e-06,0.0,24.790944846716467,1.8411153474497814,0.020149434322796606,0.0
5707,6.8965517241379315,4.137931034482759,2.5,0,966178.9386128237,1289634.0025456208,912990.7416564086,191858.34251015174,729380.6930944171,6.4411929240854915e-06,0.0,0.0,0.0,6.4411929240854915e-06,0.0,24.251039478182864,2.154167162114492,0.0729380693094417,0.0
5708,6.8965517241379315,4.137931034482759,2.857142857142857,0,476420.14972482645,1127321.5960303794,640841.2613638154,661643.0730772606,468606.5096028778,3.176134331498843e-06,0.0,0.0,0.0,3.176134331498843e-06,0.0,24.161515815842897,2.4482582045926384,0.025119696661221595,0.0
5709,6.8965517241379315,4.137931034482759,3.2142857142857144,0,524303.0653915138,793280.6437369988,386136.333715024,201676.48296941724,-34398.17894391983,3.495353769276758e-06,0.0,0.0,0.0,3.495353769276758e-06,0.0,23.783723004575243,2.729672687024582,-0.0013586420179446759,0.0
5710,6.8965517241379315,4.137931034482759,3.5714285714285716,0,353476.7779513097,521689.3305383016,300476.5635470911,114023.16124039564,-94109.59517660808,2.356511853008731e-06,0.0,0.0,0.0,2.356511853008731e-06,0.0,23.915373745733906,3.0108327300256423,-0.0033133833963602034,0.0
5711,6.8965517241379315,4.137931034482759,3.928571428571429,0,221915.7254721693,324776.5606600874,422721.65239186824,168684.0961851618,54038.297905697575,1.4794381698144618e-06,0.0,0.0,0.0,1.4794381698144618e-06,0.0,25.339184000727318,3.2995713184797393,0.001832075939026671,0.0
5712,6.8965517241379315,4.137931034482759,4.285714285714286,0,240704.0889700889,337889.26604116295,279808.25745856005,73458.86014309933,-41177.612723874096,1.6046939264672592e-06,0.0,0.0,0.0,1.6046939264672592e-06,0.0,24.88626751893211,3.59612059665864,-0.0013797235650587303,0.0
5713,6.8965517241379315,4.137931034482759,4.642857142857143,0,312566.00438620575,369326.6188297393,180112.95959869478,8550.38738850712,88013.79743017674,2.083773362574705e-06,0.0,0.0,0.0,2.083773362574705e-06,0.0,25.113676464892865,3.897230869450587,0.0029384315180171973,0.0
5714,6.8965517241379315,4.137931034482759,5.0,0,222757.4818254961,391155.97983055434,164848.85382543443,172126.50243424138,-35800.001271464,1.4850498788366408e-06,0.0,0.0,0.0,1.4850498788366408e-06,0.0,24.042398595690692,4.200152828575558,-0.001193907057552896,0.0
5715,7.241379310344828,4.137931034482759,0.0,0,286112.7861801596,515582.43342970754,486273.0342809935,215943.0925903698,-7880.062927805239,1.9074185745343973e-06,0.0,0.0,0.0,1.9074185745343973e-06,0.0,25.21320122927686,-0.04985331340493012,-0.0002627950393668486,0.0
5716,7.241379310344828,4.137931034482759,0.35714285714285715,0,50579.03529491705,327018.1250806557,279257.75674466946,274026.95975996595,15707.234223578604,3.3719356863278035e-07,0.0,0.0,0.0,3.3719356863278035e-07,0.0,24.285306856897037,0.254341483285683,0.0005244022352297345,0.0
5717,7.241379310344828,4.137931034482759,0.7142857142857143,0,153033.73533238,396933.0436969406,336399.7075459811,222891.86271807057,-91133.35684410729,1.0202249022158667e-06,0.0,0.0,0.0,1.0202249022158667e-06,0.0,23.92892906681079,0.5602751570060451,-0.003053572844154218,0.0
5718,7.241379310344828,4.137931034482759,1.0714285714285714,0,248182.51332811484,524372.7611746306,240351.6168515327,349293.28965267964,126437.68439412501,1.654550088854099e-06,0.0,0.0,0.0,1.654550088854099e-06,0.0,23.789054514656858,0.8705865249336583,0.004286653139389517,0.0
5719,7.241379310344828,4.137931034482759,1.4285714285714286,0,120630.46429683457,481125.3541642179,391133.04339344334,344054.5175788822,-13783.217492556676,8.042030953122305e-07,0.0,0.0,0.0,8.042030953122305e-07,0.0,23.808634799788443,1.1883946811857111,-0.0004852755333030094,0.0
5720,7.241379310344828,4.137931034482759,1.7857142857142858,0,367995.52960348915,800689.5182347598,727212.638038368,401498.9145816938,15752.67973842578,2.4533035306899276e-06,0.0,0.0,0.0,2.4533035306899276e-06,0.0,23.96422532056718,1.5134768110649741,0.000622191442830262,0.0
5721,7.241379310344828,4.137931034482759,2.142857142857143,0,483743.102850893,1055956.22405115,618683.5565998465,536318.477902191,283000.3101591016,3.224954019005953e-06,0.0,0.0,0.0,3.224954019005953e-06,0.0,23.895343845019944,1.8383147271011677,0.015170258629682094,0.0
5722,7.241379310344828,4.137931034482759,2.5,0,454534.53159431624,1343770.948872507,1011918.059599214,825698.3906375559,783718.0828391952,3.030230210628775e-06,0.0,0.0,0.0,3.030230210628775e-06,0.0,24.799159572408843,2.150985537453131,0.07837180828391951,0.0
5723,7.241379310344828,4.137931034482759,2.857142857142857,0,938693.3281292508,1036635.6750939651,454985.98573373933,-46280.00618554551,441294.2930809077,6.257955520861672e-06,0.0,0.0,0.0,6.257955520861672e-06,0.0,25.652332308290546,2.445457584244025,0.023655622688457306,0.0
5724,7.241379310344828,4.137931034482759,3.2142857142857144,0,597822.5906255479,830991.6706238867,809846.9594924464,222877.24477723858,-5811.351666141636,3.9854839375036524e-06,0.0,0.0,0.0,3.9854839375036524e-06,0.0,24.232975340414757,2.727762525350689,-0.00022953385315964327,0.0
5725,7.241379310344828,4.137931034482759,3.5714285714285716,0,356313.3204458429,353663.32485682255,385764.0251464109,14486.50668839427,-63785.414444111375,2.3754221363056196e-06,0.0,0.0,0.0,2.3754221363056196e-06,0.0,24.247375120020532,3.0098232526142827,-0.0022457384154342327,0.0
5726,7.241379310344828,4.137931034482759,3.928571428571429,0,158502.44481174834,408424.15682286007,271937.54967768345,234579.81365406324,46758.56480304671,1.0566829654116556e-06,0.0,0.0,0.0,1.0566829654116556e-06,0.0,23.43703215660891,3.2991579535050874,0.001585269056190037,0.0
5727,7.241379310344828,4.137931034482759,4.285714285714286,0,299155.6916559411,452847.87150613766,273776.26553584944,107491.53024941368,-28024.960866982638,1.9943712777062737e-06,0.0,0.0,0.0,1.9943712777062737e-06,0.0,23.90806002756958,3.595989442720331,-0.0009390223560873499,0.0
5728,7.241379310344828,4.137931034482759,4.642857142857143,0,198546.5521714865,471615.81183367816,254823.08122880384,427805.957095341,-73337.78211057468,1.3236436811432433e-06,0.0,0.0,0.0,1.3236436811432433e-06,0.0,23.564995139587634,3.8971986261428264,-0.002448457590824322,0.0
5729,7.241379310344828,4.137931034482759,5.0,0,378461.6858339015,553260.1536062286,259129.65853654206,126286.5522360906,-6302.156981339073,2.5230779055593435e-06,0.0,0.0,0.0,2.5230779055593435e-06,0.0,24.786884021369282,4.20014668659507,-0.00021017288912289698,0.0
5730,7.586206896551724,4.137931034482759,0.0,0,275368.0188112522,401122.79182961624,91600.33551922327,183318.46283285407,-17481.277530859334,1.8357867920750147e-06,0.0,0.0,0.0,1.8357867920750147e-06,0.0,25.18782380894316,-0.049859580724213204,-0.0005829893820637935,0.0
5731,7.586206896551724,4.137931034482759,0.35714285714285715,0,372162.8839713327,564026.0822432712,296140.359724038,139079.54066565423,84873.18206856816,2.481085893142218e-06,0.0,0.0,0.0,2.481085893142218e-06,0.0,23.685329060016155,0.25430858199189144,0.0028335788308934454,0.0
5732,7.586206896551724,4.137931034482759,0.7142857142857143,0,217339.04924065477,379079.7570071719,293425.700213062,131964.2090088792,-22794.038148967455,1.4489269949376984e-06,0.0,0.0,0.0,1.4489269949376984e-06,0.0,24.129056221072297,0.5601413266221331,-0.0007637516965315524,0.0
5733,7.586206896551724,4.137931034482759,1.0714285714285714,0,436250.7381942605,569377.33688419,358852.95782601164,67789.11876037985,-13576.976217165757,2.9083382546284034e-06,0.0,0.0,0.0,2.9083382546284034e-06,0.0,24.11108550392443,0.8701647244603615,-0.000460304125337451,0.0
5734,7.586206896551724,4.137931034482759,1.4285714285714286,0,462571.963656716,608231.3464128302,311238.0779720737,75262.25487348119,18043.480267704042,3.083813091044773e-06,0.0,0.0,0.0,3.083813091044773e-06,0.0,24.581749579374055,1.1873646034674605,0.000635269632383072,0.0
5735,7.586206896551724,4.137931034482759,1.7857142857142858,0,565380.3564827461,612040.4731465068,408716.33336887776,-26882.630257974488,36131.858695928524,3.7692023765516404e-06,0.0,0.0,0.0,3.7692023765516404e-06,0.0,24.29744341670393,1.5115276689084567,0.001427118031183024,0.0
5736,7.586206896551724,4.137931034482759,2.142857142857143,0,539360.0287644779,1177624.462510904,774919.7754443766,564834.4664836007,467381.3158894002,3.5957335250965195e-06,0.0,0.0,0.0,3.5957335250965195e-06,0.0,25.306749629958468,1.8354569547667678,0.025054020035303885,0.0
5737,7.586206896551724,4.137931034482759,2.5,0,842961.3354585283,1292075.0226116276,492842.64221205894,411309.6718923068,620498.1480628244,5.619742236390188e-06,0.0,0.0,0.0,5.619742236390188e-06,0.0,23.879676052204754,2.147738985688204,0.06204981480628244,0.0
5738,7.586206896551724,4.137931034482759,2.857142857142857,0,411437.87797859474,1248309.224272237,808470.4259963227,872866.511499543,391905.88622258604,2.742919186523965e-06,0.0,0.0,0.0,2.742919186523965e-06,0.0,24.70877035184794,2.442599811909625,0.021008152426225127,0.0
5739,7.586206896551724,4.137931034482759,3.2142857142857144,0,548210.1956698152,715409.6377284551,245349.9946200438,113204.97011731743,109345.50705715494,3.654734637798768e-06,0.0,0.0,0.0,3.654734637798768e-06,0.0,23.9661142245677,2.7258133831941715,0.004318873990495834,0.0
5740,7.586206896551724,4.137931034482759,3.5714285714285716,0,123593.13877020417,490639.6348077973,483118.6299978195,363457.7411610258,66042.59979202451,8.239542584680278e-07,0.0,0.0,0.0,8.239542584680278e-07,0.0,23.46752690615485,3.008793174896032,0.0023252087440468233,0.0
5741,7.586206896551724,4.137931034482759,3.928571428571429,0,229112.82953221182,573016.3886675297,376451.50783154205,321389.9742149921,-26080.81674637063,1.5274188635480787e-06,0.0,0.0,0.0,1.5274188635480787e-06,0.0,24.98650821988791,3.2987361530317907,-0.0008842254231355344,0.0
5742,7.586206896551724,4.137931034482759,4.285714285714286,0,180553.2565945823,428008.72848937626,224760.69749906907,286170.82371661835,-26109.889194853113,1.2036883772972153e-06,0.0,0.0,0.0,1.2036883772972153e-06,0.0,25.214650688803335,3.5958556123364187,-0.0008748547334392892,0.0
5743,7.586206896551724,4.137931034482759,4.642857142857143,0,270995.82510565105,507178.5488080179,362218.84057939815,194534.68934028773,67080.63828767532,1.8066388340376737e-06,0.0,0.0,0.0,1.8066388340376737e-06,0.0,24.487661486406818,3.897165724849035,0.002239556382618185,0.0
5744,7.586206896551724,4.137931034482759,5.0,0,237102.22867592596,415541.4607137242,314312.9575787722,144627.27846563305,-24012.6793658034,1.580681524506173e-06,0.0,0.0,0.0,1.580681524506173e-06,0.0,23.972348753479636,4.200140419275787,-0.0008008074398712192,0.0
5745,7.931034482758621,4.137931034482759,0.0,0,339672.07372997276,589133.7660535458,220129.0400757204,289506.4629928025,-2507.125527547651,2.264480491533152e-06,0.0,0.0,0.0,2.264480491533152e-06,0.0,23.557832680902557,-0.049865933438872974,-8.361102668161334e-05,0.0
5746,7.931034482758621,4.137931034482759,0.35714285714285715,0,264093.5540459124,381981.6429488849,130559.43575146473,106819.67590474543,75693.11320744616,1.760623693639416e-06,0.0,0.0,0.0,1.760623693639416e-06,0.0,24.412128634231312,0.2542752324014279,0.002527092751816026,0.0
5747,7.931034482758621,4.137931034482759,0.7142857142857143,0,168091.45585230427,388892.9290797614,338402.51320269133,201343.14339011195,2996.9051933439864,1.1206097056820285e-06,0.0,0.0,0.0,1.1206097056820285e-06,0.0,23.073166395930553,0.560005672731945,0.0001004162321218355,0.0
5748,7.931034482758621,4.137931034482759,1.0714285714285714,0,387652.23942661507,596032.8063738422,247174.88499783986,178709.07062392053,-11023.832234547708,2.5843482628441004e-06,0.0,0.0,0.0,2.5843482628441004e-06,0.0,24.5771638413942,0.8697371767435181,-0.0003737441513799428,0.0
5749,7.931034482758621,4.137931034482759,1.4285714285714286,0,368019.75796873204,483571.60763469146,487809.14837292815,117688.91782772174,-2519.224766703658,2.4534650531248803e-06,0.0,0.0,0.0,2.4534650531248803e-06,0.0,23.937088773825884,1.186320490422335,-8.86961366482435e-05,0.0
5750,7.931034482758621,4.137931034482759,1.7857142857142858,0,586484.2012592084,1003855.7223129629,534395.2678829659,346433.07782337314,23793.219912849687,3.9098946750613894e-06,0.0,0.0,0.0,3.9098946750613894e-06,0.0,23.931071261616005,1.5095519687099506,0.0009397726655384332,0.0
5751,7.931034482758621,4.137931034482759,2.142857142857143,0,703231.2145796492,1327510.4476991054,630971.4558795529,617772.8123697953,475680.8496898276,4.688208097197661e-06,0.0,0.0,0.0,4.688208097197661e-06,0.0,23.618952528368244,1.8325602438473103,0.02549891733660892,0.0
5752,7.931034482758621,4.137931034482759,2.5,0,1066149.2244385283,1284542.8422639235,1404501.3078362234,283446.3738515067,642354.5556912564,7.107661496256855e-06,0.0,0.0,0.0,7.107661496256855e-06,0.0,23.441622607037125,2.144448198022984,0.06423545556912563,0.0
5753,7.931034482758621,4.137931034482759,2.857142857142857,0,315924.20006102364,718007.5822654201,918477.8907899472,554297.9662929651,512601.3218189339,2.106161333740158e-06,0.0,0.0,0.0,2.106161333740158e-06,0.0,24.135898066614804,2.439703100990167,0.02747804276800378,0.0
5754,7.931034482758621,4.137931034482759,3.2142857142857144,0,786702.4856800501,757435.1672737601,-23584.719459292777,-34829.36955846207,81252.13667675508,5.244683237867001e-06,0.0,0.0,0.0,5.244683237867001e-06,0.0,24.2674612429881,2.7238376829956654,0.00320925613872754,0.0
5755,7.931034482758621,4.137931034482759,3.5714285714285716,0,381619.7942650727,541597.0169074434,319929.3580725512,100943.1545251851,19171.374006129477,2.544131961767151e-06,0.0,0.0,0.0,2.544131961767151e-06,0.0,24.128576158717447,3.0077490618509066,0.0006749801887694241,0.0
5756,7.931034482758621,4.137931034482759,3.928571428571429,0,398869.18830187793,563392.5072247629,193294.36050506998,140925.76240260637,79299.26069088552,2.6591279220125195e-06,0.0,0.0,0.0,2.6591279220125195e-06,0.0,24.726545888034284,3.2983086053149475,0.0026885056177732964,0.0
5757,7.931034482758621,4.137931034482759,4.285714285714286,0,360932.28542498476,584196.1629865877,239426.32336205253,209024.57466266258,-64238.570454608234,2.406215236166565e-06,0.0,0.0,0.0,2.406215236166565e-06,0.0,24.213860276046443,3.5957199584462307,-0.0021524188406998506,0.0
5758,7.931034482758621,4.137931034482759,4.642857142857143,0,112625.7848280677,381393.6400176988,296564.06058046845,253611.85288488865,1079.3580866909788,7.508385655204513e-07,0.0,0.0,0.0,7.508385655204513e-07,0.0,24.546433369882305,3.8971323752585714,3.603548436454666e-05,0.0
5759,7.931034482758621,4.137931034482759,5.0,0,284674.95748278964,512651.0710510255,340582.6909398038,184059.28815970643,28193.675764894855,1.8978330498852642e-06,0.0,0.0,0.0,1.8978330498852642e-06,0.0,23.459032986159343,4.2001340665611275,0.0009402409854352917,0.0
5760,8.275862068965518,4.137931034482759,0.0,0,249870.94278877813,514567.9519793514,335705.68265493144,229071.25555464876,-27499.737186592483,1.6658062852585208e-06,0.0,0.0,0.0,1.6658062852585208e-06,0.0,23.81122532371548,-0.049872346665654245,-0.0009170985793816971,0.0
5761,8.275862068965518,4.137931034482759,0.35714285714285715,0,331993.57913293166,542165.504224443,408660.6635255008,164202.41613050544,42452.50268216838,2.2132905275528776e-06,0.0,0.0,0.0,2.2132905275528776e-06,0.0,24.77866329874139,0.2542415651429157,0.0014173206422431112,0.0
5762,8.275862068965518,4.137931034482759,0.7142857142857143,0,240523.4916038205,492427.8342131836,370447.545250875,215354.00954817812,-24383.071258763615,1.60348994402547e-06,0.0,0.0,0.0,1.60348994402547e-06,0.0,24.527492409954625,0.5598687266847618,-0.0008169948614995202,0.0
5763,8.275862068965518,4.137931034482759,1.0714285714285714,0,138407.70939943817,282095.59929516696,375950.06013564643,216995.1583281262,13748.72867865838,9.227180626629212e-07,0.0,0.0,0.0,9.227180626629212e-07,0.0,24.21319665961034,0.8693055564654508,0.00046612709838368503,0.0
5764,8.275862068965518,4.137931034482759,1.4285714285714286,0,316612.9661274891,519434.6863405079,396873.30362257577,159862.52524137642,118.23411900305018,2.110753107516594e-06,0.0,0.0,0.0,2.110753107516594e-06,0.0,23.861818673853193,1.1852664317872006,4.162752650808954e-06,0.0
5765,8.275862068965518,4.137931034482759,1.7857142857142858,0,428957.22833812045,590446.8709943363,735206.9229255376,252598.05927640776,93317.92994499668,2.8597148555874696e-06,0.0,0.0,0.0,2.8597148555874696e-06,0.0,23.587734720247376,1.5075574491850832,0.0036858247890852558,0.0
5766,8.275862068965518,4.137931034482759,2.142857142857143,0,448600.83097948437,1091691.9320953821,724486.0537415955,591683.2601444097,437546.450494328,2.990672206529896e-06,0.0,0.0,0.0,2.990672206529896e-06,0.0,23.79576761950627,1.8296359406098435,0.023454719228988348,0.0
5767,8.275862068965518,4.137931034482759,2.5,0,675702.4977268304,1601152.2777485824,859399.5972600445,1020690.4270907138,768182.2906020258,4.50468331817887e-06,0.0,0.0,0.0,4.50468331817887e-06,0.0,24.38405880302953,2.1411260643027785,0.07681822906020258,0.0
5768,8.275862068965518,4.137931034482759,2.857142857142857,0,733367.7009708458,1207236.6980765278,362826.6980961736,729741.5653577389,375261.6579332859,4.889118006472305e-06,0.0,0.0,0.0,4.889118006472305e-06,0.0,23.078644820657328,2.4367787977527002,0.02011593698060176,0.0
5769,8.275862068965518,4.137931034482759,3.2142857142857144,0,720112.1716499566,944288.4706084152,699783.6027904135,133759.51743670352,29847.42418996188,4.800747810999711e-06,0.0,0.0,0.0,4.800747810999711e-06,0.0,24.972304800040295,2.7218431634707976,0.0011788985893123405,0.0
5770,8.275862068965518,4.137931034482759,3.5714285714285716,0,416187.3825629024,572741.8404741879,367021.3700995332,93754.95978539807,23678.72632489891,2.774582550419349e-06,0.0,0.0,0.0,2.774582550419349e-06,0.0,24.698938545348764,3.006695003215772,0.000833673745005956,0.0
5771,8.275862068965518,4.137931034482759,3.928571428571429,0,397709.3756306071,341529.08383998804,593586.4224685031,135107.65013558223,2727.0829128841333,2.6513958375373803e-06,0.0,0.0,0.0,2.6513958375373803e-06,0.0,24.692213716799174,3.29787698503688,9.245707548273845e-05,0.0
5772,8.275862068965518,4.137931034482759,4.285714285714286,0,77924.54400586119,222017.23660434448,277120.8886094667,187966.09830895005,-30983.70034566337,5.194969600390745e-07,0.0,0.0,0.0,5.194969600390745e-07,0.0,24.396289894034194,3.5955830123990475,-0.0010381597832368984,0.0
5773,8.275862068965518,4.137931034482759,4.642857142857143,0,239702.07544702844,459627.3356038094,320347.61448235717,182845.1219695006,15326.782603574538,1.5980138363135229e-06,0.0,0.0,0.0,1.5980138363135229e-06,0.0,24.147706411433678,3.8970987080000588,0.0005117004650079972,0.0
5774,8.275862068965518,4.137931034482759,5.0,0,119517.00887808288,427161.8856047335,361154.6446037303,289198.27981107193,-20641.675625795084,7.967800591872192e-07,0.0,0.0,0.0,7.967800591872192e-07,0.0,24.287357135643404,4.200127653334346,-0.000688386629444009,0.0
5775,8.620689655172415,4.137931034482759,0.0,0,126495.77429174427,360975.68599178817,215173.78246703593,295659.8914517141,69782.3078164703,8.433051619449617e-07,0.0,0.0,0.0,8.433051619449617e-07,0.0,23.753573781345683,-0.049878804202624645,0.0023271951630018895,0.0
5776,8.620689655172415,4.137931034482759,0.35714285714285715,0,147731.70736621995,296100.67930393596,346283.5774119691,179997.5289058222,111695.22542615827,9.84878049108133e-07,0.0,0.0,0.0,9.84878049108133e-07,0.0,25.00022185480547,0.2542076652709869,0.0037290604471944813,0.0
5777,8.620689655172415,4.137931034482759,0.7142857142857143,0,199845.51882608372,384005.5302433086,318229.26622732356,159562.33118163265,62534.95546136228,1.3323034588405582e-06,0.0,0.0,0.0,1.3323034588405582e-06,0.0,23.876821086735507,0.5597308344516012,0.002095336421480195,0.0
5778,8.620689655172415,4.137931034482759,1.0714285714285714,0,188840.13394785428,445736.0917783292,296474.66651055805,233441.41732175482,62133.65314014797,1.2589342263190286e-06,0.0,0.0,0.0,1.2589342263190286e-06,0.0,23.712973120367746,0.8688709540417638,0.0021065350933248384,0.0
5779,8.620689655172415,4.137931034482759,1.4285714285714286,0,245218.77548864976,610732.6960168582,503666.35178789945,330186.6469499086,50654.78390707385,1.6347918365909984e-06,0.0,0.0,0.0,1.6347918365909984e-06,0.0,23.82280150390374,1.1842050904628567,0.001783438974835061,0.0
5780,8.620689655172415,4.137931034482759,1.7857142857142858,0,403712.6438187211,801172.6859839237,400885.23937457224,394119.87915625295,65124.850988010076,2.6914176254581407e-06,0.0,0.0,0.0,2.6914176254581407e-06,0.0,23.598661897747334,1.5055491491499695,0.0025722686979723435,0.0
5781,8.620689655172415,4.137931034482759,2.142857142857143,0,1001032.0081705749,1511743.3912655395,863593.4091875323,358819.02794516453,214193.85337861138,6.673546721137166e-06,0.0,0.0,0.0,6.673546721137166e-06,0.0,24.369528161347436,1.8266914328117168,0.011481881948521377,0.0
5782,8.620689655172415,4.137931034482759,2.5,0,858477.5813849876,1067129.439522096,1333688.2095110954,373551.17392183846,638624.7685356992,5.723183875899917e-06,0.0,0.0,0.0,5.723183875899917e-06,0.0,23.710218161645354,2.13778097733634,0.06386247685356992,0.0
5783,8.620689655172415,4.137931034482759,2.857142857142857,0,998187.4119789739,1345423.9463914565,639047.839827109,203469.32023139583,354010.49610006035,6.6545827465264925e-06,0.0,0.0,0.0,6.6545827465264925e-06,0.0,23.911553929140798,2.4338342899545737,0.018976766422767327,0.0
5784,8.620689655172415,4.137931034482759,3.2142857142857144,0,387019.45108813304,779349.664184203,494590.46527232724,338694.681069372,174567.71577746028,2.580129673920887e-06,0.0,0.0,0.0,2.580129673920887e-06,0.0,24.647384564444664,2.719834863435684,0.0068949880753441445,0.0
5785,8.620689655172415,4.137931034482759,3.5714285714285716,0,339496.40032881196,613836.1495451003,630073.3489437469,282749.69201062084,20579.083626184758,2.263309335525413e-06,0.0,0.0,0.0,2.263309335525413e-06,0.0,24.519358456585497,3.0056336618914283,0.0007245424217514554,0.0
5786,8.620689655172415,4.137931034482759,3.928571428571429,0,149957.2812841997,423287.15542381513,368645.59390579327,253671.2200519265,-30289.892773107636,9.997152085613313e-07,0.0,0.0,0.0,9.997152085613313e-07,0.0,23.476771041607236,3.2974423826131933,-0.0010269269369318414,0.0
5787,8.620689655172415,4.137931034482759,4.285714285714286,0,270274.7566031445,546639.7354570689,269535.17290142435,283756.28304737527,-83055.74312503186,1.8018317106876301e-06,0.0,0.0,0.0,1.8018317106876301e-06,0.0,24.583797493226985,3.595445120165887,-0.0027829191257761144,0.0
5788,8.620689655172415,4.137931034482759,4.642857142857143,0,141263.91622601444,475217.4933394159,386137.0662391983,312338.7731304746,104020.5695139485,9.417594415067629e-07,0.0,0.0,0.0,9.417594415067629e-07,0.0,23.289935090994234,3.89706480812813,0.003472834134038697,0.0
5789,8.620689655172415,4.137931034482759,5.0,0,290102.6134118939,387669.4693635453,263070.51133721677,56082.31693684419,23926.253053894958,1.9340174227459594e-06,0.0,0.0,0.0,1.9340174227459594e-06,0.0,23.25231098966286,4.200121195797376,0.0007979251778577816,0.0
5790,8.965517241379311,4.137931034482759,0.0,0,255912.0429674539,448320.3857474554,173925.78560182807,216140.58047517383,40828.53282134509,1.7060802864496927e-06,0.0,0.0,0.0,1.7060802864496927e-06,0.0,23.677233328656428,-0.049885295093204184,0.0013616053562486524,0.0
5791,8.965517241379311,4.137931034482759,0.35714285714285715,0,213878.138837504,427954.47140843,438015.8394716257,219284.58237781702,-24077.352295978824,1.4258542589166932e-06,0.0,0.0,0.0,1.4258542589166932e-06,0.0,23.991732230294986,0.25417359030395875,-0.0008038472707990489,0.0
5792,8.965517241379311,4.137931034482759,0.7142857142857143,0,302352.07232991775,495041.61905425263,216168.13061353774,173701.1675438137,-6244.078835789158,2.015680482199452e-06,0.0,0.0,0.0,2.015680482199452e-06,0.0,23.737690045235244,0.5595922299958596,-0.00020921811979711708,0.0
5793,8.965517241379311,4.137931034482759,1.0714285714285714,0,385380.3742487654,354951.70572562795,552996.6207827379,108863.03394778825,-15677.190770887612,2.5692024949917695e-06,0.0,0.0,0.0,2.5692024949917695e-06,0.0,24.074194319170655,0.868434106867573,-0.0005315083027410801,0.0
5794,8.965517241379311,4.137931034482759,1.4285714285714286,0,192526.76110459623,536709.2438084855,325078.952943047,371936.3276192009,10259.66594671664,1.2835117406973081e-06,0.0,0.0,0.0,1.2835117406973081e-06,0.0,23.671144240715638,1.1831382672397874,0.00036121935001695463,0.0
5795,8.965517241379311,4.137931034482759,1.7857142857142858,0,635407.0710725124,834510.1016227304,871315.7678961692,218305.84910205266,224210.91295843475,4.236047140483416e-06,0.0,0.0,0.0,4.236047140483416e-06,0.0,22.8345445983786,1.5035304761112318,0.008855770176778806,0.0
5796,8.965517241379311,4.137931034482759,2.142857142857143,0,1039190.0523448299,1153385.907378988,488423.08161872375,-44129.77948116587,294169.2273686718,6.927933682298866e-06,0.0,0.0,0.0,6.927933682298866e-06,0.0,23.7736213774274,1.8237317164344309,0.015768969502427888,0.0
5797,8.965517241379311,4.137931034482759,2.5,0,1014583.33945179,1711380.7016378648,1220248.004622512,544689.5743217118,772344.314520954,6.7638889296786e-06,0.0,0.0,0.0,6.7638889296786e-06,0.0,23.113379320392166,2.1344186127726217,0.07723443145209541,0.0
5798,8.965517241379311,4.137931034482759,2.857142857142857,0,797972.8066593965,1323196.0374554773,916591.8047788301,403817.56440304546,473507.6048865105,5.319818711062643e-06,0.0,0.0,0.0,5.319818711062643e-06,0.0,23.87998343397801,2.430874573577288,0.025382420341558284,0.0
5799,8.965517241379311,4.137931034482759,3.2142857142857144,0,152609.9633584061,772209.5355402554,670933.623237883,596682.8564924614,72429.63803597594,1.0173997557227072e-06,0.0,0.0,0.0,1.0173997557227072e-06,0.0,23.25670572951404,2.717816190396946,0.0028607895127423563,0.0
5800,8.965517241379311,4.137931034482759,3.5714285714285716,0,263500.4122750095,563275.672087616,482437.89230472205,268826.4546977988,60521.713703862675,1.75666941516673e-06,0.0,0.0,0.0,1.75666941516673e-06,0.0,24.146540199131735,3.004566838668359,0.0021308309841235893,0.0
5801,8.965517241379311,4.137931034482759,3.928571428571429,0,293349.0939595207,492040.7518443368,278951.1012467317,157464.58761815206,-80334.97202702296,1.9556606263968047e-06,0.0,0.0,0.0,1.9556606263968047e-06,0.0,24.56995307629809,3.2970055354390024,-0.002723619636760828,0.0
5802,8.965517241379311,4.137931034482759,4.285714285714286,0,308674.8034648766,487296.6432164028,197609.44585258325,162616.64650366677,84950.16337636986,2.0578320230991772e-06,0.0,0.0,0.0,2.0578320230991772e-06,0.0,23.03283432453026,3.5953065157101456,0.0028463947886423124,0.0
5803,8.965517241379311,4.137931034482759,4.642857142857143,0,138319.22410835352,285367.0401920969,310065.6442588357,161060.96554455126,-61603.418600821096,9.221281607223568e-07,0.0,0.0,0.0,9.221281607223568e-07,0.0,22.88114549961616,3.897030733161102,-0.0020566937471123738,0.0
5804,8.965517241379311,4.137931034482759,5.0,0,75929.27492997643,422299.85784113576,334626.78467280965,379036.88233301224,-50787.16366275377,5.061951661998429e-07,0.0,0.0,0.0,5.061951661998429e-07,0.0,23.75662595686336,4.200114704906796,-0.001693719301021022,0.0
5805,9.310344827586208,4.137931034482759,0.0,0,65629.01857953424,315781.61852368515,272000.91968860506,240322.5666125541,-20185.83246868242,4.3752679053022826e-07,0.0,0.0,0.0,4.3752679053022826e-07,0.0,24.30876444614386,-0.049891811683883444,-0.0006731845528215199,0.0
5806,9.310344827586208,4.137931034482759,0.35714285714285715,0,443422.849414168,564051.7138439233,339382.0392616853,53261.76443236309,-29090.06774821402,2.9561523294277867e-06,0.0,0.0,0.0,2.9561523294277867e-06,0.0,23.826815873549084,0.25413938042015144,-0.0009712019527440584,0.0
5807,9.310344827586208,4.137931034482759,0.7142857142857143,0,252263.72706543494,445158.54135558853,345158.6507234497,158226.1069247621,19136.23544125388,1.681758180436233e-06,0.0,0.0,0.0,1.681758180436233e-06,0.0,23.540216811795553,0.5594530767481931,0.000641191007401509,0.0
5808,9.310344827586208,4.137931034482759,1.0714285714285714,0,239459.34270733056,446325.72978046286,240493.82830291634,183517.00853460893,14629.456164906973,1.5963956180488705e-06,0.0,0.0,0.0,1.5963956180488705e-06,0.0,23.22040001633667,0.8679955300361334,0.0004959866553817851,0.0
5809,9.310344827586208,4.137931034482759,1.4285714285714286,0,470770.27280585194,636312.3080309574,420299.0244387778,96300.63647075745,12908.876870645152,3.1384684853723464e-06,0.0,0.0,0.0,3.1384684853723464e-06,0.0,24.124765230724787,1.1820672200257434,0.0004544920016772673,0.0
5810,9.310344827586208,4.137931034482759,1.7857142857142858,0,699735.9733529852,838164.0445825655,499713.08372606407,33549.98798557945,-28172.697729801526,4.664906489019901e-06,0.0,0.0,0.0,4.664906489019901e-06,0.0,24.536444158973964,1.5015038103174514,-0.0011127510836246946,0.0
5811,9.310344827586208,4.137931034482759,2.142857142857143,0,271814.08486237196,886620.8809044829,641260.9220265789,594436.4334885961,415918.73931249965,1.8120938990824798e-06,0.0,0.0,0.0,1.8120938990824798e-06,0.0,22.83780502759912,1.8207602813253114,0.02229536370739211,0.0
5812,9.310344827586208,4.137931034482759,2.5,0,931778.3906034761,1328242.5577779775,1155318.4790682497,322115.40739225684,780079.279552858,6.211855937356507e-06,0.0,0.0,0.0,6.211855937356507e-06,0.0,23.9241291503474,2.1310429352276485,0.0780079279552858,0.0
5813,9.310344827586208,4.137931034482759,2.857142857142857,0,398400.94928433915,1068340.9724119937,623624.0054229281,744034.3116669706,572995.3117546606,2.656006328562261e-06,0.0,0.0,0.0,2.656006328562261e-06,0.0,25.05441284409808,2.4279031384681686,0.030715468361241862,0.0
5814,9.310344827586208,4.137931034482759,3.2142857142857144,0,178674.69663212265,503218.7452833406,470427.70345559344,310419.68727774866,96827.55017844269,1.191164644214151e-06,0.0,0.0,0.0,1.191164644214151e-06,0.0,23.483884394016524,2.715789524603166,0.0038244460086551183,0.0
5815,9.310344827586208,4.137931034482759,3.5714285714285716,0,269578.15523941943,465054.1849399359,385453.28809910046,164638.7816552788,27427.93782314018,1.7971877015961296e-06,0.0,0.0,0.0,1.7971877015961296e-06,0.0,23.696059087989255,3.003495791454315,0.0009656748986014306,0.0
5816,9.310344827586208,4.137931034482759,3.928571428571429,0,488639.960239471,447235.77400208765,452607.6571045512,-38696.09817923565,91411.9814309662,3.2575997349298067e-06,0.0,0.0,0.0,3.2575997349298067e-06,0.0,23.778866521254347,3.2965669586075625,0.003099166668992516,0.0
5817,9.310344827586208,4.137931034482759,4.285714285714286,0,133796.2920655658,440282.4588144269,332825.3269946667,290422.88133025204,-52273.08374766675,8.919752804371053e-07,0.0,0.0,0.0,8.919752804371053e-07,0.0,23.596655232743885,3.595167362462479,-0.0017514955504724773,0.0
5818,9.310344827586208,4.137931034482759,4.642857142857143,0,138729.09053534866,316042.466239747,361908.45182059734,206054.45209075767,-17434.07507258891,9.24860603568991e-07,0.0,0.0,0.0,9.24860603568991e-07,0.0,24.354170963701996,3.8969965232772945,-0.0005820546002621254,0.0
5819,9.310344827586208,4.137931034482759,5.0,0,362545.4516175754,552566.9877759529,287648.44151194155,139389.30168780734,-51013.26867654899,2.416969677450503e-06,0.0,0.0,0.0,2.416969677450503e-06,0.0,24.711145951027724,4.200108188316117,-0.0017012597580637818,0.0
5820,9.655172413793103,4.137931034482759,0.0,0,296656.9719045565,439349.3403358652,306915.0585562012,99542.67161883508,72053.70475355745,1.9777131460303765e-06,0.0,0.0,0.0,1.9777131460303765e-06,0.0,22.79505439360766,-0.04989834847740244,0.002402944792537628,0.0
5821,9.655172413793103,4.137931034482759,0.35714285714285715,0,136181.91715236296,451966.1725214915,309632.61804517376,322908.25596222514,75133.03132323995,9.078794476824197e-07,0.0,0.0,0.0,9.078794476824197e-07,0.0,23.184881029889727,0.2541050644783095,0.002508393839721844,0.0
5822,9.655172413793103,4.137931034482759,0.7142857142857143,0,352542.38411188265,486089.1557016989,341419.62178966514,84225.66911179888,68794.39891535469,2.3502825607458845e-06,0.0,0.0,0.0,2.3502825607458845e-06,0.0,24.27989619321276,0.5593134920953795,0.0023050693580527596,0.0
5823,9.655172413793103,4.137931034482759,1.0714285714285714,0,208882.93907501723,390568.5104354931,297107.5090192145,151274.0900868429,25677.014689476524,1.3925529271667815e-06,0.0,0.0,0.0,1.3925529271667815e-06,0.0,23.961698894487313,0.8675555935217135,0.0008705352059888694,0.0
5824,9.655172413793103,4.137931034482759,1.4285714285714286,0,283746.3365880904,587983.2266893041,521563.98223488027,276918.7025767025,27274.431343519747,1.8916422439206027e-06,0.0,0.0,0.0,1.8916422439206027e-06,0.0,23.884634175066928,1.1809928523338182,0.0009602702868840648,0.0
5825,9.655172413793103,4.137931034482759,1.7857142857142858,0,211958.15088014852,715166.1005244126,482676.78353085776,532681.0024349318,45949.016263988764,1.41305433920099e-06,0.0,0.0,0.0,1.41305433920099e-06,0.0,24.01928381996089,1.4994708614216261,0.001814871196561211,0.0
5826,9.655172413793103,4.137931034482759,2.142857142857143,0,529507.3076626267,938484.8905181851,410018.80838955205,407942.4637803003,519287.12923750374,3.530048717750845e-06,0.0,0.0,0.0,3.530048717750845e-06,0.0,23.72381071979332,1.8177796341250487,0.027836436112629204,0.0
5827,9.655172413793103,4.137931034482759,2.5,0,1259128.4577171602,1499830.7998353678,1679954.5766788747,340464.40228192456,603951.9333540506,8.394189718114402e-06,0.0,0.0,0.0,8.394189718114402e-06,0.0,23.92107317241559,2.1276567923526004,0.06039519333540506,0.0
5828,9.655172413793103,4.137931034482759,2.857142857142857,0,940186.2900993469,1484699.6059029007,725607.0709474046,433004.43184127484,284379.31927331083,6.2679086006623124e-06,0.0,0.0,0.0,6.2679086006623124e-06,0.0,23.52249727181955,2.424922491267906,0.015244180544832934,0.0
5829,9.655172413793103,4.137931034482759,3.2142857142857144,0,384812.4388827078,883718.9435147425,742989.7105589204,448351.4840854276,48895.02064831524,2.565416259218052e-06,0.0,0.0,0.0,2.565416259218052e-06,0.0,23.575944867873147,2.713756575707341,0.0019312310000298963,0.0
5830,9.655172413793103,4.137931034482759,3.5714285714285716,0,263881.0774374437,638266.9088138933,528545.9305976831,337227.2101165042,108445.48420422773,1.7592071829162915e-06,0.0,0.0,0.0,1.7592071829162915e-06,0.0,23.647067545397814,3.00242142376239,0.0038181172291541633,0.0
5831,9.655172413793103,4.137931034482759,3.928571428571429,0,355854.506298288,415368.5434848537,412201.36858158105,57941.020571128334,-23509.010306627937,2.37236337532192e-06,0.0,0.0,0.0,2.37236337532192e-06,0.0,23.49574362708786,3.2961270220931427,-0.0007970327305324306,0.0
5832,9.655172413793103,4.137931034482759,4.285714285714286,0,111633.163837914,306234.01143368974,297196.75336008496,190356.91058918944,-17021.860917218917,7.4422109225276e-07,0.0,0.0,0.0,7.4422109225276e-07,0.0,23.93856382083624,3.5950277778096655,-0.0005703454152654817,0.0
5833,9.655172413793103,4.137931034482759,4.642857142857143,0,460906.77960411407,582291.1581005331,339739.0396764568,50757.360544621566,12909.429514122852,3.072711864027427e-06,0.0,0.0,0.0,3.072711864027427e-06,0.0,23.857704640757472,3.8969622073354526,0.0004309946357446226,0.0
5834,9.655172413793103,4.137931034482759,5.0,0,406857.90060795564,632801.486090073,199630.06229461022,258718.9821857367,40303.52861290522,2.7123860040530375e-06,0.0,0.0,0.0,2.7123860040530375e-06,0.0,22.780542034643204,4.200101651522598,0.00134409680296821,0.0
5835,10.0,4.137931034482759,0.0,0,332564.5294047667,586828.464159708,492414.8148522153,217265.1391270407,56147.264921986534,2.2170968626984445e-06,0.0,0.0,0.0,2.2170968626984445e-06,0.0,23.448711361921983,-0.04990490142894272,0.00187247523664433,0.0
5836,10.0,4.137931034482759,0.35714285714285715,0,279268.2694334569,418419.10929419834,237565.20626677026,96778.69443510058,-50253.51241262145,1.8617884628897126e-06,0.0,0.0,0.0,1.8617884628897126e-06,0.0,23.565441373509294,0.25407066371235354,-0.0016777654081050462,0.0
5837,10.0,4.137931034482759,0.7142857142857143,0,46717.1397528304,346062.83102122153,292131.96391778486,318054.6478403611,-4343.833189370733,3.114475983522027e-07,0.0,0.0,0.0,3.114475983522027e-07,0.0,24.324892622768726,0.559173562409212,-0.00014554726749820086,0.0
5838,10.0,4.137931034482759,1.0714285714285714,0,135441.8574125054,364781.53688931814,333690.37653847615,216497.4862150319,10705.323446733219,9.029457160833693e-07,0.0,0.0,0.0,9.029457160833693e-07,0.0,23.421194761247598,0.8671145695469745,0.00036294565643952474,0.0
5839,10.0,4.137931034482759,1.4285714285714286,0,121879.36971418388,357320.9892785566,365541.38280596875,239759.90919510543,24268.357629438666,8.125291314278925e-07,0.0,0.0,0.0,8.125291314278925e-07,0.0,23.617513941291563,1.1799158289581873,0.0008544333133663334,0.0
5840,10.0,4.137931034482759,1.7857142857142858,0,418177.17380970967,755161.719994664,438828.2466297007,281048.78707440564,148108.40315985202,2.7878478253980644e-06,0.0,0.0,0.0,2.7878478253980644e-06,0.0,23.535643179610684,1.4974328873660738,0.005849911417454075,0.0
5841,10.0,4.137931034482759,2.142857142857143,0,923806.5769200337,1510588.0267477375,1119238.6334594905,455522.3650356766,525014.8638351278,6.158710512800224e-06,0.0,0.0,0.0,6.158710512800224e-06,0.0,24.23984955390533,1.8147916191900126,0.028143471872269482,0.0
5842,10.0,4.137931034482759,2.5,0,822355.6422029679,1307232.2806048938,1197436.1383892507,435494.31843580847,779696.5223628081,5.482370948019786e-06,0.0,0.0,0.0,5.482370948019786e-06,0.0,22.986076277354485,2.124262279415303,0.07796965223628081,0.0
5843,10.0,4.137931034482759,2.857142857142857,0,810310.0018166464,1212536.478169689,874026.6754080518,287860.7443254005,563009.5358401024,5.402066678777643e-06,0.0,0.0,0.0,5.402066678777643e-06,0.0,23.195762485422794,2.42193447633287,0.03018017989050933,0.0
5844,10.0,4.137931034482759,3.2142857142857144,0,495877.22402395046,984054.6394358682,478544.86672435456,498406.8086280209,156056.6182244401,3.30584816015967e-06,0.0,0.0,0.0,3.30584816015967e-06,0.0,23.167013913534987,2.7117186016517882,0.006163846029283838,0.0
5845,10.0,4.137931034482759,3.5714285714285716,0,331104.57027986075,495199.26944627677,491791.3295956118,162403.8832629991,54632.61065274564,2.2073638018657385e-06,0.0,0.0,0.0,2.2073638018657385e-06,0.0,23.604705365955525,3.001344400386759,0.001923489147912232,0.0
5846,10.0,4.137931034482759,3.928571428571429,0,460682.016118064,652319.5208970504,281448.0155928079,136628.31425570569,-24217.886009560985,3.0712134407870935e-06,0.0,0.0,0.0,3.0712134407870935e-06,0.0,22.855527302091673,3.2956859981184037,-0.0008210659471479992,0.0
5847,10.0,4.137931034482759,4.285714285714286,0,403270.7646383576,629251.9876058658,456308.79068966524,168353.76403637097,32084.821149652078,2.6884717642557174e-06,0.0,0.0,0.0,2.6884717642557174e-06,0.0,24.33974645387636,3.594887848123498,0.0010750546448071226,0.0
5848,10.0,4.137931034482759,4.642857142857143,0,122062.82422991325,436780.1370755075,323956.7951112943,307207.66244826344,53985.11428163221,8.137521615327551e-07,0.0,0.0,0.0,8.137521615327551e-07,0.0,23.819664954510188,3.8969278065694968,0.0018023487900832172,0.0
5849,10.0,4.137931034482759,5.0,0,131779.16582530655,396653.73980611673,424217.08683369734,280836.2429094005,-23043.75183186244,8.785277721687103e-07,0.0,0.0,0.0,8.785277721687103e-07,0.0,23.90933529980071,4.200095098571057,-0.0007684943286995857,0.0
5850,0.0,4.482758620689656,0.0,0,318737.72953579214,510988.87195001426,303708.5896103307,143967.06162964564,5899.803396369251,2.124918196905281e-06,0.0,0.0,0.0,2.124918196905281e-06,0.0,24.614956451315607,-0.0499039923898561,0.00019675465538919923,0.0
5851,0.0,4.482758620689656,0.35714285714285715,0,115579.03232667907,417366.022248755,320396.4726518923,289469.70829002454,70185.48490072656,7.705268821778605e-07,0.0,0.0,0.0,7.705268821778605e-07,0.0,23.39653569682358,0.2540754358582593,0.002343214893133386,0.0
5852,0.0,4.482758620689656,0.7142857142857143,0,207569.18282327495,345889.96200058167,425263.22184796224,189719.80783492187,17847.313515768103,1.3837945521551664e-06,0.0,0.0,0.0,1.3837945521551664e-06,0.0,24.001264101993986,0.5591929737467328,0.000598003560716856,0.0
5853,0.0,4.482758620689656,1.0714285714285714,0,450396.41801282787,582383.0956214071,527928.6362228221,107235.1505633674,-3775.6063770639075,3.002642786752186e-06,0.0,0.0,0.0,3.002642786752186e-06,0.0,23.869151341308974,0.8671757493113467,-0.0001280054677281966,0.0
5854,0.0,4.482758620689656,1.4285714285714286,0,456268.9846392687,669809.409376195,545244.1077836414,164193.92585362855,85514.3403542445,3.0417932309284583e-06,0.0,0.0,0.0,3.0417932309284583e-06,0.0,24.35244614803266,1.1800652358841561,0.003010764151611998,0.0
5855,0.0,4.482758620689656,1.7857142857142858,0,238866.47100611703,795738.052570369,675597.8544048703,520651.8132574449,44981.9815333316,1.5924431400407802e-06,0.0,0.0,0.0,1.5924431400407802e-06,0.0,23.933100924622508,1.4977155993718982,0.001776675743830279,0.0
5856,0.0,4.482758620689656,2.142857142857143,0,79803.37747781278,854608.9883851868,935138.3205482214,933666.0384215219,237311.15050234646,5.320225165187519e-07,0.0,0.0,0.0,5.320225165187519e-07,0.0,23.337627769981218,1.8152061228454521,0.012721086866668315,0.0
5857,0.0,4.482758620689656,2.5,0,338324.54720345576,1014520.9408298893,805339.9739728584,624192.830251935,671441.33356187,2.2554969813563715e-06,0.0,0.0,0.0,2.2554969813563715e-06,0.0,23.808950850228065,2.1247331733202994,0.067144133356187,0.0
5858,0.0,4.482758620689656,2.857142857142857,0,737397.9668605283,1167922.423996111,867894.0514585741,327804.6271844049,561137.8134255613,4.915986445736856e-06,0.0,0.0,0.0,4.915986445736856e-06,0.0,23.278283569984396,2.422348979988309,0.03007984603188,0.0
5859,0.0,4.482758620689656,3.2142857142857144,0,362926.9469161065,694581.6699751724,399288.24967031804,289413.4738427558,121475.82574664272,2.41951297944071e-06,0.0,0.0,0.0,2.41951297944071e-06,0.0,23.372861695416344,2.7120013136576127,0.004797991233576249,0.0
5860,0.0,4.482758620689656,3.5714285714285716,0,334532.3474668171,501987.6461670951,417607.5465783551,133344.0918782795,10441.385435085998,2.230215649778781e-06,0.0,0.0,0.0,2.230215649778781e-06,0.0,23.60434800804047,3.0014938073127277,0.00036761727718291663,0.0
5861,0.0,4.482758620689656,3.928571428571429,0,373121.4341406762,558343.6225584052,365313.1217029785,128250.75909315249,49489.95199554785,2.487476227604508e-06,0.0,0.0,0.0,2.487476227604508e-06,0.0,23.52300105631708,3.295747177882776,0.0016778720609012447,0.0
5862,0.0,4.482758620689656,4.285714285714286,0,389383.1061755782,515956.2028968928,138515.90060423798,115638.98884830388,7514.484385212609,2.5958873745038547e-06,0.0,0.0,0.0,2.5958873745038547e-06,0.0,23.173677076064738,3.5949072594610185,0.00025178514488122716,0.0
5863,0.0,4.482758620689656,4.642857142857143,0,350607.12766666606,572172.8772331178,317454.5244947658,172298.96996969232,-9972.731809381388,2.337380851111107e-06,0.0,0.0,0.0,2.337380851111107e-06,0.0,22.49063482816981,3.8969325787154023,-0.0003329499501787387,0.0
5864,0.0,4.482758620689656,5.0,0,165323.38210720354,359603.5306278093,351127.5976573295,190205.21904855364,37451.24121267991,1.1021558807146902e-06,0.0,0.0,0.0,1.1021558807146902e-06,0.0,23.778317370186556,4.200096007610144,0.001248974849438767,0.0
5865,0.3448275862068966,4.482758620689656,0.0,0,194301.11172960734,371656.4345782358,272651.5880367474,147793.88888744506,-15244.573536603077,1.2953407448640489e-06,0.0,0.0,0.0,1.2953407448640489e-06,0.0,23.845581230722008,-0.04989737358135164,-0.0005083967398973846,0.0
5866,0.3448275862068966,4.482758620689656,0.35714285714285715,0,275252.7145830526,459711.0490657448,307968.9731356113,141983.00028716118,19567.016350018774,1.8350180972203507e-06,0.0,0.0,0.0,1.8350180972203507e-06,0.0,23.848354668427334,0.25411018235086946,0.0006532650474724271,0.0
5867,0.3448275862068966,4.482758620689656,0.7142857142857143,0,242950.93207494688,436281.5662104509,172834.66592197033,221059.89187923179,-31815.439797706735,1.619672880499646e-06,0.0,0.0,0.0,1.619672880499646e-06,0.0,24.624212480548756,0.559334309722001,-0.0010660285800432737,0.0
5868,0.3448275862068966,4.482758620689656,1.0714285714285714,0,360020.98353565444,538940.8947108436,224749.33217124338,146095.55329792606,-43237.2887856032,2.4001398902376963e-06,0.0,0.0,0.0,2.4001398902376963e-06,0.0,22.907892349545786,0.867621205563652,-0.0014658862237128187,0.0
5869,0.3448275862068966,4.482758620689656,1.4285714285714286,0,310160.95110979816,519705.69818952755,434797.019595195,175933.08394399734,-35475.87526268761,2.067739674065321e-06,0.0,0.0,0.0,2.067739674065321e-06,0.0,24.457287750930494,1.1811530833120378,-0.0012490243513017668,0.0
5870,0.3448275862068966,4.482758620689656,1.7857142857142858,0,608552.9122644946,940535.59458849,480776.83969344414,250435.54996204135,70546.08148025324,4.0570194150966305e-06,0.0,0.0,0.0,4.0570194150966305e-06,0.0,24.931447715056905,1.4997740550048815,0.002786393740688489,0.0
5871,0.3448275862068966,4.482758620689656,2.142857142857143,0,379744.8785577573,1127316.8758833627,781362.1782297731,721009.9679145555,317810.5473676162,2.531632523718382e-06,0.0,0.0,0.0,2.531632523718382e-06,0.0,24.572065396459717,1.8182241672399355,0.017036264716802155,0.0
5872,0.3448275862068966,4.482758620689656,2.5,0,964924.9669585745,1451440.4748144941,707139.6106949924,361242.44014525873,616536.9030459181,6.4328331130571635e-06,0.0,0.0,0.0,6.4328331130571635e-06,0.0,23.520237968122885,2.128161801009634,0.06165369030459181,0.0
5873,0.3448275862068966,4.482758620689656,2.857142857142857,0,367350.5118647865,951599.9242216238,716168.2776139409,528310.2908505304,368123.5902214519,2.44900341243191e-06,0.0,0.0,0.0,2.44900341243191e-06,0.0,23.92615302712324,2.4253670243827923,0.019733300179801693,0.0
5874,0.3448275862068966,4.482758620689656,3.2142857142857144,0,520495.588326487,688674.1336290011,164534.49694468267,171900.78486439402,67376.50918345338,3.4699705888432466e-06,0.0,0.0,0.0,3.4699705888432466e-06,0.0,23.318769857436944,2.714059769290596,0.0026612035639536568,0.0
5875,0.3448275862068966,4.482758620689656,3.5714285714285716,0,296398.6066266589,566724.5985090173,416683.3085618365,225306.05096586008,-68329.32329918523,1.9759907108443925e-06,0.0,0.0,0.0,1.9759907108443925e-06,0.0,23.371107313200582,3.0025816547406095,-0.002405719043623334,0.0
5876,0.3448275862068966,4.482758620689656,3.928571428571429,0,296715.79073640436,545590.452978324,437920.3147623409,210071.84428247684,-103789.34412532939,1.978105271576029e-06,0.0,0.0,0.0,1.978105271576029e-06,0.0,24.575504817058874,3.2961926341350813,-0.003518799952419051,0.0
5877,0.3448275862068966,4.482758620689656,4.285714285714286,0,242032.00742757955,458796.71931651584,194993.15002986754,246987.17382893874,16020.296752966628,1.6135467161838637e-06,0.0,0.0,0.0,1.6135467161838637e-06,0.0,24.06812374714081,3.5950485954362867,0.0005367863624713393,0.0
5878,0.3448275862068966,4.482758620689656,4.642857142857143,0,235074.00683322235,392486.0995098918,204325.63212823056,128975.88743665698,5556.721170112487,1.5671600455548157e-06,0.0,0.0,0.0,1.5671600455548157e-06,0.0,24.103298862045143,3.8969673252080126,0.00018551687462463288,0.0
5879,0.3448275862068966,4.482758620689656,5.0,0,380342.5202727439,508970.3890861937,314518.7081846374,70713.99197906235,-54678.719152983525,2.5356168018182925e-06,0.0,0.0,0.0,2.5356168018182925e-06,0.0,23.16655459655897,4.200102626418649,-0.0018235001781057236,0.0
5880,0.6896551724137931,4.482758620689656,0.0,0,233250.7211254796,200479.63081872612,355111.789348667,86817.77793750673,15574.11821122143,1.5550048075031974e-06,0.0,0.0,0.0,1.5550048075031974e-06,0.0,23.022989375679895,-0.04989076078145035,0.0005193868432167227,0.0
5881,0.6896551724137931,4.482758620689656,0.35714285714285715,0,41235.358867225885,255486.33793940023,249783.37658704226,211696.34245419284,15512.044076994332,2.7490239244817255e-07,0.0,0.0,0.0,2.7490239244817255e-07,0.0,24.29174300394321,0.25414489730035744,0.000517885610615456,0.0
5882,0.6896551724137931,4.482758620689656,0.7142857142857143,0,211750.11217692806,407017.7566702615,162665.8543822559,292406.25481991837,-10819.863234725359,1.4116674145128538e-06,0.0,0.0,0.0,1.4116674145128538e-06,0.0,23.979943964212925,0.5594755173914288,-0.00036253729364470676,0.0
5883,0.6896551724137931,4.482758620689656,1.0714285714285714,0,146939.43602283095,370066.6542891847,242920.75892287007,209197.05287461044,72542.10004151816,9.795962401522063e-07,0.0,0.0,0.0,9.795962401522063e-07,0.0,23.624645776976887,0.8680662574274864,0.0024594156589546907,0.0
5884,0.6896551724137931,4.482758620689656,1.4285714285714286,0,366535.03119418945,480780.85910151084,211855.9422700927,63285.768427723524,59820.27562032822,2.4435668746279298e-06,0.0,0.0,0.0,2.4435668746279298e-06,0.0,24.64677721902434,1.182239943184002,0.0021061349550396654,0.0
5885,0.6896551724137931,4.482758620689656,1.7857142857142858,0,276277.04673174064,622228.3234952423,347844.0502551944,344096.627135199,40194.37502763259,1.8418469782116043e-06,0.0,0.0,0.0,1.8418469782116043e-06,0.0,24.079961061872535,1.5018306419566607,0.00158757726351152,0.0
5886,0.6896551724137931,4.482758620689656,2.142857142857143,0,712050.6701921849,1014098.9635796894,581771.7110635666,192265.44623405288,308655.0785370594,4.747004467947899e-06,0.0,0.0,0.0,4.747004467947899e-06,0.0,23.363006531650257,1.8212394718314613,0.016545484936534578,0.0
5887,0.6896551724137931,4.482758620689656,2.5,0,476023.19720288954,896489.6846557041,550598.6101095101,353587.9233678995,461794.3789948535,3.173487981352597e-06,0.0,0.0,0.0,3.173487981352597e-06,0.0,22.82374265816131,2.1315873161654686,0.04617943789948535,0.0
5888,0.6896551724137931,4.482758620689656,2.857142857142857,0,573417.6262468889,1014015.2994132129,495512.4560906466,398149.4147944841,454750.36672873923,3.8227841749792595e-06,0.0,0.0,0.0,3.8227841749792595e-06,0.0,24.096637433177147,2.428382328974318,0.024376936800314254,0.0
5889,0.6896551724137931,4.482758620689656,3.2142857142857144,0,394166.6429251013,736491.7782980904,439177.9864443002,289387.6939525655,79872.45076118925,2.627777619500675e-06,0.0,0.0,0.0,2.627777619500675e-06,0.0,23.56755100884274,2.716116356242375,0.003154761996479189,0.0
5890,0.6896551724137931,4.482758620689656,3.5714285714285716,0,310809.7492418919,533532.1345337731,318635.9396331175,177151.47736752077,40687.26467680379,2.072064994945946e-06,0.0,0.0,0.0,2.072064994945946e-06,0.0,23.737574617106766,3.0036685146125737,0.001432505441878085,0.0
5891,0.6896551724137931,4.482758620689656,3.928571428571429,0,391800.82305138855,517635.9161164406,153220.7917172982,103245.02597187311,-78511.71750482179,2.612005487009257e-06,0.0,0.0,0.0,2.612005487009257e-06,0.0,23.70086154680263,3.296637685998916,-0.0026618053148760863,0.0
5892,0.6896551724137931,4.482758620689656,4.285714285714286,0,136735.71812443176,375673.811478528,279126.82960481284,219207.5905210658,27855.08427683342,9.115714541628784e-07,0.0,0.0,0.0,9.115714541628784e-07,0.0,24.531885318044168,3.595189803105715,0.0009333303618439631,0.0
5893,0.6896551724137931,4.482758620689656,4.642857142857143,0,235797.2977003102,376607.19540285337,222659.45017831144,105145.70259850344,-18196.755358275266,1.5719819846687347e-06,0.0,0.0,0.0,1.5719819846687347e-06,0.0,24.242589995493663,3.8970020401575005,-0.0006075174692107021,0.0
5894,0.6896551724137931,4.482758620689656,5.0,0,62543.06243724558,248229.27445393484,301306.9947251198,232357.0350147747,20858.30231439884,4.169537495816372e-07,0.0,0.0,0.0,4.169537495816372e-07,0.0,23.777796182752677,4.20010923921855,0.0006956109904270488,0.0
5895,1.0344827586206897,4.482758620689656,0.0,0,240687.24095278067,287769.806235416,275657.0480516687,41254.88856703753,16782.995934912622,1.604581606351871e-06,0.0,0.0,0.0,1.604581606351871e-06,0.0,23.795805638537573,-0.04988415553420404,0.000559702139160129,0.0
5896,1.0344827586206897,4.482758620689656,0.35714285714285715,0,148918.47216114722,309618.93928161287,190364.39538419628,142704.77777656255,-664.8783097450745,9.92789814407648e-07,0.0,0.0,0.0,9.92789814407648e-07,0.0,24.006172806865962,0.2541795726009765,-2.2197648982829537e-05,0.0
5897,1.0344827586206897,4.482758620689656,0.7142857142857143,0,298734.53932213463,390951.96476383635,265842.8386162687,50003.607039467664,-22525.280976249796,1.9915635954808973e-06,0.0,0.0,0.0,1.9915635954808973e-06,0.0,24.525893683291212,0.5596165637838144,-0.000754746545918192,0.0
5898,1.0344827586206897,4.482758620689656,1.0714285714285714,0,185976.34190957682,292184.18839023716,177284.01400575115,77617.38599913682,13489.826888832293,1.2398422793971788e-06,0.0,0.0,0.0,1.2398422793971788e-06,0.0,23.91307968783273,0.8685108009857277,0.0004573494766210775,0.0
5899,1.0344827586206897,4.482758620689656,1.4285714285714286,0,302858.9753662166,448425.8192390659,373183.6723641642,115038.7513733908,-27472.264166484252,2.0190598357747776e-06,0.0,0.0,0.0,2.0190598357747776e-06,0.0,23.58903326721213,1.1833255617243443,-0.0009672355276720583,0.0
5900,1.0344827586206897,4.482758620689656,1.7857142857142858,0,223497.60584759718,553930.4683335788,299315.2307503786,390160.6717073265,116581.51557186096,1.4899840389839813e-06,0.0,0.0,0.0,1.4899840389839813e-06,0.0,23.278634233924073,1.5038848800256797,0.004604678225258174,0.0
5901,1.0344827586206897,4.482758620689656,2.142857142857143,0,218211.65426275885,791878.4771396706,632597.105953535,543156.7173517416,250392.13166679977,1.4547443617517258e-06,0.0,0.0,0.0,1.4547443617517258e-06,0.0,23.842987150025284,1.824251332563262,0.01342229411016283,0.0
5902,1.0344827586206897,4.482758620689656,2.5,0,422845.99193875777,1014053.0342602696,639932.9110631844,555286.6367714495,559560.6576517128,2.8189732795917183e-06,0.0,0.0,0.0,2.8189732795917183e-06,0.0,23.291395185731606,2.1350089189491617,0.05595606576517127,0.0
5903,1.0344827586206897,4.482758620689656,2.857142857142857,0,391225.6449361395,756742.959412142,407710.20793926757,333852.653773321,248410.03090037615,2.6081709662409303e-06,0.0,0.0,0.0,2.6081709662409303e-06,0.0,24.065994548083797,2.4313941897061193,0.013316043409448641,0.0
5904,1.0344827586206897,4.482758620689656,3.2142857142857144,0,255178.20233120318,506563.4080742549,487718.45406253415,242485.1521702777,67163.88715115514,1.7011880155413546e-06,0.0,0.0,0.0,1.7011880155413546e-06,0.0,24.1265195800327,2.718170594311394,0.00265280552557226,0.0
5905,1.0344827586206897,4.482758620689656,3.5714285714285716,0,30617.547555986355,254929.67540372384,223261.19644736542,252706.6371504953,-35048.06932464899,2.041169837065757e-07,0.0,0.0,0.0,2.041169837065757e-07,0.0,24.500124616649718,3.004754133152916,-0.0012339622836209806,0.0
5906,1.0344827586206897,4.482758620689656,3.928571428571429,0,174445.28811209192,316352.92748557444,119824.69545010422,179831.14486008554,-26719.814348233333,1.162968587413946e-06,0.0,0.0,0.0,1.162968587413946e-06,0.0,23.80475807130993,3.297082229557157,-0.0009058895424146312,0.0
5907,1.0344827586206897,4.482758620689656,4.285714285714286,0,221241.07407903494,292069.7524800036,39932.28585362138,130397.13873128219,74137.02672429202,1.474940493860233e-06,0.0,0.0,0.0,1.474940493860233e-06,0.0,24.430384946171788,3.5953308494981,0.002484082880200321,0.0
5908,1.0344827586206897,4.482758620689656,4.642857142857143,0,103793.61601140792,288820.6603838393,169076.29584811255,224580.40117356292,27188.52963293268,6.919574400760529e-07,0.0,0.0,0.0,6.919574400760529e-07,0.0,24.724728210079032,3.89703671545812,0.0009077171390694023,0.0
5909,1.0344827586206897,4.482758620689656,5.0,0,153168.75957336408,348837.7766573781,314000.53730629064,181251.10453711732,11895.969979388297,1.021125063822427e-06,0.0,0.0,0.0,1.021125063822427e-06,0.0,23.960547493917264,4.200115844465796,0.00039672296118463976,0.0
5910,1.3793103448275863,4.482758620689656,0.0,0,180229.90200160543,332560.8420181707,279614.8475560405,131788.22106886472,15107.465377494489,1.201532680010703e-06,0.0,0.0,0.0,1.201532680010703e-06,0.0,25.07260872133695,-0.049877559959333934,0.0005038242708193372,0.0
5911,1.3793103448275863,4.482758620689656,0.35714285714285715,0,191243.93383037095,307559.7534432274,163496.82505908102,90584.69082075251,8983.148868277995,1.2749595588691398e-06,0.0,0.0,0.0,1.2749595588691398e-06,0.0,24.678212801619278,0.25421419712491156,0.0002999117017593678,0.0
5912,1.3793103448275863,4.482758620689656,0.7142857142857143,0,234752.44878134626,353548.6338429848,184312.87238993347,85550.94236049552,-2616.8574419068086,1.5650163252089752e-06,0.0,0.0,0.0,1.5650163252089752e-06,0.0,23.724783342797316,0.5597574036352913,-8.768210782906316e-05,0.0
5913,1.3793103448275863,4.482758620689656,1.0714285714285714,0,208856.79805412743,338738.60656612145,184394.17035801164,101084.2762123734,23181.63857417201,1.3923786536941828e-06,0.0,0.0,0.0,1.3923786536941828e-06,0.0,25.441429086622627,0.8689546935777942,0.0007859337526335221,0.0
5914,1.3793103448275863,4.482758620689656,1.4285714285714286,0,169894.53977775364,332181.93447298644,152965.63149854494,173470.29387396606,-24756.31734428581,1.1326302651850243e-06,0.0,0.0,0.0,1.1326302651850243e-06,0.0,23.94010136785089,1.1844095905420704,-0.0008716132578154947,0.0
5915,1.3793103448275863,4.482758620689656,1.7857142857142858,0,188122.45174764976,458874.0314081797,258018.01256202438,286803.146404194,133951.2932907273,1.254149678317665e-06,0.0,0.0,0.0,1.254149678317665e-06,0.0,24.678473879212913,1.5059361099766568,0.005290740992990314,0.0
5916,1.3793103448275863,4.482758620689656,2.142857142857143,0,659409.2667008513,796097.9635603286,671476.2602287434,83269.8912884977,291593.5722168765,4.396061778005675e-06,0.0,0.0,0.0,4.396061778005675e-06,0.0,24.297682020947647,1.8272587828848277,0.015630901262249492,0.0
5917,1.3793103448275863,4.482758620689656,2.5,0,868632.9360928499,982712.5442739166,705926.6667386786,9415.20309661374,579329.6596089397,5.790886240619e-06,0.0,0.0,0.0,5.790886240619e-06,0.0,24.139857100032685,2.1384255113179376,0.057932965960893965,0.0
5918,1.3793103448275863,4.482758620689656,2.857142857142857,0,694219.4675305908,958682.7108116054,565377.1616563178,157113.63801477806,400459.2714280978,4.628129783537272e-06,0.0,0.0,0.0,4.628129783537272e-06,0.0,24.647312297107852,2.4344016400276844,0.021466657456321953,0.0
5919,1.3793103448275863,4.482758620689656,3.2142857142857144,0,439036.0031501866,626157.9339733634,218947.219720425,161043.13588863827,78106.97773683116,2.926906687667911e-06,0.0,0.0,0.0,2.926906687667911e-06,0.0,24.073052491591614,2.7202218242623712,0.003085030228516957,0.0
5920,1.3793103448275863,4.482758620689656,3.5714285714285716,0,78838.27306920159,314784.2315118522,254219.5204349309,225642.63600496532,-24173.97071699758,5.255884871280106e-07,0.0,0.0,0.0,5.255884871280106e-07,0.0,23.96415340003784,3.005838161970642,-0.0008511101662639671,0.0
5921,1.3793103448275863,4.482758620689656,3.928571428571429,0,210808.57921497035,297573.51630386745,72671.39952218179,104471.75753806077,37240.88153261771,1.4053905280998024e-06,0.0,0.0,0.0,1.4053905280998024e-06,0.0,23.983996625430578,3.2975261221492236,0.0012625883058551685,0.0
5922,1.3793103448275863,4.482758620689656,4.285714285714286,0,175897.96862169495,334418.9741223922,256094.35039472074,132963.6083293208,50016.15542374082,1.172653124144633e-06,0.0,0.0,0.0,1.172653124144633e-06,0.0,23.439915831015405,3.595471689349577,0.001675873459069308,0.0
5923,1.3793103448275863,4.482758620689656,4.642857142857143,0,187983.56382906542,356690.0846017855,220937.19351277084,142129.6771166253,-57210.36137598809,1.253223758860436e-06,0.0,0.0,0.0,1.253223758860436e-06,0.0,24.549887087543357,3.897071339982055,-0.0019100269950029305,0.0
5924,1.3793103448275863,4.482758620689656,5.0,0,263929.6840583223,349036.4285414753,126636.84722059508,57385.26548850199,-2993.5939322968293,1.7595312270554819e-06,0.0,0.0,0.0,1.7595312270554819e-06,0.0,23.69143030505995,4.2001224400406665,-9.983443565030223e-05,0.0
5925,1.7241379310344829,4.482758620689656,0.0,0,85733.85690412707,268839.15002136474,278659.1278416819,188438.1182696903,7936.393583728108,5.715590460275138e-07,0.0,0.0,0.0,5.715590460275138e-07,0.0,24.157512223388956,-0.049870977046245824,0.00026467363057562887,0.0
5926,1.7241379310344829,4.482758620689656,0.35714285714285715,0,122525.7602977394,204059.92415648772,92815.4332408354,72733.91811025285,-7192.083457470849,8.168384019849293e-07,0.0,0.0,0.0,8.168384019849293e-07,0.0,24.067253455009652,0.25424875517879925,-0.00024011513340744172,0.0
5927,1.7241379310344829,4.482758620689656,0.7142857142857143,0,24952.222648445753,218651.42257801205,220249.47939891188,194536.6380346909,-34040.51177072607,1.6634815098963835e-07,0.0,0.0,0.0,1.6634815098963835e-07,0.0,24.36561880459186,0.5598979731110191,-0.0011405832720724834,0.0
5928,1.7241379310344829,4.482758620689656,1.0714285714285714,0,167928.82126704633,296859.25219594693,228313.85029811005,105499.83977486861,-24678.373797782366,1.1195254751136422e-06,0.0,0.0,0.0,1.1195254751136422e-06,0.0,24.060103828003378,0.8693977340119609,-0.0008366779969295866,0.0
5929,1.7241379310344829,4.482758620689656,1.4285714285714286,0,223781.05832471116,349535.0580274878,147890.50226278734,108775.05502153035,-56380.73638269063,1.4918737221647412e-06,0.0,0.0,0.0,1.4918737221647412e-06,0.0,23.937199404487878,1.185491538307449,-0.0019850366527918357,0.0
5930,1.7241379310344829,4.482758620689656,1.7857142857142858,0,264147.1514028189,365653.33535017335,324491.771777294,83341.75320313303,94122.72708861047,1.760981009352126e-06,0.0,0.0,0.0,1.760981009352126e-06,0.0,24.283450617755882,1.5079834021015954,0.0037176122629808423,0.0
5931,1.7241379310344829,4.482758620689656,2.142857142857143,0,420506.0478532082,700506.7068097703,258726.64928556178,305122.7759721068,357238.0124645113,2.8033736523547216e-06,0.0,0.0,0.0,2.8033736523547216e-06,0.0,24.245325694688827,1.8302604596868617,0.01914977774545007,0.0
5932,1.7241379310344829,4.482758620689656,2.5,0,727383.5586041079,920083.9657182619,106795.69361941314,695122.1930876006,582453.8536782601,4.8492237240273864e-06,0.0,0.0,0.0,4.8492237240273864e-06,0.0,23.55471531828067,2.1418355447212565,0.05824538536782601,0.0
5933,1.7241379310344829,4.482758620689656,2.857142857142857,0,198020.4472897026,534454.2245164159,337733.27483640774,335159.3724179144,259816.43800455378,1.320136315264684e-06,0.0,0.0,0.0,1.320136315264684e-06,0.0,24.035345077731055,2.4374033168297187,0.013927484950655915,0.0
5934,1.7241379310344829,4.482758620689656,3.2142857142857144,0,334393.94972774404,572194.0857520325,270245.84950751084,212797.89445579637,62106.47226511295,2.2292929981849604e-06,0.0,0.0,0.0,2.2292929981849604e-06,0.0,24.73004028531131,2.72226911638731,0.0024530502891814587,0.0
5935,1.7241379310344829,4.482758620689656,3.5714285714285716,0,201386.72118934878,302442.28630878933,271153.43654143583,87242.43708998334,39114.050685954935,1.3425781412623251e-06,0.0,0.0,0.0,1.3425781412623251e-06,0.0,25.328429450042453,3.0069201097360208,0.001377116178897855,0.0
5936,1.7241379310344829,4.482758620689656,3.928571428571429,0,185136.06451650528,352315.46893712704,200851.8311642274,145933.5937586515,-6375.541422640095,1.2342404301100352e-06,0.0,0.0,0.0,1.2342404301100352e-06,0.0,23.25075688247499,3.29796916258339,-0.0002161518125361837,0.0
5937,1.7241379310344829,4.482758620689656,4.285714285714286,0,110351.58105289297,244089.3393809691,196381.23776103347,117910.19770497942,-25934.51106090271,7.356772070192865e-07,0.0,0.0,0.0,7.356772070192865e-07,0.0,24.523127904342285,3.5956122588253048,-0.0008689784009323515,0.0
5938,1.7241379310344829,4.482758620689656,4.642857142857143,0,99409.77052958935,216447.2519124071,135400.42770589088,105525.95851095825,-15544.697840697223,6.627318035305957e-07,0.0,0.0,0.0,6.627318035305957e-07,0.0,24.16688894077831,3.8971058980359423,-0.0005189757902378338,0.0
5939,1.7241379310344829,4.482758620689656,5.0,0,101067.00190176617,247366.3636783141,161756.3766766663,135875.58949768083,4780.487592069874,6.737800126784411e-07,0.0,0.0,0.0,6.737800126784411e-07,0.0,23.822743322650755,4.200129022953754,0.0001594261919556315,0.0
5940,2.0689655172413794,4.482758620689656,0.0,0,210242.93637354192,252233.04278149456,132166.56641855033,9470.159398951919,-18349.503951664956,1.4016195758236127e-06,0.0,0.0,0.0,1.4016195758236127e-06,0.0,23.935629228356817,-0.04986441114716161,-0.0006119441757659931,0.0
5941,2.0689655172413794,4.482758620689656,0.35714285714285715,0,130910.03495276926,237195.33751379844,117016.85070127016,97700.26477540343,12172.138971459894,8.72733566351795e-07,0.0,0.0,0.0,8.72733566351795e-07,0.0,23.68448359685957,0.25428322391495545,0.0004063794295865705,0.0
5942,2.0689655172413794,4.482758620689656,0.7142857142857143,0,177993.60291267486,246852.40362305945,149963.9413219016,41433.04042118137,-34957.79613945246,1.1866240194178324e-06,0.0,0.0,0.0,1.1866240194178324e-06,0.0,23.477965493267373,0.560038179275007,-0.0011713183918541615,0.0
5943,2.0689655172413794,4.482758620689656,1.0714285714285714,0,152267.11413025146,283558.48394609103,190024.35980032114,107858.10670304611,-6279.479059959364,1.0151140942016763e-06,0.0,0.0,0.0,1.0151140942016763e-06,0.0,24.35647034590606,0.8698396293768288,-0.00021289498265563217,0.0
5944,2.0689655172413794,4.482758620689656,1.4285714285714286,0,190249.72793814185,298317.72695360164,180848.26290598427,78817.16291685826,16409.922340457062,1.2683315195876123e-06,0.0,0.0,0.0,1.2683315195876123e-06,0.0,25.060193398617674,1.1865706897023987,0.0005777557975506584,0.0
5945,2.0689655172413794,4.482758620689656,1.7857142857142858,0,275138.28222162253,436633.0604483649,281109.71746800345,118953.81626909401,52473.21544229519,1.834255214810817e-06,0.0,0.0,0.0,1.834255214810817e-06,0.0,24.34962566842825,1.5100254028554159,0.0020725607431950174,0.0
5946,2.0689655172413794,4.482758620689656,2.142857142857143,0,416212.79817434476,431475.01410147117,550022.9267531111,87396.90625930867,199067.02001499402,2.774751987828965e-06,0.0,0.0,0.0,2.774751987828965e-06,0.0,24.26381691026266,1.8332543784431614,0.010671006602677524,0.0
5947,2.0689655172413794,4.482758620689656,2.5,0,360449.8512640764,831801.4249809275,462707.0620410608,480667.6032579255,501781.43873470085,2.402999008427176e-06,0.0,0.0,0.0,2.402999008427176e-06,0.0,23.87097904402282,2.1452367646523585,0.05017814387347009,0.0
5948,2.0689655172413794,4.482758620689656,2.857142857142857,0,426112.10026146146,643886.9194357544,284002.9098970198,173369.37070582467,264468.68087863876,2.8407473350764096e-06,0.0,0.0,0.0,2.8407473350764096e-06,0.0,23.722335258446044,2.4403972355860186,0.014176868873833553,0.0
5949,2.0689655172413794,4.482758620689656,3.2142857142857144,0,401225.22087361966,584989.5021910443,359602.4653969744,121750.42242006137,-45824.92432791864,2.674834805824131e-06,0.0,0.0,0.0,2.674834805824131e-06,0.0,24.203137251349442,2.7243111171411303,-0.0018099698755143076,0.0
5950,2.0689655172413794,4.482758620689656,3.5714285714285716,0,28405.548074713242,250847.93627899856,232648.8791414568,218116.41877778247,17947.221376985835,1.8937032049808828e-07,0.0,0.0,0.0,1.8937032049808828e-07,0.0,23.682326289081654,3.0079992611309705,0.0006318805772111819,0.0
5951,2.0689655172413794,4.482758620689656,3.928571428571429,0,58042.152786253464,169673.9503274175,203535.05363893302,136514.9745152709,-11051.849389226232,3.8694768524168976e-07,0.0,0.0,0.0,3.8694768524168976e-07,0.0,24.763252977303935,3.298411057948258,-0.0003746940250242993,0.0
5952,2.0689655172413794,4.482758620689656,4.285714285714286,0,261812.4932196386,289890.0759919628,212891.61626559874,-1787.3707574847854,-13540.385507051702,1.7454166214642574e-06,0.0,0.0,0.0,1.7454166214642574e-06,0.0,23.917666423033328,3.595752464989293,-0.0004536928619280406,0.0
5953,2.0689655172413794,4.482758620689656,4.642857142857143,0,89859.84639513174,275000.7058404791,203511.402643348,174127.32294421236,-21343.740798351617,5.990656426342116e-07,0.0,0.0,0.0,5.990656426342116e-07,0.0,23.78944856856914,3.8971403667720987,-0.0007125828279824056,0.0
5954,2.0689655172413794,4.482758620689656,5.0,0,21405.872268796666,205267.17421061883,181465.61763468166,187593.54601901644,-25790.448164772904,1.427058151253111e-07,0.0,0.0,0.0,1.427058151253111e-07,0.0,25.341248688142517,4.200135588852839,-0.0008600948879272295,0.0
5955,2.413793103448276,4.482758620689656,0.0,0,118047.81817422298,172105.7963067722,292184.380552505,176277.94620945933,5122.708884701492,7.869854544948198e-07,0.0,0.0,0.0,7.869854544948198e-07,0.0,24.89588048678418,-0.04985786884488096,0.00017083905234688076,0.0
5956,2.413793103448276,4.482758620689656,0.35714285714285715,0,204099.70932253555,324283.91323202266,109875.38808972492,132354.0370291508,13542.693251234918,1.3606647288169037e-06,0.0,0.0,0.0,1.3606647288169037e-06,0.0,23.653662451317672,0.2543175687759217,0.0004521367995721028,0.0
5957,2.413793103448276,4.482758620689656,0.7142857142857143,0,240564.3493771868,319184.1150108347,144988.04445872852,44701.440704728215,3814.616640365826,1.6037623291812454e-06,0.0,0.0,0.0,1.6037623291812454e-06,0.0,23.814806723256947,0.560177881560201,0.0001278149975733398,0.0
5958,2.413793103448276,4.482758620689656,1.0714285714285714,0,117302.30814302752,128814.43637419524,229033.73316064864,100013.3699727671,24502.83997954238,7.820153876201834e-07,0.0,0.0,0.0,7.820153876201834e-07,0.0,24.163207887699297,0.8702799366395967,0.0008307268234591681,0.0
5959,2.413793103448276,4.482758620689656,1.4285714285714286,0,215990.48798539385,270596.58570311737,217023.29729517386,32861.32695750413,21064.447329524002,1.4399365865692922e-06,0.0,0.0,0.0,1.4399365865692922e-06,0.0,24.1849415137641,1.1876459627977942,0.0007416309665786027,0.0
5960,2.413793103448276,4.482758620689656,1.7857142857142858,0,409895.8974834939,568765.6887912421,363398.9698002525,96781.59842461042,-40693.01161021709,2.732639316556626e-06,0.0,0.0,0.0,2.732639316556626e-06,0.0,24.04073076850383,1.5120600649812643,-0.0016072721611364244,0.0
5961,2.413793103448276,4.482758620689656,2.142857142857143,0,416261.43660583074,572048.3782177056,464037.852154607,112427.6836505335,180511.97356398948,2.7750762440388717e-06,0.0,0.0,0.0,2.7750762440388717e-06,0.0,24.943229049282284,1.836237537528638,0.009676361567167656,0.0
5962,2.413793103448276,4.482758620689656,2.5,0,496003.8092014329,670919.1737278106,725175.6033673075,204274.2031431547,517646.4208453327,3.306692061342886e-06,0.0,0.0,0.0,3.306692061342886e-06,0.0,24.384851072708592,2.1486257611365893,0.05176464208453327,0.0
5963,2.413793103448276,4.482758620689656,2.857142857142857,0,304224.43130086735,596491.4216335263,315173.3177061532,273630.2898179157,158202.30606347742,2.0281628753391156e-06,0.0,0.0,0.0,2.0281628753391156e-06,0.0,24.26586975119209,2.443380394671495,0.00848044971203679,0.0
5964,2.413793103448276,4.482758620689656,3.2142857142857144,0,249818.47045936686,331067.9954103585,413287.16396539676,132721.37403797972,-71761.96371046152,1.6654564697291123e-06,0.0,0.0,0.0,1.6654564697291123e-06,0.0,23.98503037044503,2.7263457792669787,-0.002834418047135829,0.0
5965,2.413793103448276,4.482758620689656,3.5714285714285716,0,163439.64621751066,196327.65732043807,278295.414115281,90092.36886034349,58302.958619871686,1.089597641450071e-06,0.0,0.0,0.0,1.089597641450071e-06,0.0,23.767991159217885,3.009074534226366,0.00205271369712337,0.0
5966,2.413793103448276,4.482758620689656,3.928571428571429,0,209391.45465343384,310305.29451065394,117390.1457148197,87623.35516804045,7767.736991608547,1.3959430310228923e-06,0.0,0.0,0.0,1.3959430310228923e-06,0.0,23.986269154328596,3.298851365211026,0.00026335181888682266,0.0
5967,2.413793103448276,4.482758620689656,4.285714285714286,0,42569.018023141856,157104.31037925673,205553.49112663735,174143.57131475786,-16991.936705580312,2.8379345348761236e-07,0.0,0.0,0.0,2.8379345348761236e-07,0.0,23.865362521104643,3.595892167274487,-0.0005693427553920099,0.0
5968,2.413793103448276,4.482758620689656,4.642857142857143,0,77474.9398722527,260287.9694135364,171480.57320728252,206540.76594527726,-21042.149661753687,5.164995991483513e-07,0.0,0.0,0.0,5.164995991483513e-07,0.0,23.678332247162892,3.897174711633065,-0.0007025138964374735,0.0
5969,2.413793103448276,4.482758620689656,5.0,0,190722.18366981734,291942.6975132183,143497.97729069873,76837.14066676605,15607.581061526898,1.271481224465449e-06,0.0,0.0,0.0,1.271481224465449e-06,0.0,24.851760255678272,4.200142131155119,0.0005205028077900921,0.0
5970,2.7586206896551726,4.482758620689656,0.0,0,82908.05352852779,173533.0068261317,78795.60115755722,114232.69407196378,11686.911781850855,5.527203568568519e-07,0.0,0.0,0.0,5.527203568568519e-07,0.0,24.807846651307987,-0.04985136057013025,0.0003897510045194261,0.0
5971,2.7586206896551726,4.482758620689656,0.35714285714285715,0,123713.00552748605,199340.39863429393,121743.88406499653,56672.061771037,8001.619143001469,8.247533701832403e-07,0.0,0.0,0.0,8.247533701832403e-07,0.0,24.16019726903486,0.2543517350039336,0.0002671423182668379,0.0
5972,2.7586206896551726,4.482758620689656,0.7142857142857143,0,147060.28459073053,304851.1942405224,206472.0769409202,135795.50499737985,-4627.096264867622,9.80401897271537e-07,0.0,0.0,0.0,9.80401897271537e-07,0.0,25.011100551573556,0.5603168572321192,-0.0001550384622159431,0.0
5973,2.7586206896551726,4.482758620689656,1.0714285714285714,0,179955.5729808343,279687.04235391744,218064.1817682716,77015.27476132104,-32204.676175468307,1.1997038198722285e-06,0.0,0.0,0.0,1.1997038198722285e-06,0.0,24.652118065086718,0.8707179537959276,-0.0010918443887367535,0.0
5974,2.7586206896551726,4.482758620689656,1.4285714285714286,0,159633.62003614797,257459.45836092465,193226.9916367379,75715.23527184222,2635.7102264319788,1.0642241335743198e-06,0.0,0.0,0.0,1.0642241335743198e-06,0.0,23.82148300293757,1.1887156432308708,9.279732300928246e-05,0.0
5975,2.7586206896551726,4.482758620689656,1.7857142857142858,0,173445.4268877444,521920.39177445555,363275.09198241105,336734.3027283134,89136.59282374529,1.156302845918296e-06,0.0,0.0,0.0,1.156302845918296e-06,0.0,23.63748593213167,1.5140841445134887,0.00352067243281123,0.0
5976,2.7586206896551726,4.482758620689656,2.142857142857143,0,613928.5169544179,773810.4845764731,554220.4231492392,80283.1713722963,201331.64851418982,4.09285677969612e-06,0.0,0.0,0.0,4.09285677969612e-06,0.0,24.524190967399957,1.8392051807405374,0.010792402229465477,0.0
5977,2.7586206896551726,4.482758620689656,2.5,0,749574.7659833733,772955.2395077184,536125.4231294675,-66428.50181825766,467308.95322552987,4.997165106555822e-06,0.0,0.0,0.0,4.997165106555822e-06,0.0,24.61392711314274,2.1519971309239203,0.04673089532255299,0.0
5978,2.7586206896551726,4.482758620689656,2.857142857142857,0,167578.40859968428,511154.5541849061,346310.3187173776,340969.6507521496,209891.93511956357,1.1171893906645619e-06,0.0,0.0,0.0,1.1171893906645619e-06,0.0,23.7342826944443,2.4463480378833946,0.011251277209760428,0.0
5979,2.7586206896551726,4.482758620689656,3.2142857142857144,0,226376.9704794974,385959.133256398,331640.426795243,137364.36876609136,78032.93868707902,1.5091798031966493e-06,0.0,0.0,0.0,1.5091798031966493e-06,0.0,24.122565148070272,2.728369858799203,0.0030821058712675233,0.0
5980,2.7586206896551726,4.482758620689656,3.5714285714285716,0,203854.86755978534,310545.0587827117,234212.6031209158,79539.97546024637,-25091.052992918536,1.359032450398569e-06,0.0,0.0,0.0,1.359032450398569e-06,0.0,24.816694982694326,3.010144214659442,-0.0008833985336767728,0.0
5981,2.7586206896551726,4.482758620689656,3.928571428571429,0,30409.049920765465,243215.97996984908,210992.41057240486,239184.82019493278,507.94144478293947,2.0272699947176975e-07,0.0,0.0,0.0,2.0272699947176975e-07,0.0,25.180300591494653,3.299289382367357,1.7220884733365194e-05,0.0
5982,2.7586206896551726,4.482758620689656,4.285714285714286,0,136352.97085289928,291396.4225771674,214189.60565117214,133959.2511276831,11201.925066934384,9.090198056859952e-07,0.0,0.0,0.0,9.090198056859952e-07,0.0,24.441798367427335,3.596031142946405,0.0003753389030226754,0.0
5983,2.7586206896551726,4.482758620689656,4.642857142857143,0,70460.21750182364,169725.6557969898,104559.62476014852,94956.34452291677,-16517.809513087905,4.6973478334549097e-07,0.0,0.0,0.0,4.6973478334549097e-07,0.0,24.432457665346146,3.8972088778610767,-0.0005514641283415458,0.0
5984,2.7586206896551726,4.482758620689656,5.0,0,98100.6500677757,171428.51085511438,146212.75189057522,63181.40475216432,8865.793815417068,6.540043337851713e-07,0.0,0.0,0.0,6.540043337851713e-07,0.0,24.183523252547438,4.2001486394298695,0.0002956685315950659,0.0
5985,3.1034482758620694,4.482758620689656,0.0,0,159621.27693446615,255171.39653541148,78872.06973692005,120461.4219474658,-727.7497281149177,1.0641418462297743e-06,0.0,0.0,0.0,1.0641418462297743e-06,0.0,25.1819515636545,-0.049844903834056674,-2.4269986191904684e-05,0.0
5986,3.1034482758620694,4.482758620689656,0.35714285714285715,0,202803.76061800428,222097.1360199847,209217.0231632276,13160.3084064767,-1087.573674141351,1.3520250707866952e-06,0.0,0.0,0.0,1.3520250707866952e-06,0.0,24.721012830338267,0.2543856306714265,-3.630977023571761e-05,0.0
5987,3.1034482758620694,4.482758620689656,0.7142857142857143,0,124915.76194649648,216109.61396719783,162476.33262271402,73333.70918966176,-16743.718694882496,8.327717463099766e-07,0.0,0.0,0.0,8.327717463099766e-07,0.0,24.027264691291066,0.5604547323631786,-0.0005610258031459362,0.0
5988,3.1034482758620694,4.482758620689656,1.0714285714285714,0,87978.15912358792,164554.33291432323,200137.32637307132,99941.06998042676,25552.996675149803,5.865210608239194e-07,0.0,0.0,0.0,5.865210608239194e-07,0.0,24.84359951456635,0.871152502317995,0.000866330587618943,0.0
5989,3.1034482758620694,4.482758620689656,1.4285714285714286,0,171900.21372938162,296999.3731598726,119776.20315686238,130969.1567395018,-24242.237522938856,1.1460014248625442e-06,0.0,0.0,0.0,1.1460014248625442e-06,0.0,24.1068100273882,1.1897768529222248,-0.0008535136842145425,0.0
5990,3.1034482758620694,4.482758620689656,1.7857142857142858,0,259936.20797595085,419318.37358569045,415397.1278420844,157443.72629277146,56496.76670056253,1.7329080531730057e-06,0.0,0.0,0.0,1.7329080531730057e-06,0.0,23.986118779263236,1.516092195468941,0.002231480952597627,0.0
5991,3.1034482758620694,4.482758620689656,2.142857142857143,0,495189.47900710366,709948.0142293741,289538.4128588166,164102.86223645916,183493.52809942694,3.301263193380691e-06,0.0,0.0,0.0,3.301263193380691e-06,0.0,24.24314307359873,1.8421493233457185,0.0098361880825367,0.0
5992,3.1034482758620694,4.482758620689656,2.5,0,277982.59124955605,748964.9069036511,631595.4218211928,431547.43737098254,421389.507707605,1.8532172749970402e-06,0.0,0.0,0.0,1.8532172749970402e-06,0.0,24.041220116295367,2.1553418030155322,0.0421389507707605,0.0
5993,3.1034482758620694,4.482758620689656,2.857142857142857,0,507565.17201602744,611233.9110400908,454332.0223893795,43744.36716758351,277178.55727521406,3.383767813440183e-06,0.0,0.0,0.0,3.383767813440183e-06,0.0,24.023846245963075,2.4492921804885754,0.014858183010835527,0.0
5994,3.1034482758620694,4.482758620689656,3.2142857142857144,0,331457.3830870719,523549.95905812096,280596.069225331,145959.65571568185,32399.399199645362,2.209715887247146e-06,0.0,0.0,0.0,2.209715887247146e-06,0.0,23.781384202026555,2.7303779097546554,0.0012796952181848586,0.0
5995,3.1034482758620694,4.482758620689656,3.5714285714285716,0,119281.94214789355,218186.0537278047,191105.02292493798,87691.93619901461,-87288.33022444438,7.952129476526237e-07,0.0,0.0,0.0,7.952129476526237e-07,0.0,24.1363522089847,3.0112054243507966,-0.003073222273657905,0.0
5996,3.1034482758620694,4.482758620689656,3.928571428571429,0,132518.40390983134,281885.15561720764,145715.46943252874,153347.93624333764,-34069.428005085116,8.834560260655423e-07,0.0,0.0,0.0,8.834560260655423e-07,0.0,24.22390803071786,3.2997239308894244,-0.0011550656057569273,0.0
5997,3.1034482758620694,4.482758620689656,4.285714285714286,0,139496.43993224564,164510.65602687103,236976.79287495202,76161.41827741425,-53320.27299626755,9.29976266214971e-07,0.0,0.0,0.0,9.29976266214971e-07,0.0,23.819482012844286,3.596169018077464,-0.0017865833466752176,0.0
5998,3.1034482758620694,4.482758620689656,4.642857142857143,0,74293.42890762053,205012.0911546731,173039.57764291056,120085.04557492655,1672.7379269714381,4.952895260508035e-07,0.0,0.0,0.0,4.952895260508035e-07,0.0,24.769965265651496,3.8972427735285695,5.584608310867372e-05,0.0
5999,3.1034482758620694,4.482758620689656,5.0,0,74274.56570020426,186536.50087628042,109871.65000096276,114908.6314537017,-123.4347570464248,4.95163771334695e-07,0.0,0.0,0.0,4.95163771334695e-07,0.0,23.62143225249072,4.200155096165943,-4.116469898075708e-06,0.0
6000,3.4482758620689657,4.482758620689656,0.0,0,246011.5803635115,292282.60286929936,157518.72613905126,8334.922016060764,-8862.187731707638,1.6400772024234098e-06,0.0,0.0,0.0,1.6400772024234098e-06,0.0,24.34209215722731,-0.049838530269078814,-0.000295548271018588,0.0
6001,3.4482758620689657,4.482758620689656,0.35714285714285715,0,131736.7446457624,249497.50623029855,183452.23856466258,97802.69008800382,-15837.079653201496,8.782449643050827e-07,0.0,0.0,0.0,8.782449643050827e-07,0.0,24.86800782115388,0.2544190897189657,-0.0005287372589875389,0.0
6002,3.4482758620689657,4.482758620689656,0.7142857142857143,0,226429.39632690922,252926.8713370221,223067.05190959352,13049.045632095396,5611.705803921947,1.5095293088460615e-06,0.0,0.0,0.0,1.5095293088460615e-06,0.0,25.1082172555167,0.560590831484565,0.00018802942243805514,0.0
6003,3.4482758620689657,4.482758620689656,1.0714285714285714,0,70784.06913990933,203450.97458738164,151304.27422657452,122871.42590521487,-37648.91587119522,4.7189379426606223e-07,0.0,0.0,0.0,4.7189379426606223e-07,0.0,24.259497304102293,0.8715814532941336,-0.0012764220112636746,0.0
6004,3.4482758620689657,4.482758620689656,1.4285714285714286,0,180429.73784623714,285441.6080576906,179890.78427240963,77105.41062464383,32846.59889880009,1.2028649189749143e-06,0.0,0.0,0.0,1.2028649189749143e-06,0.0,25.05828022551265,1.1908243928628246,0.0011564535498633111,0.0
6005,3.4482758620689657,4.482758620689656,1.7857142857142858,0,80770.3335041031,368545.6115697892,306511.22700315976,277215.50091119035,49084.8076789643,5.38468890027354e-07,0.0,0.0,0.0,5.38468890027354e-07,0.0,24.37261037590251,1.5180743801358676,0.0019387271129700945,0.0
6006,3.4482758620689657,4.482758620689656,2.142857142857143,0,410094.6794013092,693859.9939889923,563679.7392951071,234476.22981901027,182170.5336535835,2.733964529342061e-06,0.0,0.0,0.0,2.733964529342061e-06,0.0,25.688618473103126,1.8450555415935117,0.009765268839028469,0.0
6007,3.4482758620689657,4.482758620689656,2.5,0,372406.18933684047,607957.7463198202,323206.9456137552,186523.02256165972,405788.07668072154,2.4827079289122697e-06,0.0,0.0,0.0,2.4827079289122697e-06,0.0,23.835908307270305,2.158643391412922,0.040578807668072155,0.0
6008,3.4482758620689657,4.482758620689656,2.857142857142857,0,362817.01673830324,815831.2957151525,516240.097208089,412421.771434409,234593.0471743276,2.4187801115886883e-06,0.0,0.0,0.0,2.4187801115886883e-06,0.0,24.067056658170145,2.452198398736369,0.012575382678411191,0.0
6009,3.4482758620689657,4.482758620689656,3.2142857142857144,0,179832.16190853738,289198.67864291114,264102.9784071682,98136.79314138503,-14241.505742663474,1.1988810793902492e-06,0.0,0.0,0.0,1.1988810793902492e-06,0.0,24.655800879525724,2.732360094421582,-0.0005625038503441796,0.0
6010,3.4482758620689657,4.482758620689656,3.5714285714285716,0,71878.78774928435,254662.9079073653,192846.8004324806,175789.90060175196,24187.407127026112,4.791919183285624e-07,0.0,0.0,0.0,4.791919183285624e-07,0.0,23.949338645227762,3.012252964291396,0.0008515832315004255,0.0
6011,3.4482758620689657,4.482758620689656,3.928571428571429,0,196603.78317131998,348931.359443466,287496.57898757176,128945.9756983173,25393.82755986517,1.3106918878088e-06,0.0,0.0,0.0,1.3106918878088e-06,0.0,24.230729260028756,3.300152881865563,0.0008609342313743768,0.0
6012,3.4482758620689657,4.482758620689656,4.285714285714286,0,129133.01789931423,231540.524580432,167562.86916134716,82909.16167428026,2981.2926513404054,8.608867859954283e-07,0.0,0.0,0.0,8.608867859954283e-07,0.0,24.81593791315599,3.5963051171988507,9.989310825214306e-05,0.0
6013,3.4482758620689657,4.482758620689656,4.642857142857143,0,168999.0498987395,186323.20555738345,215121.32329676373,33573.58756219908,23777.537136904557,1.1266603326582632e-06,0.0,0.0,0.0,1.1266603326582632e-06,0.0,24.689795622572753,3.897276232576109,0.0007938376320977751,0.0
6014,3.4482758620689657,4.482758620689656,5.0,0,86569.72754477328,263828.9487497339,213270.04031227672,163869.0733325018,66980.20613341127,5.771315169651552e-07,0.0,0.0,0.0,5.771315169651552e-07,0.0,24.58142388459306,4.200161469730921,0.0022337468709189593,0.0
6015,3.793103448275862,4.482758620689656,0.0,0,111678.76362791324,238332.5929245106,122204.16568139958,131711.3248722092,-49471.95168579002,7.44525090852755e-07,0.0,0.0,0.0,7.44525090852755e-07,0.0,24.61250322025056,-0.049832302691019965,-0.0016498578260012782,0.0
6016,3.793103448275862,4.482758620689656,0.35714285714285715,0,144765.46953361903,219387.92217716537,87173.19663290014,64700.13870592939,1367.3807783849104,9.651031302241268e-07,0.0,0.0,0.0,9.651031302241268e-07,0.0,23.398953969497846,0.2544517823848519,4.565141936438592e-05,0.0
6017,3.793103448275862,4.482758620689656,0.7142857142857143,0,100554.32056736163,206346.41038364463,228378.4938696276,118634.98959612369,-35490.46221846501,6.703621371157442e-07,0.0,0.0,0.0,6.703621371157442e-07,0.0,24.708607170679954,0.5607238132467527,-0.0011891662439491653,0.0
6018,3.793103448275862,4.482758620689656,1.0714285714285714,0,276771.17746634793,423008.40384560183,131582.27448776466,163693.43327712285,42667.07205262905,1.8451411831089862e-06,0.0,0.0,0.0,1.8451411831089862e-06,0.0,24.321042250278175,0.8720005791203549,0.001446554001992301,0.0
6019,3.793103448275862,4.482758620689656,1.4285714285714286,0,176222.695619595,300480.3682982267,116169.95075929146,133647.9143907389,11770.307209031038,1.1748179707973e-06,0.0,0.0,0.0,1.1748179707973e-06,0.0,24.458926072099533,1.1918479388331729,0.0004144055704763672,0.0
6020,3.793103448275862,4.482758620689656,1.7857142857142858,0,181750.57452499165,278688.3188558447,410283.3551299891,202904.30161075803,16102.175899769678,1.2116704968332777e-06,0.0,0.0,0.0,1.2116704968332777e-06,0.0,23.853426156826668,1.5200111627344928,0.0006359956669052147,0.0
6021,3.793103448275862,4.482758620689656,2.142857142857143,0,506025.94829625025,872121.3938474798,333147.16776188783,407205.6542918386,235784.994124975,3.3735063219750018e-06,0.0,0.0,0.0,3.3735063219750018e-06,0.0,24.989841468812685,1.847895192723929,0.012639277108435019,0.0
6022,3.793103448275862,4.482758620689656,2.5,0,407066.74891777703,886678.7016113588,431005.1867505631,558969.1552677907,561479.6851081371,2.7137783261185136e-06,0.0,0.0,0.0,2.7137783261185136e-06,0.0,24.93389056885177,2.161869356714028,0.05614796851081371,0.0
6023,3.793103448275862,4.482758620689656,2.857142857142857,0,424633.3163098698,568574.1023393915,735221.9491849993,252542.51412299185,283639.7998234031,2.830888775399132e-06,0.0,0.0,0.0,2.830888775399132e-06,0.0,24.08030030277147,2.455038049866786,0.015204538534156433,0.0
6024,3.793103448275862,4.482758620689656,3.2142857142857144,0,271443.98241451476,368650.84944053274,166814.60239830037,60058.86472359439,73981.02770878398,1.8096265494300984e-06,0.0,0.0,0.0,1.8096265494300984e-06,0.0,24.75715485237787,2.734296877020207,0.0029220655238683764,0.0
6025,3.793103448275862,4.482758620689656,3.5714285714285716,0,279132.06919922016,359015.6530058111,141981.54480409357,44132.76122038759,51059.73209876385,1.8608804613281344e-06,0.0,0.0,0.0,1.8608804613281344e-06,0.0,25.495404601582603,3.0132765102617443,0.0017976962735962955,0.0
6026,3.793103448275862,4.482758620689656,3.928571428571429,0,162414.25729275285,258817.81614884926,165552.4439542321,71278.88911805266,26158.516208354955,1.082761715285019e-06,0.0,0.0,0.0,1.082761715285019e-06,0.0,24.746976438613324,3.300572007691784,0.0008868596903181392,0.0
6027,3.793103448275862,4.482758620689656,4.285714285714286,0,111410.655296802,162472.45207921084,172288.43290670274,56294.579288143155,29707.48735094295,7.427377019786799e-07,0.0,0.0,0.0,7.427377019786799e-07,0.0,23.67453375389444,3.5964380989610385,0.000995398170157055,0.0
6028,3.793103448275862,4.482758620689656,4.642857142857143,0,299370.5826298852,357586.9544318278,137310.9970917927,16729.18313966613,-3327.9780293242948,1.9958038841992346e-06,0.0,0.0,0.0,1.9958038841992346e-06,0.0,24.401154169854838,3.8973089252419952,-0.00011110798327265894,0.0
6029,3.793103448275862,4.482758620689656,5.0,0,103585.96888381767,240513.42143097598,123329.7628121325,202683.2289579408,-59361.40445089481,6.905731258921178e-07,0.0,0.0,0.0,6.905731258921178e-07,0.0,24.754612126590306,4.20016769730898,-0.001979664726343653,0.0
6030,4.137931034482759,4.482758620689656,0.0,0,192650.29870652317,360433.5829653667,278000.1943245475,140282.0124480392,2873.322997459661,1.2843353247101545e-06,0.0,0.0,0.0,1.2843353247101545e-06,0.0,25.77081965341661,-0.049826362147073006,9.582347719162093e-05,0.0
6031,4.137931034482759,4.482758620689656,0.35714285714285715,0,230904.1281761042,348453.81632604613,208846.13514433813,81929.39235595676,-18438.7153236333,1.5393608545073612e-06,0.0,0.0,0.0,1.5393608545073612e-06,0.0,24.11291975275099,0.25448296821931354,-0.000615595552523383,0.0
6032,4.137931034482759,4.482758620689656,0.7142857142857143,0,115582.63020852269,222652.95797640024,227451.13169150526,109544.13362147407,21957.023118968067,7.70550868056818e-07,0.0,0.0,0.0,7.70550868056818e-07,0.0,24.648532731795918,0.5608506657719168,0.0007357061328185075,0.0
6033,4.137931034482759,4.482758620689656,1.0714285714285714,0,289425.3166889299,346075.8130088857,192895.47605032363,12252.574693252973,-50590.68371291481,1.9295021112595326e-06,0.0,0.0,0.0,1.9295021112595326e-06,0.0,24.193263125233532,0.8724003870981027,-0.0017151904845538683,0.0
6034,4.137931034482759,4.482758620689656,1.4285714285714286,0,68812.91057037575,289877.8175479826,252607.66193562726,210469.23987023556,31794.98404546197,4.5875273713583833e-07,0.0,0.0,0.0,4.5875273713583833e-07,0.0,25.171316628361186,1.1928243087415278,0.0011194285983918124,0.0
6035,4.137931034482759,4.482758620689656,1.7857142857142858,0,372287.86048894515,299199.6247371074,423299.0016576812,4811.717602625028,59295.067048219964,2.481919069926301e-06,0.0,0.0,0.0,2.481919069926301e-06,0.0,24.553278541822927,1.5218586774559664,0.0023420068161136842,0.0
6036,4.137931034482759,4.482758620689656,2.142857142857143,0,292653.9173445555,647319.4732373549,354219.03077730926,355114.13431691914,291827.58797168446,1.95102611563037e-06,0.0,0.0,0.0,1.95102611563037e-06,0.0,23.375390509655414,1.8506039620359924,0.015643445699115518,0.0
6037,4.137931034482759,4.482758620689656,2.5,0,772462.3133858022,898523.826546216,626717.6787616893,26897.23860723744,531756.1852795125,5.149748755905348e-06,0.0,0.0,0.0,5.149748755905348e-06,0.0,24.549275770386533,2.16494663466406,0.05317561852795126,0.0
6038,4.137931034482759,4.482758620689656,2.857142857142857,0,395618.06872059946,641923.7106448166,593648.3829302047,224383.2305180385,264786.7106272897,2.637453791470663e-06,0.0,0.0,0.0,2.637453791470663e-06,0.0,24.69459177154555,2.4577468191788494,0.014193916888856063,0.0
6039,4.137931034482759,4.482758620689656,3.2142857142857144,0,157987.39122699577,448131.24765256356,481729.0893286483,309645.2543400569,34394.559503636556,1.0532492748466384e-06,0.0,0.0,0.0,1.0532492748466384e-06,0.0,24.949357273196703,2.736144391741681,0.0013584990591078631,0.0
6040,4.137931034482759,4.482758620689656,3.5714285714285716,0,364167.5365218924,409534.3197110045,363160.143466604,24401.00424327188,42018.797510677134,2.427783576812616e-06,0.0,0.0,0.0,2.427783576812616e-06,0.0,24.85094956600996,3.0142528801700994,0.0014793856646139812,0.0
6041,4.137931034482759,4.482758620689656,3.928571428571429,0,161792.70413566387,292918.6873916523,204774.28347907786,106193.75270408104,17196.225415322042,1.0786180275710925e-06,0.0,0.0,0.0,1.0786180275710925e-06,0.0,25.093458808385286,3.300971815669532,0.0005830085707079367,0.0
6042,4.137931034482759,4.482758620689656,4.285714285714286,0,101246.095292428,231433.89230675448,258266.85375242057,146307.15435369406,19180.27458013496,6.749739686161866e-07,0.0,0.0,0.0,6.749739686161866e-07,0.0,24.707823437923704,3.5965649514862026,0.0006426666111016694,0.0
6043,4.137931034482759,4.482758620689656,4.642857142857143,0,238369.94980862772,316463.2970463226,46055.76906702632,136761.67264898441,-2290.0266414973257,1.5891329987241848e-06,0.0,0.0,0.0,1.5891329987241848e-06,0.0,24.816630925252554,3.8973401110764567,-7.64549043098969e-05,0.0
6044,4.137931034482759,4.482758620689656,5.0,0,169651.73177488815,288414.4619890506,280346.7508415936,114872.80682530475,3038.877580664763,1.131011545165921e-06,0.0,0.0,0.0,1.131011545165921e-06,0.0,24.785153458259142,4.200173637852927,0.00010134461624968993,0.0
6045,4.482758620689656,4.482758620689656,0.0,0,16914.2800811752,145844.73337670602,163246.86956743916,146866.79680585302,-389.57001773454766,1.1276186720783466e-07,0.0,0.0,0.0,1.1276186720783466e-07,0.0,24.583433251614693,-0.04982107566096857,-1.2991909973897695e-05,0.0
6046,4.482758620689656,4.482758620689656,0.35714285714285715,0,206076.20388907017,319502.4750227031,191812.77404875983,81764.24625979387,-51328.85904040588,1.3738413592604678e-06,0.0,0.0,0.0,1.3738413592604678e-06,0.0,25.079821274554295,0.254510720472644,-0.0017136669657714114,0.0
6047,4.482758620689656,4.482758620689656,0.7142857142857143,0,85905.79801626722,318365.8779856151,232706.42622659082,232215.83497811735,-40770.827627222534,5.727053201084481e-07,0.0,0.0,0.0,5.727053201084481e-07,0.0,25.223824314944476,0.5609635517496284,-0.001366093562087736,0.0
6048,4.482758620689656,4.482758620689656,1.0714285714285714,0,247063.7841778405,305387.16305110336,203579.89678983303,23687.13944917062,-3551.845580983469,1.6470918945189367e-06,0.0,0.0,0.0,1.6470918945189367e-06,0.0,24.783349092967345,0.8727561759513922,-0.00012041924117250783,0.0
6049,4.482758620689656,4.482758620689656,1.4285714285714286,0,177127.11192107582,416507.44116208446,261316.79933730862,223539.19320434539,-61918.144938304926,1.180847412807172e-06,0.0,0.0,0.0,1.180847412807172e-06,0.0,24.5641050168176,1.1936931796731105,-0.002179996130968358,0.0
6050,4.482758620689656,4.482758620689656,1.7857142857142858,0,263576.7032660623,438247.27997874556,515219.5903529499,221725.3449385988,47759.337704047444,1.7571780217737488e-06,0.0,0.0,0.0,1.7571780217737488e-06,0.0,24.273417942715696,1.5235027795769178,0.0018863743647510082,0.0
6051,4.482758620689656,4.482758620689656,2.142857142857143,0,376224.3231206078,800678.6585623795,467485.9202082253,392666.27782309346,215856.2045771476,2.5081621541373855e-06,0.0,0.0,0.0,2.5081621541373855e-06,0.0,24.996883963437856,1.8530144940438675,0.011570992443138783,0.0
6052,4.482758620689656,4.482758620689656,2.5,0,157580.4199461067,606062.1369473861,425999.65060297266,493343.57332977885,502605.7488770797,1.0505361329740446e-06,0.0,0.0,0.0,1.0505361329740446e-06,0.0,24.322387594684145,2.1676851022635875,0.050260574887707965,0.0
6053,4.482758620689656,4.482758620689656,2.857142857142857,0,420980.1462179604,811269.9421397122,797222.3895696048,383441.8369679562,295696.2572626662,2.806534308119736e-06,0.0,0.0,0.0,2.806534308119736e-06,0.0,24.90860360773505,2.4601573511867247,0.015850826085603106,0.0
6054,4.482758620689656,4.482758620689656,3.2142857142857144,0,505532.73237806966,704121.2176930326,407781.64549037494,120405.23775493473,-40752.77216577508,3.370218215853798e-06,0.0,0.0,0.0,3.370218215853798e-06,0.0,24.89917979327659,2.7377884938626327,-0.0016096325535842097,0.0
6055,4.482758620689656,4.482758620689656,3.5714285714285716,0,229138.69021338134,283139.326102258,383319.3574421503,121150.32267022514,15933.581127880618,1.527591268089209e-06,0.0,0.0,0.0,1.527591268089209e-06,0.0,25.371877012488564,3.0151217511016823,0.0005609849139676294,0.0
6056,4.482758620689656,4.482758620689656,3.928571428571429,0,228428.06301789562,257942.38112252558,265451.07669700636,33361.24197839774,-13478.520037922057,1.5228537534526374e-06,0.0,0.0,0.0,1.5228537534526374e-06,0.0,25.53668422057423,3.3013276045228213,-0.00045696613720622485,0.0
6057,4.482758620689656,4.482758620689656,4.285714285714286,0,140926.94855791505,253306.3964205731,128508.02942754423,100467.00877374617,-68572.06065984687,9.395129903861003e-07,0.0,0.0,0.0,9.395129903861003e-07,0.0,23.32876373375148,3.5966778374639143,-0.0022976195495222054,0.0
6058,4.482758620689656,4.482758620689656,4.642857142857143,0,145215.21861060034,301941.8884589299,243989.4169716585,136699.0280322406,-13563.231164793311,9.681014574040023e-07,0.0,0.0,0.0,9.681014574040023e-07,0.0,24.751804526602918,3.8973678633297872,-0.0004528224790255109,0.0
6059,4.482758620689656,4.482758620689656,5.0,0,81068.82049148172,231676.2982102826,148060.6981928368,153420.21660733398,11171.172493232914,5.404588032765448e-07,0.0,0.0,0.0,5.404588032765448e-07,0.0,23.806828920451377,4.200178924339031,0.00037255143036664314,0.0
6060,4.827586206896552,4.482758620689656,0.0,0,166117.30164386518,339317.17821037624,219531.0006783959,149680.45122020738,-12695.831719835225,1.1074486776257679e-06,0.0,0.0,0.0,1.1074486776257679e-06,0.0,25.425006212984197,-0.049817479813944424,-0.0004233978366893879,0.0
6061,4.827586206896552,4.482758620689656,0.35714285714285715,0,304633.7312027399,366027.5603390942,214369.28570672168,15332.026407839578,-14606.764719875715,2.030891541351599e-06,0.0,0.0,0.0,2.030891541351599e-06,0.0,24.837363643696484,0.25452959744604,-0.0004876619244067339,0.0
6062,4.827586206896552,4.482758620689656,0.7142857142857143,0,244511.71155053156,347570.781109323,118215.39858279859,90299.05608253306,4835.95731125914,1.6300780770035438e-06,0.0,0.0,0.0,1.6300780770035438e-06,0.0,25.429525225593714,0.5610403363469968,0.00016203669471333417,0.0
6063,4.827586206896552,4.482758620689656,1.0714285714285714,0,109268.80991417782,209092.53954239513,173868.65979831343,86556.19096631832,-15296.833381886207,7.284587327611855e-07,0.0,0.0,0.0,7.284587327611855e-07,0.0,24.987507657531292,0.8729981821279057,-0.0005186129369056027,0.0
6064,4.827586206896552,4.482758620689656,1.4285714285714286,0,388473.1134883134,450785.4191894872,428981.37171426706,51869.48134752729,-5318.002841889904,2.5898207565887557e-06,0.0,0.0,0.0,2.5898207565887557e-06,0.0,24.188012690814084,1.1942841822581887,-0.00018723470529277299,0.0
6065,4.827586206896552,4.482758620689656,1.7857142857142858,0,445712.06154065893,639516.6083916917,402662.3707154681,125382.15531028414,-14707.532456661604,2.9714137436043928e-06,0.0,0.0,0.0,2.9714137436043928e-06,0.0,24.384069528072644,1.524621091363278,-0.000580910739736633,0.0
6066,4.827586206896552,4.482758620689656,2.142857142857143,0,537512.6614028885,930397.9863148119,530520.24883524,319371.28332353634,259588.685307391,3.583417742685923e-06,0.0,0.0,0.0,3.583417742685923e-06,0.0,24.805489355945383,1.8546541284202558,0.013915276245592571,0.0
6067,4.827586206896552,4.482758620689656,2.5,0,362352.78562503046,1008854.9491092017,997597.7972928991,641004.7578190335,718600.6440824904,2.415685237500203e-06,0.0,0.0,0.0,2.415685237500203e-06,0.0,25.16213691149401,2.169547797137641,0.07186006440824903,0.0
6068,4.827586206896552,4.482758620689656,2.857142857142857,0,576777.565139495,833056.4654960743,495309.86075339356,167073.7356474048,315179.59535046923,3.845183767596633e-06,0.0,0.0,0.0,3.845183767596633e-06,0.0,24.910491053947947,2.4617969855631125,0.01689523228288021,0.0
6069,4.827586206896552,4.482758620689656,3.2142857142857144,0,481464.22208739986,649751.4705130829,367139.69971159194,93830.41727165261,71223.08215727605,3.2097614805826657e-06,0.0,0.0,0.0,3.2097614805826657e-06,0.0,24.97558922333668,2.7389068056489925,0.002813133573848836,0.0
6070,4.827586206896552,4.482758620689656,3.5714285714285716,0,360492.8985834182,520589.0984353015,337670.03044128005,105307.71395221942,-19435.97876045963,2.4032859905561213e-06,0.0,0.0,0.0,2.4032859905561213e-06,0.0,24.7128500141632,3.0157127536867603,-0.0006842963163964763,0.0
6071,4.827586206896552,4.482758620689656,3.928571428571429,0,95978.7897282971,261849.57486605065,200531.04217706996,151240.5978318932,-12561.339239793222,6.398585981886473e-07,0.0,0.0,0.0,6.398585981886473e-07,0.0,25.461291496483856,3.301569610699335,-0.00042587069310246183,0.0
6072,4.827586206896552,4.482758620689656,4.285714285714286,0,195708.5494898788,381721.4045337099,172925.35153289116,202456.87997247363,-7170.327394150857,1.3047236632658586e-06,0.0,0.0,0.0,1.3047236632658586e-06,0.0,24.974075248495517,3.5967546220612827,-0.0002402535994798032,0.0
6073,4.827586206896552,4.482758620689656,4.642857142857143,0,211823.7261690756,307615.7350683154,78018.12656548794,119789.57569919042,27363.5839370356,1.4121581744605042e-06,0.0,0.0,0.0,1.4121581744605042e-06,0.0,24.92998738341137,3.897386740303183,0.0009135615077883938,0.0
6074,4.827586206896552,4.482758620689656,5.0,0,234143.90865938482,304834.9358568921,160450.1875453125,34682.58265597884,37518.09482407844,1.5609593910625654e-06,0.0,0.0,0.0,1.5609593910625654e-06,0.0,25.058226443021955,4.200182520186056,0.0012512043744565562,0.0
6075,5.172413793103448,4.482758620689656,0.0,0,158156.39516172998,230528.64175460255,169992.48503833252,51046.03451918066,-15120.788641686695,1.0543759677448666e-06,0.0,0.0,0.0,1.0543759677448666e-06,0.0,24.63672144790874,-0.049817479813944424,-0.0005042685931261466,0.0
6076,5.172413793103448,4.482758620689656,0.35714285714285715,0,146336.9929381462,313906.7120522169,243562.5345166745,145680.91977599348,-779.4834823844412,9.755799529209746e-07,0.0,0.0,0.0,9.755799529209746e-07,0.0,24.67385867957914,0.25452959744604,-2.602386102280516e-05,0.0
6077,5.172413793103448,4.482758620689656,0.7142857142857143,0,71078.85846898443,267325.64728406235,192980.2013766514,200040.30030196812,-7843.773679417268,4.7385905645989617e-07,0.0,0.0,0.0,4.7385905645989617e-07,0.0,25.09435012280383,0.5610403363469968,-0.00026281852367329863,0.0
6078,5.172413793103448,4.482758620689656,1.0714285714285714,0,110643.52089453297,312116.63815488986,389308.90661272657,262548.1310376943,26448.309757298568,7.376234726302198e-07,0.0,0.0,0.0,7.376234726302198e-07,0.0,25.24658279144263,0.8729981821279057,0.0008966846442652685,0.0
6079,5.172413793103448,4.482758620689656,1.4285714285714286,0,213677.3768981188,311990.93314442865,195293.19031872315,65375.63080827018,23759.722001098133,1.4245158459874586e-06,0.0,0.0,0.0,1.4245158459874586e-06,0.0,25.30356224784897,1.1942841822581887,0.0008365254173374737,0.0
6080,5.172413793103448,4.482758620689656,1.7857142857142858,0,298239.0790283192,521291.21635036095,561329.9598658206,245094.07519407803,55175.66972512346,1.9882605268554616e-06,0.0,0.0,0.0,1.9882605268554616e-06,0.0,24.770276506370738,1.524621091363278,0.002179300926918436,0.0
6081,5.172413793103448,4.482758620689656,2.142857142857143,0,555844.1618644007,779606.8932244931,631261.3646135838,164640.32774838843,405701.99193190254,3.7056277457626713e-06,0.0,0.0,0.0,3.7056277457626713e-06,0.0,24.93427150646588,1.8546541284202558,0.021747693989183494,0.0
6082,5.172413793103448,4.482758620689656,2.5,0,731785.195153465,1017712.9864488626,859970.6942918616,219920.70506094137,627800.919971861,4.878567967689767e-06,0.0,0.0,0.0,4.878567967689767e-06,0.0,24.574119889358883,2.169547797137641,0.0627800919971861,0.0
6083,5.172413793103448,4.482758620689656,2.857142857142857,0,491553.4965103766,574494.5019917379,720571.5422187421,172537.27089217337,254598.96700671618,3.277023310069177e-06,0.0,0.0,0.0,3.277023310069177e-06,0.0,25.275405966124975,2.4617969855631125,0.013647801919971024,0.0
6084,5.172413793103448,4.482758620689656,3.2142857142857144,0,241355.42641425133,407137.5234661882,146815.88865745155,190797.08725618155,60797.71698462574,1.6090361760950088e-06,0.0,0.0,0.0,1.6090361760950088e-06,0.0,24.414423533875734,2.7389068056489925,0.0024013577295789335,0.0
6085,5.172413793103448,4.482758620689656,3.5714285714285716,0,294572.7529458104,428741.298613206,278937.96115385834,89373.51325872893,-2031.8038206297451,1.9638183529720692e-06,0.0,0.0,0.0,1.9638183529720692e-06,0.0,25.002640538860568,3.0157127536867603,-7.153516101415731e-05,0.0
6086,5.172413793103448,4.482758620689656,3.928571428571429,0,77654.21540787278,289163.88730335684,222779.99090073424,308174.0549060693,-33765.62835942744,5.176947693858185e-07,0.0,0.0,0.0,5.176947693858185e-07,0.0,25.335796677454745,3.301569610699335,-0.0011447657990889687,0.0
6087,5.172413793103448,4.482758620689656,4.285714285714286,0,279337.1783364811,405692.00585790916,158083.3246087285,102871.70245759797,-7519.07525600684,1.8622478555765406e-06,0.0,0.0,0.0,1.8622478555765406e-06,0.0,24.9638958053569,3.5967546220612827,-0.00025193896954953457,0.0
6088,5.172413793103448,4.482758620689656,4.642857142857143,0,129370.70501036734,347862.98650876776,263605.0217581137,198905.98418110033,37916.40094021459,8.624713667357823e-07,0.0,0.0,0.0,8.624713667357823e-07,0.0,25.055777373344757,3.897386740303183,0.001265878201209205,0.0
6089,5.172413793103448,4.482758620689656,5.0,0,271909.78367067926,373186.2902722731,347213.1109514603,89221.88616424026,36438.70182250175,1.8127318911378618e-06,0.0,0.0,0.0,1.8127318911378618e-06,0.0,24.77412100976895,4.200182520186056,0.001215207310861957,0.0
6090,5.517241379310345,4.482758620689656,0.0,0,344123.92143411515,452574.33716469724,58383.2929424096,298853.2175785437,32236.251014692352,2.2941594762274342e-06,0.0,0.0,0.0,2.2941594762274342e-06,0.0,23.864046097268517,-0.04982107566096857,0.0010750582745416202,0.0
6091,5.517241379310345,4.482758620689656,0.35714285714285715,0,148915.98261964662,331184.93361345393,209398.38123570746,165163.18067098313,27508.018131966277,9.927732174643108e-07,0.0,0.0,0.0,9.927732174643108e-07,0.0,24.45893586421225,0.254510720472644,0.0009183835925416444,0.0
6092,5.517241379310345,4.482758620689656,0.7142857142857143,0,137881.364110755,313486.52389864734,159681.3481797947,200957.44995636062,7371.317223294113,9.192090940717e-07,0.0,0.0,0.0,9.192090940717e-07,0.0,24.82265054474103,0.5609635517496284,0.0002469880939116598,0.0
6093,5.517241379310345,4.482758620689656,1.0714285714285714,0,282101.74319732026,428514.4085897703,260666.85778299,102822.57640242286,-21709.73511043675,1.880678287982135e-06,0.0,0.0,0.0,1.880678287982135e-06,0.0,24.46067873664877,0.8727561759513922,-0.0007360313866266336,0.0
6094,5.517241379310345,4.482758620689656,1.4285714285714286,0,206947.55430891825,467261.66518068634,269218.9551651666,252431.83038096892,29236.42074995557,1.379650362059455e-06,0.0,0.0,0.0,1.379650362059455e-06,0.0,25.05254770283192,1.1936931796731105,0.0010293474422040881,0.0
6095,5.517241379310345,4.482758620689656,1.7857142857142858,0,273449.93402106554,584685.5053668823,351627.8262369419,283662.88524264935,-36018.992043036356,1.8229995601404368e-06,0.0,0.0,0.0,1.8229995601404368e-06,0.0,24.082665592985528,1.5235027795769178,-0.001422660080740529,0.0
6096,5.517241379310345,4.482758620689656,2.142857142857143,0,744358.422557097,1150446.672113365,754100.8973798996,291780.0441480657,278971.7151003237,4.96238948371398e-06,0.0,0.0,0.0,4.96238948371398e-06,0.0,23.850665840668896,1.8530144940438675,0.014954305407151838,0.0
6097,5.517241379310345,4.482758620689656,2.5,0,858402.8525988314,1013993.0758774062,1087785.7210689846,194868.69692063754,727998.2334651002,5.7226856839922094e-06,0.0,0.0,0.0,5.7226856839922094e-06,0.0,25.171666954684003,2.1676851022635875,0.07279982334651001,0.0
6098,5.517241379310345,4.482758620689656,2.857142857142857,0,712282.9746680781,905886.8434651532,1109022.1629229824,317237.8216413975,295152.2118927332,4.748553164453854e-06,0.0,0.0,0.0,4.748553164453854e-06,0.0,24.673061220986575,2.4601573511867247,0.01582166248163559,0.0
6099,5.517241379310345,4.482758620689656,3.2142857142857144,0,359063.03217502125,610022.3560228696,335354.17734772427,203719.30046023376,102861.1241655586,2.393753547833475e-06,0.0,0.0,0.0,2.393753547833475e-06,0.0,25.006806527557437,2.7377884938626327,0.00406275708758282,0.0
6100,5.517241379310345,4.482758620689656,3.5714285714285716,0,175266.84263654548,344786.95882374124,142406.48953833902,243322.19431220862,-10065.210535551738,1.16844561757697e-06,0.0,0.0,0.0,1.16844561757697e-06,0.0,24.57783455723183,3.0151217511016823,-0.00035437302016634733,0.0
6101,5.517241379310345,4.482758620689656,3.928571428571429,0,214284.5140808121,370560.06644074986,296238.4647282663,129009.74135682663,20309.364375694768,1.4285634272054141e-06,0.0,0.0,0.0,1.4285634272054141e-06,0.0,25.12545679258831,3.3013276045228213,0.0006885542152820606,0.0
6102,5.517241379310345,4.482758620689656,4.285714285714286,0,409678.1778923212,453122.1530122127,362007.29462824145,5557.545554186624,-54542.193123161225,2.7311878526154747e-06,0.0,0.0,0.0,2.7311878526154747e-06,0.0,25.526530389568574,3.5966778374639143,-0.0018275257880207136,0.0
6103,5.517241379310345,4.482758620689656,4.642857142857143,0,172191.82948207585,384473.4082910138,304592.97242472915,186848.81220092284,44901.39510320189,1.1479455298805057e-06,0.0,0.0,0.0,1.1479455298805057e-06,0.0,25.56673806487821,3.8973678633297872,0.0014990794446616408,0.0
6104,5.517241379310345,4.482758620689656,5.0,0,125431.81714962849,355176.95774963585,360491.7396186338,232487.00896876008,-39391.43320248035,8.362121143308566e-07,0.0,0.0,0.0,8.362121143308566e-07,0.0,24.53331039483477,4.200178924339031,-0.0013136790066276313,0.0
6105,5.862068965517242,4.482758620689656,0.0,0,295296.6347106141,360684.248977574,244110.90776664467,24894.254859391684,-50761.59227736961,1.968644231404094e-06,0.0,0.0,0.0,1.968644231404094e-06,0.0,24.50180058013562,-0.049826362147073006,-0.0016928665117361822,0.0
6106,5.862068965517242,4.482758620689656,0.35714285714285715,0,159231.08970461987,397488.19316160417,215520.2947814214,283694.0949618,45411.50714930045,1.0615405980307992e-06,0.0,0.0,0.0,1.0615405980307992e-06,0.0,24.802566310761126,0.25448296821931354,0.001516110062107336,0.0
6107,5.862068965517242,4.482758620689656,0.7142857142857143,0,168431.31952552614,430091.51720567053,270440.24831711745,254074.85587314377,-100.21455426816782,1.1228754635035076e-06,0.0,0.0,0.0,1.1228754635035076e-06,0.0,25.657689051987845,0.5608506657719168,-3.3578532833566234e-06,0.0
6108,5.862068965517242,4.482758620689656,1.0714285714285714,0,284057.090321788,432275.6219999007,244253.2103966869,105511.09159633631,-11553.515974427875,1.8937139354785865e-06,0.0,0.0,0.0,1.8937139354785865e-06,0.0,24.150552223555326,0.8724003870981027,-0.0003917021713905212,0.0
6109,5.862068965517242,4.482758620689656,1.4285714285714286,0,318802.24372027384,418066.865538344,372836.6075371327,79065.04525326163,75825.97488356369,2.1253482914684924e-06,0.0,0.0,0.0,2.1253482914684924e-06,0.0,24.15881576254047,1.1928243087415278,0.0026696589834494812,0.0
6110,5.862068965517242,4.482758620689656,1.7857142857142858,0,254961.60817782825,683114.499630258,573425.055125587,391665.4854307624,114463.17535180651,1.699744054518855e-06,0.0,0.0,0.0,1.699744054518855e-06,0.0,25.17090827085978,1.5218586774559664,0.004521009085797032,0.0
6111,5.862068965517242,4.482758620689656,2.142857142857143,0,847220.246606296,1041592.3234594965,864471.0079379373,119813.10136486377,315722.7699749339,5.648134977375307e-06,0.0,0.0,0.0,5.648134977375307e-06,0.0,24.408286668709458,1.8506039620359924,0.01692434921045381,0.0
6112,5.862068965517242,4.482758620689656,2.5,0,597149.8698678544,892969.3302430307,896947.444199794,297818.4555134368,630187.3962031065,3.9809991324523625e-06,0.0,0.0,0.0,3.9809991324523625e-06,0.0,25.07548352941977,2.16494663466406,0.06301873962031065,0.0
6113,5.862068965517242,4.482758620689656,2.857142857142857,0,754250.0211172114,982344.6081248058,711982.2415584862,130175.81168936276,460503.05828712735,5.028333474114743e-06,0.0,0.0,0.0,5.028333474114743e-06,0.0,24.458133218942475,2.4577468191788494,0.024685310380217665,0.0
6114,5.862068965517242,4.482758620689656,3.2142857142857144,0,257380.01575384586,364175.4015706241,550930.6038526228,257337.26076082865,5759.648731929163,1.7158667716923057e-06,0.0,0.0,0.0,1.7158667716923057e-06,0.0,24.931515876019,2.736144391741681,0.0002274917165980939,0.0
6115,5.862068965517242,4.482758620689656,3.5714285714285716,0,306037.6064323409,491002.4271850552,137650.71842489397,310333.5804380856,70264.90885513995,2.0402507095489396e-06,0.0,0.0,0.0,2.0402507095489396e-06,0.0,24.505120125426956,3.0142528801700994,0.002473866579815575,0.0
6116,5.862068965517242,4.482758620689656,3.928571428571429,0,220543.1524784038,436213.9656399294,285954.89126023976,183022.8098175684,-16836.7693448669,1.4702876831893587e-06,0.0,0.0,0.0,1.4702876831893587e-06,0.0,24.26250151733701,3.300971815669532,-0.0005708218282800539,0.0
6117,5.862068965517242,4.482758620689656,4.285714285714286,0,187406.84504626662,429925.4201380708,265730.9028644459,225756.68267366182,-32589.166201215045,1.2493789669751109e-06,0.0,0.0,0.0,1.2493789669751109e-06,0.0,24.842732567264203,3.5965649514862026,-0.0010919535543487807,0.0
6118,5.862068965517242,4.482758620689656,4.642857142857143,0,195873.56239814608,343361.5013413977,276860.33243634016,122895.40378368799,40522.08685035707,1.305823749320974e-06,0.0,0.0,0.0,1.305823749320974e-06,0.0,24.16804759709193,3.8973401110764567,0.0013528717161804245,0.0
6119,5.862068965517242,4.482758620689656,5.0,0,208483.95216245376,395782.8574518759,254388.43271362572,156351.3249253484,27381.97075365622,1.3898930144163583e-06,0.0,0.0,0.0,1.3898930144163583e-06,0.0,25.00720051749325,4.200173637852927,0.0009131711444534333,0.0
6120,6.206896551724139,4.482758620689656,0.0,0,383926.653393524,502849.0481916088,307774.59490722173,60552.27716695841,-69533.37235738795,2.5595110226234935e-06,0.0,0.0,0.0,2.5595110226234935e-06,0.0,24.507700470652985,-0.049832302691019965,-0.002318893325266747,0.0
6121,6.206896551724139,4.482758620689656,0.35714285714285715,0,320712.5764880554,502151.239200145,229037.18852695983,148999.90827988661,-4181.759167094625,2.1380838432537027e-06,0.0,0.0,0.0,2.1380838432537027e-06,0.0,23.949064031235423,0.2544517823848519,-0.00013961234824683459,0.0
6122,6.206896551724139,4.482758620689656,0.7142857142857143,0,279489.45401012205,390421.8646371735,363614.95991372183,98494.80951037326,-43397.11805153575,1.863263026734147e-06,0.0,0.0,0.0,1.863263026734147e-06,0.0,24.78427626189268,0.5607238132467527,-0.0014540917374897832,0.0
6123,6.206896551724139,4.482758620689656,1.0714285714285714,0,234524.00818563218,415869.6611775052,321544.5828062701,148869.46573584556,32559.76240544517,1.5634933879042144e-06,0.0,0.0,0.0,1.5634933879042144e-06,0.0,24.77848074597758,0.8720005791203549,0.0011038829792074521,0.0
6124,6.206896551724139,4.482758620689656,1.4285714285714286,0,354487.63359096646,574649.5813186656,343298.249650806,166537.76284530188,86763.54021332345,2.3632508906064432e-06,0.0,0.0,0.0,2.3632508906064432e-06,0.0,23.467685776803595,1.1918479388331729,0.003054745618794385,0.0
6125,6.206896551724139,4.482758620689656,1.7857142857142858,0,213461.22026800932,471362.4880015408,377510.9518265863,227054.83263331917,107164.31392988197,1.4230748017867288e-06,0.0,0.0,0.0,1.4230748017867288e-06,0.0,24.623059847639354,1.5200111627344928,0.00423272231843213,0.0
6126,6.206896551724139,4.482758620689656,2.142857142857143,0,99600.47848503586,933420.041732685,861250.4811839976,819785.7855600149,300561.5814237192,6.64003189900239e-07,0.0,0.0,0.0,6.64003189900239e-07,0.0,24.658196100452038,1.847895192723929,0.016111632251500665,0.0
6127,6.206896551724139,4.482758620689656,2.5,0,610323.4438929708,1487780.8457624328,870434.2158108708,884731.8184206974,781976.3437994844,4.068822959286472e-06,0.0,0.0,0.0,4.068822959286472e-06,0.0,24.704320235239056,2.161869356714028,0.07819763437994844,0.0
6128,6.206896551724139,4.482758620689656,2.857142857142857,0,589304.6856446997,1192529.8833411061,547750.3300015295,681793.3301679478,371343.85932816693,3.928697904297998e-06,0.0,0.0,0.0,3.928697904297998e-06,0.0,23.753335092668667,2.455038049866786,0.019905923012541977,0.0
6129,6.206896551724139,4.482758620689656,3.2142857142857144,0,239288.13225133278,723271.3164583151,463837.88213146507,511216.6973215989,65977.7376199068,1.5952542150088852e-06,0.0,0.0,0.0,1.5952542150088852e-06,0.0,24.844305055857305,2.734296877020207,0.0026059555863546424,0.0
6130,6.206896551724139,4.482758620689656,3.5714285714285716,0,63518.58491940567,328579.79731290427,388285.0760187698,321539.7490278384,-16907.548095442737,4.2345723279603783e-07,0.0,0.0,0.0,4.2345723279603783e-07,0.0,24.928700518177738,3.0132765102617443,-0.0005952760611441477,0.0
6131,6.206896551724139,4.482758620689656,3.928571428571429,0,213664.73953051903,400557.3309498901,327850.11166654364,160027.6548442283,4494.808764310921,1.4244315968701268e-06,0.0,0.0,0.0,1.4244315968701268e-06,0.0,24.20792720588834,3.300572007691784,0.000152388792888904,0.0
6132,6.206896551724139,4.482758620689656,4.285714285714286,0,184745.4688479011,346379.65674966975,313150.1823236928,147274.5368260825,-2781.797215056349,1.2316364589860072e-06,0.0,0.0,0.0,1.2316364589860072e-06,0.0,23.982086395349857,3.5964380989610385,-9.320868590817361e-05,0.0
6133,6.206896551724139,4.482758620689656,4.642857142857143,0,210425.27556219924,417381.3432771228,281268.9243850251,175015.48503636703,-94115.48263419741,1.4028351704146616e-06,0.0,0.0,0.0,1.4028351704146616e-06,0.0,24.196694374655525,3.8973089252419952,-0.003142142579691787,0.0
6134,6.206896551724139,4.482758620689656,5.0,0,202367.48915102598,328032.56086818664,354268.4302110099,140062.5544910104,1012.3428879480905,1.3491165943401733e-06,0.0,0.0,0.0,1.3491165943401733e-06,0.0,24.755517074255817,4.20016769730898,3.3760985353598556e-05,0.0
6135,6.551724137931035,4.482758620689656,0.0,0,282537.6589203898,324546.23322242976,386896.5756289202,78391.5380038279,-5619.024967793017,1.8835843928025984e-06,0.0,0.0,0.0,1.8835843928025984e-06,0.0,23.913760784705126,-0.049838530269078814,-0.00018739087506573367,0.0
6136,6.551724137931035,4.482758620689656,0.35714285714285715,0,139926.8277281843,239735.5739746067,346095.5170680807,187581.84247745707,14163.770445507756,9.328455181878952e-07,0.0,0.0,0.0,9.328455181878952e-07,0.0,23.860597019147555,0.2544190897189657,0.0004728721030819963,0.0
6137,6.551724137931035,4.482758620689656,0.7142857142857143,0,412123.893857643,509806.1758963057,238650.2635260773,35551.445664922445,-82208.72597823774,2.74749262571762e-06,0.0,0.0,0.0,2.74749262571762e-06,0.0,25.591873473902506,0.560590831484565,-0.0027545384247073725,0.0
6138,6.551724137931035,4.482758620689656,1.0714285714285714,0,196307.22059015973,388342.0060857974,206143.45736533767,180455.35445836312,21881.632678795344,1.3087148039343981e-06,0.0,0.0,0.0,1.3087148039343981e-06,0.0,24.544217814003392,0.8715814532941336,0.0007418592792726337,0.0
6139,6.551724137931035,4.482758620689656,1.4285714285714286,0,352957.6990557343,505929.25898441614,289997.1080778014,98615.36413642779,7568.959609964255,2.353051327038229e-06,0.0,0.0,0.0,2.353051327038229e-06,0.0,24.396012427334956,1.1908243928628246,0.00026648573986863967,0.0
6140,6.551724137931035,4.482758620689656,1.7857142857142858,0,467998.66674393654,702336.6386013546,766403.6498188196,269672.05337115534,108805.71400309916,3.1199911116262435e-06,0.0,0.0,0.0,3.1199911116262435e-06,0.0,24.221108003141712,1.5180743801358676,0.0042975535152046706,0.0
6141,6.551724137931035,4.482758620689656,2.142857142857143,0,347926.70896182244,818796.6831787535,787384.1197443714,456228.8542228041,223042.41021027343,2.319511393078816e-06,0.0,0.0,0.0,2.319511393078816e-06,0.0,24.34952645857901,1.8450555415935117,0.011956209681802967,0.0
6142,6.551724137931035,4.482758620689656,2.5,0,844639.7398930195,916466.6655142806,1378384.349988641,403523.410843587,555534.0102355761,5.630931599286797e-06,0.0,0.0,0.0,5.630931599286797e-06,0.0,25.466742936451727,2.158643391412922,0.0555534010235576,0.0
6143,6.551724137931035,4.482758620689656,2.857142857142857,0,701684.0161730942,831730.3942054653,703706.0125364873,74848.96835869059,197447.27890088345,4.677893441153961e-06,0.0,0.0,0.0,4.677893441153961e-06,0.0,24.97867648134028,2.452198398736369,0.010584180225701569,0.0
6144,6.551724137931035,4.482758620689656,3.2142857142857144,0,432901.4022430691,601024.1329099986,455484.6678971241,114107.9019795855,84295.97378674176,2.8860093482871272e-06,0.0,0.0,0.0,2.8860093482871272e-06,0.0,25.768647504497675,2.732360094421582,0.0033294800901218675,0.0
6145,6.551724137931035,4.482758620689656,3.5714285714285716,0,251659.27411466898,526477.8689004851,336093.8609134622,241160.01875495783,-10760.382249036806,1.6777284940977932e-06,0.0,0.0,0.0,1.6777284940977932e-06,0.0,24.775986913179295,3.012252964291396,-0.00037884842470674665,0.0
6146,6.551724137931035,4.482758620689656,3.928571428571429,0,207844.36396004475,354916.9537652031,287681.72488682054,121777.79254920581,-5807.403261449372,1.385629093066965e-06,0.0,0.0,0.0,1.385629093066965e-06,0.0,24.10662840884585,3.300152881865563,-0.0001968900612320103,0.0
6147,6.551724137931035,4.482758620689656,4.285714285714286,0,336390.36492748413,552798.2255563822,223393.31964810786,209832.53020854056,-57042.06122411714,2.242602432849894e-06,0.0,0.0,0.0,2.242602432849894e-06,0.0,24.725071045613188,3.5963051171988507,-0.0019112879757792998,0.0
6148,6.551724137931035,4.482758620689656,4.642857142857143,0,315119.2514998281,492284.9033250446,192037.0828796661,164148.13568985913,-49408.20221106173,2.100795009998854e-06,0.0,0.0,0.0,2.100795009998854e-06,0.0,24.86853225357341,3.897276232576109,-0.0016495438540840978,0.0
6149,6.551724137931035,4.482758620689656,5.0,0,283774.41469394654,474320.5872137553,326756.000969941,147168.1338521095,-101917.56791939476,1.891829431292977e-06,0.0,0.0,0.0,1.891829431292977e-06,0.0,24.905912840031334,4.200161469730921,-0.003398885455475741,0.0
6150,6.8965517241379315,4.482758620689656,0.0,0,201924.71262924932,412901.1016101444,385367.2287319958,198622.3102755244,-56920.01039480093,1.3461647508616622e-06,0.0,0.0,0.0,1.3461647508616622e-06,0.0,24.217256812830918,-0.049844903834056674,-0.0018982458020331235,0.0
6151,6.8965517241379315,4.482758620689656,0.35714285714285715,0,417121.30413764366,551249.6106098194,503074.5158256607,112132.48288955238,-27503.533319569353,2.7808086942509578e-06,0.0,0.0,0.0,2.7808086942509578e-06,0.0,25.345010057228013,0.2543856306714265,-0.0009182338624483603,0.0
6152,6.8965517241379315,4.482758620689656,0.7142857142857143,0,180672.95396144938,405952.4446297126,260302.8455169735,203774.0134974194,-25391.5077290552,1.204486359742996e-06,0.0,0.0,0.0,1.204486359742996e-06,0.0,23.81302194031035,0.5604547323631786,-0.0008507841821980283,0.0
6153,6.8965517241379315,4.482758620689656,1.0714285714285714,0,256877.40477290444,434568.65961888136,275268.51388973003,138230.79577182795,-2676.9853909320145,1.7125160318193629e-06,0.0,0.0,0.0,1.7125160318193629e-06,0.0,24.622267339099587,0.871152502317995,-9.075860480304555e-05,0.0
6154,6.8965517241379315,4.482758620689656,1.4285714285714286,0,223004.76715943057,525467.8800559595,277347.85670205025,461060.75333835534,45093.38597545187,1.486698447729537e-06,0.0,0.0,0.0,1.486698447729537e-06,0.0,24.311079195922588,1.1897768529222248,0.001587634885649387,0.0
6155,6.8965517241379315,4.482758620689656,1.7857142857142858,0,640268.2438779811,830158.2358712883,673483.8480754143,126094.84284534225,26526.50282063971,4.268454959186541e-06,0.0,0.0,0.0,4.268454959186541e-06,0.0,24.073536445126834,1.516092195468941,0.0010477305028270825,0.0
6156,6.8965517241379315,4.482758620689656,2.142857142857143,0,760242.7382037187,1215957.4615816239,930801.268843582,354363.73235136503,459512.92769973894,5.068284921358125e-06,0.0,0.0,0.0,5.068284921358125e-06,0.0,24.59029922552959,1.8421493233457185,0.024632234335603447,0.0
6157,6.8965517241379315,4.482758620689656,2.5,0,636462.3834427678,1148472.080993152,665768.1338634278,427190.90420484875,831016.9248064128,4.243082556285119e-06,0.0,0.0,0.0,4.243082556285119e-06,0.0,25.099770160766923,2.1553418030155322,0.08310169248064128,0.0
6158,6.8965517241379315,4.482758620689656,2.857142857142857,0,713469.2760969589,963593.7896572379,560381.0769280762,139811.38171680967,530833.1097694102,4.756461840646393e-06,0.0,0.0,0.0,4.756461840646393e-06,0.0,24.678205694908776,2.4492921804885754,0.028455359500747835,0.0
6159,6.8965517241379315,4.482758620689656,3.2142857142857144,0,369526.79965609976,821142.967100654,648264.9094691323,396865.3103036579,112337.88232459378,2.463511997707332e-06,0.0,0.0,0.0,2.463511997707332e-06,0.0,24.617497222803024,2.7303779097546554,0.004437065327846251,0.0
6160,6.8965517241379315,4.482758620689656,3.5714285714285716,0,365571.6611593276,580887.4354536444,394681.7984747563,159701.9520598273,10112.384914569433,2.437144407728851e-06,0.0,0.0,0.0,2.437144407728851e-06,0.0,23.475874973565247,3.0112054243507966,0.00035603392205289255,0.0
6161,6.8965517241379315,4.482758620689656,3.928571428571429,0,421711.98842355463,402900.09072389087,372441.0618866221,-33215.61597463538,-46950.06160704838,2.8114132561570307e-06,0.0,0.0,0.0,2.8114132561570307e-06,0.0,24.951022546767675,3.2997239308894244,-0.001591761427352878,0.0
6162,6.8965517241379315,4.482758620689656,4.285714285714286,0,64486.69250808345,289719.9869560474,222181.67827524108,228794.50451271038,11572.858180001658,4.29911283387223e-07,0.0,0.0,0.0,4.29911283387223e-07,0.0,24.292127964123917,3.596169018077464,0.0003877676263824147,0.0
6163,6.8965517241379315,4.482758620689656,4.642857142857143,0,279862.037953555,405565.13344050734,137279.7049055305,115409.73727064939,-15921.022626751963,1.8657469196903666e-06,0.0,0.0,0.0,1.8657469196903666e-06,0.0,24.766978386625155,3.8972427735285695,-0.0005315397818464402,0.0
6164,6.8965517241379315,4.482758620689656,5.0,0,289547.59433322266,475778.2193635883,222091.00034569087,160334.75416969886,58228.85108826198,1.9303172955548177e-06,0.0,0.0,0.0,1.9303172955548177e-06,0.0,24.964719245245828,4.200155096165943,0.001941894798838639,0.0
6165,7.241379310344828,4.482758620689656,0.0,0,314900.2832082704,592318.3419565562,364487.745864682,232980.7487172833,3971.851705294138,2.0993352213884694e-06,0.0,0.0,0.0,2.0993352213884694e-06,0.0,24.43921496874148,-0.04985136057013025,0.00013245870430412577,0.0
6166,7.241379310344828,4.482758620689656,0.35714285714285715,0,300139.34192706237,330981.1984508807,488462.4304389012,142358.07204315555,-6962.873424008745,2.000928946180416e-06,0.0,0.0,0.0,2.000928946180416e-06,0.0,23.346927534396112,0.2543517350039336,-0.0002324627197378107,0.0
6167,7.241379310344828,4.482758620689656,0.7142857142857143,0,222849.4172248996,399404.17731933366,268154.371039703,142097.3005326807,61833.63641210113,1.4856627814993306e-06,0.0,0.0,0.0,1.4856627814993306e-06,0.0,25.060506644883993,0.5603168572321192,0.0020718375745368608,0.0
6168,7.241379310344828,4.482758620689656,1.0714285714285714,0,111984.86241986508,414833.6229731116,519676.63039323373,401706.9210820712,-21412.288073938238,7.465657494657671e-07,0.0,0.0,0.0,7.465657494657671e-07,0.0,25.259585318174313,0.8707179537959276,-0.0007259469542920938,0.0
6169,7.241379310344828,4.482758620689656,1.4285714285714286,0,603286.035309368,664558.0793749124,452722.59848366876,-16075.536243805476,6404.440891223972,4.021906902062454e-06,0.0,0.0,0.0,4.021906902062454e-06,0.0,24.768267949951515,1.1887156432308708,0.0002254857017728028,0.0
6170,7.241379310344828,4.482758620689656,1.7857142857142858,0,562222.7172179946,743662.8743607753,315580.0993767257,106947.57345859955,229368.93754860281,3.748151448119964e-06,0.0,0.0,0.0,3.748151448119964e-06,0.0,24.003215825269514,1.5140841445134887,0.009059499244797766,0.0
6171,7.241379310344828,4.482758620689656,2.142857142857143,0,668691.436903936,908215.9134715877,824191.004634506,201483.14282234764,448024.46916154044,4.457942912692907e-06,0.0,0.0,0.0,4.457942912692907e-06,0.0,24.986098446787746,1.8392051807405374,0.02401639441944622,0.0
6172,7.241379310344828,4.482758620689656,2.5,0,408265.9643430301,1451414.0901734226,1139464.1070362937,989340.2523860213,900184.3746424171,2.7217730956202008e-06,0.0,0.0,0.0,2.7217730956202008e-06,0.0,24.234888625857177,2.1519971309239203,0.09001843746424171,0.0
6173,7.241379310344828,4.482758620689656,2.857142857142857,0,752095.0811611894,1019768.7366947642,238448.9124258425,300777.4214625459,585338.9675690462,5.013967207741262e-06,0.0,0.0,0.0,5.013967207741262e-06,0.0,24.347167917080732,2.446348037883394,0.031377151208991164,0.0
6174,7.241379310344828,4.482758620689656,3.2142857142857144,0,261999.13887951948,565508.5459772747,620752.8996942143,335536.86652234563,37557.44173708466,1.7466609258634632e-06,0.0,0.0,0.0,1.7466609258634632e-06,0.0,24.984149993051112,2.728369858799203,0.0014834249950761353,0.0
6175,7.241379310344828,4.482758620689656,3.5714285714285716,0,303809.46626439184,429448.43913644383,488576.10434549215,159549.20023289428,54081.93216122613,2.0253964417626124e-06,0.0,0.0,0.0,2.0253964417626124e-06,0.0,24.7138714715266,3.010144214659442,0.0019041010189216722,0.0
6176,7.241379310344828,4.482758620689656,3.928571428571429,0,329240.8852932489,605888.4264722756,350796.6075562228,234220.2454160661,-14681.041020973138,2.1949392352883263e-06,0.0,0.0,0.0,2.1949392352883263e-06,0.0,23.218386429161985,3.299289382367357,-0.0004977355515772556,0.0
6177,7.241379310344828,4.482758620689656,4.285714285714286,0,257820.9405466466,470210.814155362,300269.8822174143,173552.6132478617,89081.51607151957,1.7188062703109774e-06,0.0,0.0,0.0,1.7188062703109774e-06,0.0,24.503520621811152,3.596031142946405,0.0029848225480972,0.0
6178,7.241379310344828,4.482758620689656,4.642857142857143,0,217401.75147872692,444648.56721941754,289633.50115144835,196140.24905572805,62836.24277214258,1.4493450098581794e-06,0.0,0.0,0.0,1.4493450098581794e-06,0.0,24.997000354253018,3.8972088778610767,0.0020978528551949256,0.0
6179,7.241379310344828,4.482758620689656,5.0,0,128137.64069605869,413431.70154249057,284493.62955195684,286109.78051658097,32346.71200346002,8.542509379737246e-07,0.0,0.0,0.0,8.542509379737246e-07,0.0,23.72726921295691,4.2001486394298695,0.0010787420775972116,0.0
6180,7.586206896551724,4.482758620689656,0.0,0,258896.1646743489,470548.44869523455,206638.95341914738,216975.2081770855,46439.90934749443,1.725974431162326e-06,0.0,0.0,0.0,1.725974431162326e-06,0.0,24.735190532115993,-0.04985786884488096,0.001548741160696136,0.0
6181,7.586206896551724,4.482758620689656,0.35714285714285715,0,311943.5681031812,469582.1557670672,250119.2438298934,112493.03892260155,-30930.105662989215,2.0796237873545413e-06,0.0,0.0,0.0,2.0796237873545413e-06,0.0,23.416306385471145,0.2543175687759217,-0.0010326335187142853,0.0
6182,7.586206896551724,4.482758620689656,0.7142857142857143,0,239013.8889041773,472145.89927720616,275089.0087619139,206273.27122723378,76622.55698422753,1.5934259260278486e-06,0.0,0.0,0.0,1.5934259260278486e-06,0.0,24.148523322212235,0.560177881560201,0.0025673646550398634,0.0
6183,7.586206896551724,4.482758620689656,1.0714285714285714,0,119614.11527336869,470133.4693622748,332136.0869249358,406142.6123024842,-41268.7739692872,7.974274351557913e-07,0.0,0.0,0.0,7.974274351557913e-07,0.0,24.531370629955678,0.8702799366395967,-0.0013991471003436163,0.0
6184,7.586206896551724,4.482758620689656,1.4285714285714286,0,334534.90882883413,626878.5180747671,314377.7476723045,273978.5546931672,28452.050012980817,2.230232725525561e-06,0.0,0.0,0.0,2.230232725525561e-06,0.0,24.13883221592714,1.1876459627977942,0.0010017315442544074,0.0
6185,7.586206896551724,4.482758620689656,1.7857142857142858,0,407653.07412750425,768591.8538788593,402553.0217054146,329266.54856711335,25966.55618940082,2.7176871608500283e-06,0.0,0.0,0.0,2.7176871608500283e-06,0.0,24.858942109636455,1.5120600649812643,0.00102561401165329,0.0
6186,7.586206896551724,4.482758620689656,2.142857142857143,0,797421.1427144837,911806.179024193,965695.2571758868,142696.4144937825,525039.780446536,5.316140951429891e-06,0.0,0.0,0.0,5.316140951429891e-06,0.0,23.567515279529797,1.836237537528638,0.02814480752960154,0.0
6187,7.586206896551724,4.482758620689656,2.5,0,393256.307537029,1170348.156903287,1032452.7217445046,726715.0244230274,1002290.4033480694,2.6217087169135264e-06,0.0,0.0,0.0,2.6217087169135264e-06,0.0,24.687211206742543,2.1486257611365893,0.10022904033480695,0.0
6188,7.586206896551724,4.482758620689656,2.857142857142857,0,29380.859246766613,684860.1523868521,671210.2806617888,651137.3422310738,478696.9874498236,1.958723949784441e-07,0.0,0.0,0.0,1.958723949784441e-07,0.0,24.310781600874122,2.443380394671495,0.025660597689030323,0.0
6189,7.586206896551724,4.482758620689656,3.2142857142857144,0,632868.4680441802,1075182.6006534512,613005.9790629636,353872.8340997002,104694.06891492504,4.2191231202945345e-06,0.0,0.0,0.0,4.2191231202945345e-06,0.0,23.862786186267403,2.7263457792669787,0.004135153819895898,0.0
6190,7.586206896551724,4.482758620689656,3.5714285714285716,0,361060.3215271349,626232.9524003471,325449.90546828386,225817.9804540255,645.2655087338062,2.4070688101808995e-06,0.0,0.0,0.0,2.4070688101808995e-06,0.0,24.51317731375861,3.009074534226366,2.2718321323880676e-05,0.0
6191,7.586206896551724,4.482758620689656,3.928571428571429,0,101084.10740911159,383281.0946410396,327500.8517971912,444185.2306455266,4911.555466511718,6.738940493940772e-07,0.0,0.0,0.0,6.738940493940772e-07,0.0,24.263366908107425,3.298851365211026,0.00016651787606438077,0.0
6192,7.586206896551724,4.482758620689656,4.285714285714286,0,156471.8324416938,420934.72049443045,399245.33175521524,254749.71532382403,-14970.375787963645,1.043145549611292e-06,0.0,0.0,0.0,1.043145549611292e-06,0.0,25.043047926817565,3.595892167274487,-0.0005016070356226038,0.0
6193,7.586206896551724,4.482758620689656,4.642857142857143,0,118169.43615121748,388021.4770840436,257570.21372505027,288142.3238471556,72628.58771462674,7.877962410081165e-07,0.0,0.0,0.0,7.877962410081165e-07,0.0,24.599707454895327,3.897174711633065,0.0024247804035389103,0.0
6194,7.586206896551724,4.482758620689656,5.0,0,386882.16181938915,581726.9190023124,206956.2175610255,183775.66852591935,35297.83996983034,2.579214412129261e-06,0.0,0.0,0.0,2.579214412129261e-06,0.0,24.519063760800336,4.200142131155119,0.0011771603005484971,0.0
6195,7.931034482758621,4.482758620689656,0.0,0,145353.90205211088,323031.02787412354,302706.26840245596,168584.4322444894,-15673.153037566706,9.690260136807392e-07,0.0,0.0,0.0,9.690260136807392e-07,0.0,23.81314478192139,-0.04986441114716161,-0.0005226895910915223,0.0
6196,7.931034482758621,4.482758620689656,0.35714285714285715,0,249414.01414054242,461565.5871962479,192815.64974173348,237538.7708118194,2725.2907286477016,1.6627600942702828e-06,0.0,0.0,0.0,1.6627600942702828e-06,0.0,24.227640462101217,0.25428322391495545,9.098664535150235e-05,0.0
6197,7.931034482758621,4.482758620689656,0.7142857142857143,0,237524.97278682032,442849.4741936393,291753.7271527991,169070.2481655809,132001.39973136852,1.5834998185788021e-06,0.0,0.0,0.0,1.5834998185788021e-06,0.0,23.871510271446397,0.560038179275007,0.004422923763244609,0.0
6198,7.931034482758621,4.482758620689656,1.0714285714285714,0,319351.32741419505,543495.1736948625,300284.2713278173,181844.69954988774,12991.384682288948,2.129008849427967e-06,0.0,0.0,0.0,2.129008849427967e-06,0.0,24.13267863687764,0.8698396293768288,0.00044045064729086766,0.0
6199,7.931034482758621,4.482758620689656,1.4285714285714286,0,366396.2606421363,530699.6575876054,112331.19222982711,266998.54487901024,85558.73994296505,2.442641737614242e-06,0.0,0.0,0.0,2.442641737614242e-06,0.0,24.79123671627631,1.1865706897023987,0.0030123273594846473,0.0
6200,7.931034482758621,4.482758620689656,1.7857142857142858,0,350141.290314371,503364.54442883376,625851.1902099025,230921.35367671298,37017.88805097347,2.334275268762473e-06,0.0,0.0,0.0,2.334275268762473e-06,0.0,24.03041976447131,1.5100254028554159,0.0014621139742199817,0.0
6201,7.931034482758621,4.482758620689656,2.142857142857143,0,505220.8067511017,1092494.5259715808,763157.1272262323,510811.77178184217,488311.27850329556,3.368138711674011e-06,0.0,0.0,0.0,3.368138711674011e-06,0.0,23.454952185639662,1.8332543784431614,0.026175972678337614,0.0
6202,7.931034482758621,4.482758620689656,2.5,0,634552.017274529,1090275.6198600056,1267319.5479485819,563047.7578609571,696405.0834921541,4.230346781830193e-06,0.0,0.0,0.0,4.230346781830193e-06,0.0,24.430030367091852,2.1452367646523585,0.06964050834921542,0.0
6203,7.931034482758621,4.482758620689656,2.857142857142857,0,426801.6621401092,1168572.446234284,854769.229400695,682573.1097271416,372260.20148930163,2.845344414267395e-06,0.0,0.0,0.0,2.845344414267395e-06,0.0,24.58092432680216,2.440397235586018,0.019955043621526045,0.0
6204,7.931034482758621,4.482758620689656,3.2142857142857144,0,680336.301001873,999057.7645302154,657678.1468190652,215626.20752991602,143403.63521054306,4.535575340012486e-06,0.0,0.0,0.0,4.535575340012486e-06,0.0,24.986718208014924,2.7243111171411303,0.005664084852884138,0.0
6205,7.931034482758621,4.482758620689656,3.5714285714285716,0,451305.6179378458,353429.1600840907,508375.5415745744,7.381109895068994,-41726.1914407806,3.008704119585639e-06,0.0,0.0,0.0,3.008704119585639e-06,0.0,24.6291571700081,3.0079992611309705,-0.0014690836747706505,0.0
6206,7.931034482758621,4.482758620689656,3.928571428571429,0,206601.51161409795,391731.918209271,314174.7395414252,157574.60017377438,-55294.425294948,1.377343410760653e-06,0.0,0.0,0.0,1.377343410760653e-06,0.0,24.06586850989635,3.298411057948258,-0.001874662786788126,0.0
6207,7.931034482758621,4.482758620689656,4.285714285714286,0,160883.798468229,402636.98199753184,316798.0029420703,217038.31085733612,31024.85015192555,1.0725586564548601e-06,0.0,0.0,0.0,1.0725586564548601e-06,0.0,24.33683768613784,3.595752464989293,0.0010395385751007747,0.0
6208,7.931034482758621,4.482758620689656,4.642857142857143,0,212221.20014132903,416793.4566159292,173856.7436973088,267501.4963884532,-22028.671676974554,1.4148080009421935e-06,0.0,0.0,0.0,1.4148080009421935e-06,0.0,24.405831594196417,3.8971403667720987,-0.0007354499526852741,0.0
6209,7.931034482758621,4.482758620689656,5.0,0,363353.2584345414,517925.9982080889,427643.91607234895,117943.51417036902,-12632.088593213468,2.422355056230276e-06,0.0,0.0,0.0,2.422355056230276e-06,0.0,24.43300256026383,4.200135588852839,-0.0004212720443418646,0.0
6210,8.275862068965518,4.482758620689656,0.0,0,182516.05415216053,439214.0896846942,305246.1455294121,231334.58014266143,-81951.99076034612,1.216773694347737e-06,0.0,0.0,0.0,1.216773694347737e-06,0.0,22.815402370122733,-0.049870977046245824,-0.0027330462758189105,0.0
6211,8.275862068965518,4.482758620689656,0.35714285714285715,0,242079.46536922082,492943.04843844904,227026.87826850227,285359.83095788973,-57765.26473618273,1.6138631024614721e-06,0.0,0.0,0.0,1.6138631024614721e-06,0.0,23.770438214679206,0.25424875517879925,-0.0019285530167251854,0.0
6212,8.275862068965518,4.482758620689656,0.7142857142857143,0,142450.74583890298,399410.5189425227,387128.9202480944,251216.60720352922,10081.440985450694,9.496716389260198e-07,0.0,0.0,0.0,9.496716389260198e-07,0.0,24.300436938530947,0.5598979731110191,0.00033779524302803194,0.0
6213,8.275862068965518,4.482758620689656,1.0714285714285714,0,373120.6608061097,491993.93121570745,124196.75668912884,113768.41239611768,-10685.181144752229,2.4874710720407313e-06,0.0,0.0,0.0,2.4874710720407313e-06,0.0,24.616335990182105,0.8693977340119609,-0.00036226276618860716,0.0
6214,8.275862068965518,4.482758620689656,1.4285714285714286,0,425553.6344469706,631643.718391039,335699.6509635367,143953.08420496254,56567.62127300921,2.8370242296464706e-06,0.0,0.0,0.0,2.8370242296464706e-06,0.0,23.754249424718022,1.185491538307449,0.0019916164419350162,0.0
6215,8.275862068965518,4.482758620689656,1.7857142857142858,0,298624.8014622106,668333.3914296606,690353.3889002041,381328.10224853596,12030.653749707373,1.9908320097480707e-06,0.0,0.0,0.0,1.9908320097480707e-06,0.0,23.86864328991672,1.5079834021015954,0.0004751807272804856,0.0
6216,8.275862068965518,4.482758620689656,2.142857142857143,0,576771.1199647617,1341403.349282327,710516.4701930783,841159.3843862414,418283.60661702824,3.8451407997650776e-06,0.0,0.0,0.0,3.8451407997650776e-06,0.0,23.961610556836707,1.8302604596868617,0.02242213264490461,0.0
6217,8.275862068965518,4.482758620689656,2.5,0,747014.574347888,1379308.311752869,759513.1144625054,549871.2927072659,793956.2927201164,4.980097162319253e-06,0.0,0.0,0.0,4.980097162319253e-06,0.0,24.01814241162442,2.1418355447212565,0.07939562927201164,0.0
6218,8.275862068965518,4.482758620689656,2.857142857142857,0,869113.2972184815,1402680.9006613544,715520.5054066723,425684.67324233486,413867.46058213944,5.79408864812321e-06,0.0,0.0,0.0,5.79408864812321e-06,0.0,24.517547217534005,2.4374033168297187,0.022185404715320208,0.0
6219,8.275862068965518,4.482758620689656,3.2142857142857144,0,596933.3298814141,751470.5752206355,233349.09273832847,98719.60376533838,129265.76962608585,3.97955553254276e-06,0.0,0.0,0.0,3.97955553254276e-06,0.0,23.725826513543783,2.72226911638731,0.00510567452952332,0.0
6220,8.275862068965518,4.482758620689656,3.5714285714285716,0,362937.8323443088,588291.5257179297,460846.95961290825,178820.371265218,-52479.00913825221,2.4195855489620585e-06,0.0,0.0,0.0,2.4195855489620585e-06,0.0,24.532194408776565,3.0069201097360208,-0.0018476657689346931,0.0
6221,8.275862068965518,4.482758620689656,3.928571428571429,0,300330.20769361034,466544.3466043436,317694.7624160019,120861.21893593561,24398.038883242498,2.002201384624069e-06,0.0,0.0,0.0,2.002201384624069e-06,0.0,24.81391989858048,3.29796916258339,0.0008271737217821001,0.0
6222,8.275862068965518,4.482758620689656,4.285714285714286,0,228505.41245962615,447764.6964329691,294718.9332854888,185103.50791974404,52012.25493134956,1.5233694163975076e-06,0.0,0.0,0.0,1.5233694163975076e-06,0.0,23.912422758401153,3.5956122588253048,0.0017427560524658201,0.0
6223,8.275862068965518,4.482758620689656,4.642857142857143,0,377545.0131554591,478664.6279606571,294113.8042524002,44342.461904696385,-37469.58934239207,2.516966754369727e-06,0.0,0.0,0.0,2.516966754369727e-06,0.0,23.899054323926443,3.8971058980359423,-0.0012509609345988317,0.0
6224,8.275862068965518,4.482758620689656,5.0,0,304740.2321911852,503857.08742528595,319786.09010261757,152100.5652128805,18230.71551691459,2.0316015479412344e-06,0.0,0.0,0.0,2.0316015479412344e-06,0.0,24.197503501449525,4.200129022953754,0.0006079826577333899,0.0
6225,8.620689655172415,4.482758620689656,0.0,0,272152.42630894843,342356.1183839739,379143.92937905825,90468.80761318182,16311.491540160145,1.8143495087263229e-06,0.0,0.0,0.0,1.8143495087263229e-06,0.0,23.661770979038312,-0.049877559959333934,0.0005439777703174134,0.0
6226,8.620689655172415,4.482758620689656,0.35714285714285715,0,298490.7685642624,587406.4693554522,314805.02387487184,268450.1202044005,26878.900321672805,1.9899384570950827e-06,0.0,0.0,0.0,1.9899384570950827e-06,0.0,23.915797637394657,0.25421419712491156,0.0008973798447624527,0.0
6227,8.620689655172415,4.482758620689656,0.7142857142857143,0,158606.5421374308,287635.7923317719,195861.10462021455,104492.88308654464,74.68391556105186,1.0573769475828721e-06,0.0,0.0,0.0,1.0573769475828721e-06,0.0,23.22965506212116,0.5597574036352913,2.502407289160232e-06,0.0
6228,8.620689655172415,4.482758620689656,1.0714285714285714,0,261908.67607474228,407204.4733887294,384587.7487295718,134720.84916114243,67221.26372612781,1.7460578404982818e-06,0.0,0.0,0.0,1.7460578404982818e-06,0.0,24.397072282565155,0.8689546935777942,0.002279021816684944,0.0
6229,8.620689655172415,4.482758620689656,1.4285714285714286,0,253085.6157200603,537974.9700367717,438493.354148012,250263.81738632772,122602.0368337049,1.6872374381337353e-06,0.0,0.0,0.0,1.6872374381337353e-06,0.0,24.80546493575069,1.1844095905420704,0.004316537037933322,0.0
6230,8.620689655172415,4.482758620689656,1.7857142857142858,0,527153.6195683337,850225.3984901347,582100.1402475404,242905.36261934775,131833.7207946125,3.5143574637888915e-06,0.0,0.0,0.0,3.5143574637888915e-06,0.0,23.642082516150797,1.5059361099766568,0.005207102176704254,0.0
6231,8.620689655172415,4.482758620689656,2.142857142857143,0,492739.3718156048,1530562.9758434873,1064858.7640370005,1014635.2989940548,475439.87010763417,3.2849291454373653e-06,0.0,0.0,0.0,3.2849291454373653e-06,0.0,23.160311060589898,1.8272587828848277,0.025485999603111414,0.0
6232,8.620689655172415,4.482758620689656,2.5,0,144325.41337638133,860360.269676949,966798.0141112586,802524.7414136825,791947.0946786448,9.621694225092088e-07,0.0,0.0,0.0,9.621694225092088e-07,0.0,24.448600226929223,2.1384255113179376,0.07919470946786449,0.0
6233,8.620689655172415,4.482758620689656,2.857142857142857,0,590408.2861096675,1045556.0608006935,1073268.90827802,469492.1993562833,286050.34569222666,3.936055240731117e-06,0.0,0.0,0.0,3.936055240731117e-06,0.0,23.783646387201966,2.4344016400276844,0.015333756075466567,0.0
6234,8.620689655172415,4.482758620689656,3.2142857142857144,0,365710.5264920336,451344.8776682979,770872.3280660837,372004.3462785673,-29379.43194033428,2.4380701766135574e-06,0.0,0.0,0.0,2.4380701766135574e-06,0.0,23.663709372082177,2.7202218242623712,-0.001160414066179499,0.0
6235,8.620689655172415,4.482758620689656,3.5714285714285716,0,546197.3693442866,551780.5031905377,447676.84651901375,-38976.61357233093,-56381.11294862541,3.6413157956285776e-06,0.0,0.0,0.0,3.6413157956285776e-06,0.0,23.94136799131151,3.005838161970642,-0.001985049910816308,0.0
6236,8.620689655172415,4.482758620689656,3.928571428571429,0,218675.1544805598,497464.58149437705,259699.87141538193,304963.0701986085,12840.69034016398,1.457834363203732e-06,0.0,0.0,0.0,1.457834363203732e-06,0.0,23.396674797021515,3.2975261221492236,0.00043534161371552437,0.0
6237,8.620689655172415,4.482758620689656,4.285714285714286,0,341185.82819026604,603676.860118921,308599.5649217655,230074.47869241197,-8820.047855279452,2.274572187935107e-06,0.0,0.0,0.0,2.274572187935107e-06,0.0,24.252834865223683,3.595471689349577,-0.00029553019385748064,0.0
6238,8.620689655172415,4.482758620689656,4.642857142857143,0,275829.260606854,467526.4661687655,432669.1355153931,175925.39909143836,69714.79356952135,1.8388617373790266e-06,0.0,0.0,0.0,1.8388617373790266e-06,0.0,23.384264109953342,3.897071339982055,0.0023275003769637126,0.0
6239,8.620689655172415,4.482758620689656,5.0,0,346100.04333356296,551725.0489976112,182785.2863024375,234221.98148087363,-114342.2074600589,2.307333622223753e-06,0.0,0.0,0.0,2.307333622223753e-06,0.0,23.42911658915366,4.2001224400406665,-0.003813239207104618,0.0
6240,8.965517241379311,4.482758620689656,0.0,0,247089.13409792414,509035.8232399475,283336.87034266564,245030.707845666,1856.4003041086464,1.6472608939861609e-06,0.0,0.0,0.0,1.6472608939861609e-06,0.0,23.258496133202573,-0.04988415553420404,6.190975826822979e-05,0.0
6241,8.965517241379311,4.482758620689656,0.35714285714285715,0,235524.32743634935,416215.9675875254,287859.7790232687,144395.8123994056,19758.376146119394,1.5701621829089958e-06,0.0,0.0,0.0,1.5701621829089958e-06,0.0,23.94413160059838,0.2541795726009765,0.0006596537918802512,0.0
6242,8.965517241379311,4.482758620689656,0.7142857142857143,0,101146.8210444068,328477.7797918467,241008.1625929746,217717.01384974126,41062.62595779369,6.743121402960453e-07,0.0,0.0,0.0,6.743121402960453e-07,0.0,22.960022620570037,0.5596165637838144,0.0013758707445493215,0.0
6243,8.965517241379311,4.482758620689656,1.0714285714285714,0,182779.57267448812,497112.4624522296,412097.00012900226,287309.6310588864,7055.33808100721,1.2185304844965876e-06,0.0,0.0,0.0,1.2185304844965876e-06,0.0,24.915738504211717,0.8685108009857277,0.00023919915394946334,0.0
6244,8.965517241379311,4.482758620689656,1.4285714285714286,0,139965.5036680663,384170.90279345424,424573.2210812477,268850.5443662127,26858.5268104062,9.331033577871086e-07,0.0,0.0,0.0,9.331033577871086e-07,0.0,23.68857319201956,1.1833255617243443,0.0009456272404242082,0.0
6245,8.965517241379311,4.482758620689656,1.7857142857142858,0,647414.8312583322,987590.5144938861,437528.4689928871,274130.7366329383,96433.9046054234,4.316098875055548e-06,0.0,0.0,0.0,4.316098875055548e-06,0.0,22.82297051976874,1.5038848800256792,0.0038088979932629718,0.0
6246,8.965517241379311,4.482758620689656,2.142857142857143,0,526616.9571973118,1124494.82735045,954255.3335315222,533816.6706939404,489429.11280781904,3.5107797146487453e-06,0.0,0.0,0.0,3.5107797146487453e-06,0.0,23.355438241440012,1.824251332563262,0.026235894292894215,0.0
6247,8.965517241379311,4.482758620689656,2.5,0,774915.7826720052,1694288.5421307203,913873.2775677565,924991.894759107,786367.7625920271,5.166105217813369e-06,0.0,0.0,0.0,5.166105217813369e-06,0.0,24.189934183739258,2.1350089189491617,0.0786367762592027,0.0
6248,8.965517241379311,4.482758620689656,2.857142857142857,0,425148.34635919944,1050545.831043247,606604.0459176118,647086.9637367562,684257.227956298,2.8343223090613295e-06,0.0,0.0,0.0,2.8343223090613295e-06,0.0,24.569448936046378,2.4313941897061193,0.03667967399573019,0.0
6249,8.965517241379311,4.482758620689656,3.2142857142857144,0,603570.8089094555,826575.9964471837,437236.66424167634,131297.81596823427,127952.03765886695,4.023805392729704e-06,0.0,0.0,0.0,4.023805392729704e-06,0.0,23.981605699746076,2.718170594311394,0.005053785403244552,0.0
6250,8.965517241379311,4.482758620689656,3.5714285714285716,0,248777.93436138192,570506.9712032293,431060.5103764441,283283.2257392305,17691.7214498831,1.6585195624092127e-06,0.0,0.0,0.0,1.6585195624092127e-06,0.0,23.947565743590133,3.004754133152916,0.0006228850097066703,0.0
6251,8.965517241379311,4.482758620689656,3.928571428571429,0,215515.8792917234,466951.5159520195,418329.1317761792,231278.09439847927,-34478.172522896966,1.4367725286114892e-06,0.0,0.0,0.0,1.4367725286114892e-06,0.0,23.144393331842334,3.297082229557157,-0.001168923388576049,0.0
6252,8.965517241379311,4.482758620689656,4.285714285714286,0,135783.05653585697,417781.52696400456,275624.8570530331,289426.239033635,-15648.627543961253,9.052203769057131e-07,0.0,0.0,0.0,9.052203769057131e-07,0.0,24.65864482613878,3.5953308494981,-0.0005243329750078611,0.0
6253,8.965517241379311,4.482758620689656,4.642857142857143,0,267011.7198919104,491686.3821442306,368773.84263030766,185353.32850951,68846.75998806556,1.7800781326127358e-06,0.0,0.0,0.0,1.7800781326127358e-06,0.0,24.196915645156697,3.89703671545812,0.002298520179438767,0.0
6254,8.965517241379311,4.482758620689656,5.0,0,280204.3020405252,371380.61276429455,463264.7538478125,148654.8040479889,-113268.14541871981,1.868028680270168e-06,0.0,0.0,0.0,1.868028680270168e-06,0.0,24.084226689787954,4.200115844465796,-0.0037774199276112805,0.0
6255,9.310344827586208,4.482758620689656,0.0,0,248268.45223879776,343998.3734842033,203385.2342016574,57339.81477678214,2577.2882939688106,1.6551230149253184e-06,0.0,0.0,0.0,1.6551230149253184e-06,0.0,23.76809448187351,-0.04989076078145035,8.595090989481392e-05,0.0
6256,9.310344827586208,4.482758620689656,0.35714285714285715,0,388193.4772242128,566656.3128292549,349976.0142260275,118490.60253003529,-1131.0557108320934,2.5879565148280853e-06,0.0,0.0,0.0,2.5879565148280853e-06,0.0,24.029887173686515,0.25414489730035744,-3.7761462934024603e-05,0.0
6257,9.310344827586208,4.482758620689656,0.7142857142857143,0,199055.04769480103,521509.9952358002,394345.02939597797,292112.2065989646,22774.96005510901,1.3270336512986735e-06,0.0,0.0,0.0,1.3270336512986735e-06,0.0,23.369080798594776,0.5594755173914288,0.0007631124536534038,0.0
6258,9.310344827586208,4.482758620689656,1.0714285714285714,0,233978.70290474832,475252.88427386,319423.50827918015,206199.66641971705,12741.122886216226,1.5598580193649888e-06,0.0,0.0,0.0,1.5598580193649888e-06,0.0,24.24351239655551,0.8680662574274864,0.00043196594971873906,0.0
6259,9.310344827586208,4.482758620689656,1.4285714285714286,0,452618.79444546695,726647.552617551,516577.3964251049,207165.04698288985,89480.44898864451,3.0174586296364462e-06,0.0,0.0,0.0,3.0174586296364462e-06,0.0,24.18027200396172,1.182239943184002,0.0031504017568181487,0.0
6260,9.310344827586208,4.482758620689656,1.7857142857142858,0,327097.9295434378,739043.5239857549,889999.9828922835,514684.8541964394,89921.87127743814,2.1806528636229186e-06,0.0,0.0,0.0,2.1806528636229186e-06,0.0,23.734239592289065,1.5018306419566607,0.0035516889672828115,0.0
6261,9.310344827586208,4.482758620689656,2.142857142857143,0,677925.6348061853,1462974.7821612062,889292.4051531488,714885.7599927167,428929.02480047086,4.519504232041235e-06,0.0,0.0,0.0,4.519504232041235e-06,0.0,23.652001284145392,1.8212394718314613,0.022992781302403092,0.0
6262,9.310344827586208,4.482758620689656,2.5,0,922285.4288620081,1409058.505961067,889285.5355114131,344195.33990403387,915009.2612572027,6.148569525746721e-06,0.0,0.0,0.0,6.148569525746721e-06,0.0,22.713563440403632,2.1315873161654686,0.09150092612572026,0.0
6263,9.310344827586208,4.482758620689656,2.857142857142857,0,257624.74876516694,919810.594154952,1035903.9037404215,740660.5609892866,613682.4400807709,1.717498325101113e-06,0.0,0.0,0.0,1.717498325101113e-06,0.0,22.931412942619584,2.428382328974318,0.03289650575748765,0.0
6264,9.310344827586208,4.482758620689656,3.2142857142857144,0,887720.6254119321,1069473.5807678464,678110.4961429972,53320.15546585579,135886.5388962709,5.918137502746214e-06,0.0,0.0,0.0,5.918137502746214e-06,0.0,24.075134620933536,2.716116356242375,0.005367178353206995,0.0
6265,9.310344827586208,4.482758620689656,3.5714285714285716,0,486036.9055218407,653119.6372548329,106969.07048528711,268144.65618403145,61992.318851168064,3.240246036812271e-06,0.0,0.0,0.0,3.240246036812271e-06,0.0,24.259351867728924,3.0036685146125737,0.002182607624630217,0.0
6266,9.310344827586208,4.482758620689656,3.928571428571429,0,206446.18018237012,457717.81286966533,328093.28395692044,219648.12017426078,-9897.180128883383,1.3763078678824674e-06,0.0,0.0,0.0,1.3763078678824674e-06,0.0,24.346746256788144,3.296637685998916,-0.00033554694135598095,0.0
6267,9.310344827586208,4.482758620689656,4.285714285714286,0,236740.942111718,521510.2930570652,282774.56160656846,286815.88412280084,5715.972857556953,1.5782729474114532e-06,0.0,0.0,0.0,1.5782729474114532e-06,0.0,23.1428685069479,3.595189803105715,0.00019152306137055336,0.0
6268,9.310344827586208,4.482758620689656,4.642857142857143,0,178035.40903598611,417202.0959838841,353700.8020668256,216122.49071120413,67429.4041379967,1.186902726906574e-06,0.0,0.0,0.0,1.186902726906574e-06,0.0,24.967916598407157,3.8970020401575005,0.0022512002906975455,0.0
6269,9.310344827586208,4.482758620689656,5.0,0,323187.5150369385,529002.3943337273,300054.5492472921,159308.30595626455,23899.85439195241,2.15458343357959e-06,0.0,0.0,0.0,2.15458343357959e-06,0.0,24.326071262802394,4.20010923921855,0.00079704479943086,0.0
6270,9.655172413793103,4.482758620689656,0.0,0,123459.95732836542,235323.085761131,308014.986041592,165465.09629113122,-10915.471665169907,8.230663821891028e-07,0.0,0.0,0.0,8.230663821891028e-07,0.0,23.375039778883025,-0.04989737358135164,-0.0003640239719195988,0.0
6271,9.655172413793103,4.482758620689656,0.35714285714285715,0,163168.9045743546,359082.50297859375,237883.64389198128,423411.9285371911,1468.369085527783,1.087792697162364e-06,0.0,0.0,0.0,1.087792697162364e-06,0.0,23.748162303322335,0.25411018235086946,4.9023018287784645e-05,0.0
6272,9.655172413793103,4.482758620689656,0.7142857142857143,0,305971.6780245835,541154.3945951782,383247.12315460143,188489.89322863275,46940.13632805773,2.0398111868305565e-06,0.0,0.0,0.0,2.0398111868305565e-06,0.0,22.822545699610135,0.559334309722001,0.0015728063856732836,0.0
6273,9.655172413793103,4.482758620689656,1.0714285714285714,0,222064.54175392038,442940.1270525751,480675.68045005033,242161.18351238366,52805.638719751456,1.4804302783594691e-06,0.0,0.0,0.0,1.4804302783594691e-06,0.0,23.36751896493911,0.867621205563652,0.0017902847405042248,0.0
6274,9.655172413793103,4.482758620689656,1.4285714285714286,0,490712.5506688783,564284.6608409847,287403.913367198,-2293.0695266100383,-38815.93061842645,3.271417004459189e-06,0.0,0.0,0.0,3.271417004459189e-06,0.0,23.949836565417158,1.1811530833120378,-0.0013666200538213738,0.0
6275,9.655172413793103,4.482758620689656,1.7857142857142858,0,336908.5761426513,567061.2470930864,326424.48289331654,182020.65310861677,109894.3362621578,2.246057174284342e-06,0.0,0.0,0.0,2.246057174284342e-06,0.0,23.71678496863879,1.4997740550048815,0.00434055137114461,0.0
6276,9.655172413793103,4.482758620689656,2.142857142857143,0,902763.6536821107,1574854.4239165352,809521.0737044058,579259.6439733024,432790.6513348497,6.018424357880738e-06,0.0,0.0,0.0,6.018424357880738e-06,0.0,24.561746705487625,1.8182241672399355,0.02319978416125097,0.0
6277,9.655172413793103,4.482758620689656,2.5,0,1361278.293197014,1675133.2498917964,939332.279900263,104308.70621692309,771802.9089283753,9.075188621313427e-06,0.0,0.0,0.0,9.075188621313427e-06,0.0,22.95518659813766,2.128161801009634,0.07718029089283754,0.0
6278,9.655172413793103,4.482758620689656,2.857142857142857,0,503317.1727357195,1103733.7787596292,1074208.8254131214,586304.0321969454,586662.8496062947,3.35544781823813e-06,0.0,0.0,0.0,3.35544781823813e-06,0.0,23.641078371012714,2.4253670243827923,0.03144811803192135,0.0
6279,9.655172413793103,4.482758620689656,3.2142857142857144,0,458109.39255311305,713294.8294755782,352480.15120710194,197889.29407023438,63317.52704999513,3.0540626170207535e-06,0.0,0.0,0.0,3.0540626170207535e-06,0.0,23.136071642118974,2.714059769290596,0.002500883923614735,0.0
6280,9.655172413793103,4.482758620689656,3.5714285714285716,0,478697.8033852521,653362.576705049,320964.54811281187,104691.01449619308,-24374.151118071928,3.1913186892350137e-06,0.0,0.0,0.0,3.1913186892350137e-06,0.0,24.476641590304766,3.0025816547406095,-0.00085815805990278,0.0
6281,9.655172413793103,4.482758620689656,3.928571428571429,0,528801.9020439329,651072.0166130991,126093.276778363,118528.12692901693,-37697.63887039268,3.5253460136262194e-06,0.0,0.0,0.0,3.5253460136262194e-06,0.0,23.846527653345756,3.2961926341350813,-0.0012780738811035179,0.0
6282,9.655172413793103,4.482758620689656,4.285714285714286,0,190555.1080268426,538846.5570302204,441211.60998838814,319260.78424909146,-7892.388560990949,1.2703673868456174e-06,0.0,0.0,0.0,1.2703673868456174e-06,0.0,23.722805876617265,3.5950485954362867,-0.00026444744514986734,0.0
6283,9.655172413793103,4.482758620689656,4.642857142857143,0,388684.59217002173,647020.1787861518,338363.75155649945,210514.50392088157,-33165.88265658982,2.5912306144668115e-06,0.0,0.0,0.0,2.5912306144668115e-06,0.0,23.656750051352343,3.8969673252080126,-0.0011072772425061784,0.0
6284,9.655172413793103,4.482758620689656,5.0,0,236962.9251485075,367801.3661608652,273896.4567097054,98277.95897143777,-39001.387497990116,1.5797528343233833e-06,0.0,0.0,0.0,1.5797528343233833e-06,0.0,23.28951198269631,4.200102626418649,-0.0013006712328058388,0.0
6285,10.0,4.482758620689656,0.0,0,159733.43925067427,374961.8306534149,195321.84393683844,248921.98094256734,-39910.990574710944,1.0648895950044952e-06,0.0,0.0,0.0,1.0648895950044952e-06,0.0,24.163028430932194,-0.0499039923898561,-0.001331005911417553,0.0
6286,10.0,4.482758620689656,0.35714285714285715,0,121241.80531894758,341883.93628380215,203595.32685161845,253851.25596306124,-37253.26391084197,8.082787021263172e-07,0.0,0.0,0.0,8.082787021263172e-07,0.0,23.653842611275337,0.2540754358582593,-0.0012437386866698092,0.0
6287,10.0,4.482758620689656,0.7142857142857143,0,299959.2012843315,489730.0444335526,352263.582721724,145673.8189632093,-34229.188594622574,1.99972800856221e-06,0.0,0.0,0.0,1.99972800856221e-06,0.0,23.69565064454391,0.5591929737467328,-0.0011469051990344978,0.0
6288,10.0,4.482758620689656,1.0714285714285714,0,236192.70038893938,479870.9591067101,221834.46375943493,274368.2880601332,18796.775358134164,1.5746180025929292e-06,0.0,0.0,0.0,1.5746180025929292e-06,0.0,23.86917030426322,0.8671757493113467,0.0006372724752549271,0.0
6289,10.0,4.482758620689656,1.4285714285714286,0,175313.9053028697,522367.2867014354,388324.16547244723,323971.08381935355,-98820.0922297197,1.168759368685798e-06,0.0,0.0,0.0,1.168759368685798e-06,0.0,23.15185341335533,1.1800652358841561,-0.003479229213623512,0.0
6290,10.0,4.482758620689656,1.7857142857142858,0,437445.7211605727,896641.9829694264,855537.2363209614,440094.702778247,27135.283002737066,2.9163048077371513e-06,0.0,0.0,0.0,2.9163048077371513e-06,0.0,24.58512289688068,1.4977155993718982,0.001071775797097978,0.0
6291,10.0,4.482758620689656,2.142857142857143,0,982132.8845814244,1425210.406794885,720894.4217942584,303286.70452914084,419797.4960680729,6.547552563876163e-06,0.0,0.0,0.0,6.547552563876163e-06,0.0,24.37697039619195,1.8152061228454521,0.02250328483338166,0.0
6292,10.0,4.482758620689656,2.5,0,627179.3109917471,934839.6186100021,683048.8534443687,220892.4134221864,930796.7680690308,4.181195406611647e-06,0.0,0.0,0.0,4.181195406611647e-06,0.0,23.57896967523848,2.1247331733202994,0.09307967680690309,0.0
6293,10.0,4.482758620689656,2.857142857142857,0,883125.5014955113,1006885.4973394276,887738.3429100239,70235.17428931699,403127.03446629085,5.887503343303409e-06,0.0,0.0,0.0,5.887503343303409e-06,0.0,23.45114038677497,2.422348979988309,0.021609663148539543,0.0
6294,10.0,4.482758620689656,3.2142857142857144,0,631405.4892819872,898322.0454564587,351017.35587380326,207517.36102641985,69459.55247429346,4.209369928546581e-06,0.0,0.0,0.0,4.209369928546581e-06,0.0,23.92623959101284,2.7120013136576127,0.0027434785630094816,0.0
6295,10.0,4.482758620689656,3.5714285714285716,0,355369.46160942514,488341.82712080755,562442.5877662416,175865.00936246145,2033.9106991315166,2.3691297440628344e-06,0.0,0.0,0.0,2.3691297440628344e-06,0.0,24.171247917343674,3.0014938073127277,7.160933938282225e-05,0.0
6296,10.0,4.482758620689656,3.928571428571429,0,269203.78664298024,389581.40064321045,454653.19180410623,158878.00348935963,-84247.10595365288,1.7946919109532016e-06,0.0,0.0,0.0,1.7946919109532016e-06,0.0,24.491026138250657,3.295747177882776,-0.002856253837226141,0.0
6297,10.0,4.482758620689656,4.285714285714286,0,322226.2669812734,541636.9428262307,300207.1363388183,175741.48664800878,29663.751397745018,2.1481751132084894e-06,0.0,0.0,0.0,2.1481751132084894e-06,0.0,23.94303044451147,3.5949072594610185,0.0009939327251913127,0.0
6298,10.0,4.482758620689656,4.642857142857143,0,100402.24187613495,332862.95516262687,233484.6245337637,334880.3728412647,27694.004163032165,6.69348279174233e-07,0.0,0.0,0.0,6.69348279174233e-07,0.0,23.693641943428496,3.8969325787154023,0.0009245929282543602,0.0
6299,10.0,4.482758620689656,5.0,0,236163.0468162874,421404.2689483776,275729.6381218554,148924.3700722708,36526.33722636162,1.5744203121085825e-06,0.0,0.0,0.0,1.5744203121085825e-06,0.0,23.69866060324434,4.200096007610144,0.0012181298953156954,0.0
6300,0.0,4.827586206896552,0.0,0,265232.0857883485,477929.44188006286,287398.7712815556,175006.67954628155,112375.54601983418,1.7682139052556568e-06,0.0,0.0,0.0,1.7682139052556568e-06,0.0,22.630235885662547,-0.04990353466181586,0.0037476523107384152,0.0
6301,0.0,4.827586206896552,0.35714285714285715,0,358848.15364552406,397065.4659002379,348388.53424700047,16363.541483346246,-58244.07945621483,2.3923210243034936e-06,0.0,0.0,0.0,2.3923210243034936e-06,0.0,23.36016614314561,0.2540778387747294,-0.0019445387406197723,0.0
6302,0.0,4.827586206896552,0.7142857142857143,0,128255.67314288185,520453.8124196831,408543.2060456077,380495.3555473592,-66951.03248154903,8.550378209525457e-07,0.0,0.0,0.0,8.550378209525457e-07,0.0,23.760660083845963,0.5592027479287373,-0.0022433043372193555,0.0
6303,0.0,4.827586206896552,1.0714285714285714,0,300998.2138969775,410844.30740686046,228409.3121216414,63427.61159877627,33020.37378153276,2.0066547593131833e-06,0.0,0.0,0.0,2.0066547593131833e-06,0.0,22.455918710516617,0.867206555130437,0.0011194992190239744,0.0
6304,0.0,4.827586206896552,1.4285714285714286,0,482606.0618482507,690515.5582281861,486041.2199249874,139333.74364211972,-11409.92910799156,3.2173737456550045e-06,0.0,0.0,0.0,3.2173737456550045e-06,0.0,23.679487287146703,1.1801404666860311,-0.0004017174825703975,0.0
6305,0.0,4.827586206896552,1.7857142857142858,0,295693.9974732661,752326.722751084,635552.6633367575,416076.7692349959,5227.646917932478,1.9712933164884407e-06,0.0,0.0,0.0,1.9712933164884407e-06,0.0,23.188240876768777,1.4978579532203558,0.0002064789757987312,0.0
6306,0.0,4.827586206896552,2.142857142857143,0,713413.8301890376,1296907.4210584117,684259.4200593438,513659.8278746014,398938.13513096026,4.756092201260251e-06,0.0,0.0,0.0,4.756092201260251e-06,0.0,24.387498152222122,1.8154148376836474,0.021385116799968608,0.0
6307,0.0,4.827586206896552,2.5,0,785428.4096952797,1546082.0085787321,649343.1545258312,980271.7135361881,693077.7961246554,5.236189397968531e-06,0.0,0.0,0.0,5.236189397968531e-06,0.0,23.46138289454835,2.124970282315356,0.06930777961246554,0.0
6308,0.0,4.827586206896552,2.857142857142857,0,327646.4868613184,999895.2054885816,826960.9689330546,622013.3780371357,628457.5794154004,2.1843099124087895e-06,0.0,0.0,0.0,2.1843099124087895e-06,0.0,23.476644059619556,2.422557694826504,0.033688528511349326,0.0
6309,0.0,4.827586206896552,3.2142857142857144,0,137389.39421145196,454785.6848839882,376670.3397644537,296148.16333438584,255844.0962364247,9.15929294743013e-07,0.0,0.0,0.0,9.15929294743013e-07,0.0,23.544486390244494,2.71214366750607,0.010105201782820811,0.0
6310,0.0,4.827586206896552,3.5714285714285716,0,218928.20381768086,577610.3974096704,487417.2994667952,327993.770598828,-81342.232307141,1.459521358784539e-06,0.0,0.0,0.0,1.459521358784539e-06,0.0,23.615602988319388,3.001569038114603,-0.0028638737786893277,0.0
6311,0.0,4.827586206896552,3.928571428571429,0,222693.87055512008,470291.79313639714,220308.5383404211,293109.752595494,-68154.11827248242,1.4846258037008006e-06,0.0,0.0,0.0,1.4846258037008006e-06,0.0,24.019078327423337,3.2957779837018664,-0.0023106486523778525,0.0
6312,0.0,4.827586206896552,4.285714285714286,0,332989.7150792997,499995.3328569704,364272.42237481306,120578.71552371515,-34163.29512040367,2.219931433861998e-06,0.0,0.0,0.0,2.219931433861998e-06,0.0,23.45524703328689,3.594917033643023,-0.001144697329924332,0.0
6313,0.0,4.827586206896552,4.642857142857143,0,146303.35120179513,428220.5098470559,306747.38257108897,265808.5800419257,-30928.165118361754,9.753556746786343e-07,0.0,0.0,0.0,9.753556746786343e-07,0.0,23.643848642980792,3.8969349816318726,-0.00103256873162792,0.0
6314,0.0,4.827586206896552,5.0,0,217869.5611915186,409847.82037732744,263634.40711814666,159446.51701362935,-34766.79886456381,1.4524637412767906e-06,0.0,0.0,0.0,1.4524637412767906e-06,0.0,24.036263999212185,4.200096465338184,-0.0011594504206347842,0.0
6315,0.3448275862068966,4.827586206896552,0.0,0,362062.2590705723,557555.0699072336,270259.80038916995,150876.73251504215,-7726.094436140342,2.4137483938038156e-06,0.0,0.0,0.0,2.4137483938038156e-06,0.0,23.6733038749156,-0.049896882170131655,-0.0002576602890229702,0.0
6316,0.3448275862068966,4.827586206896552,0.35714285714285715,0,168456.42551101267,280695.4117911686,364430.0715586175,170513.58067369077,-17777.310391287592,1.1230428367400845e-06,0.0,0.0,0.0,1.1230428367400845e-06,0.0,24.001489093446416,0.25411276209257255,-0.0005935138658319473,0.0
6317,0.3448275862068966,4.827586206896552,0.7142857142857143,0,304715.1349380041,457708.0363763258,184213.71683921423,129252.8790020747,-54019.95174487842,2.031434232920027e-06,0.0,0.0,0.0,2.031434232920027e-06,0.0,23.45572567588915,0.5593448031641346,-0.0018100272326504122,0.0
6318,0.3448275862068966,4.827586206896552,1.0714285714285714,0,203834.66894041735,363942.77535712917,253942.8718407907,128738.52791806695,-41958.58912019905,1.3588977929361157e-06,0.0,0.0,0.0,1.3588977929361157e-06,0.0,23.85874662708106,0.8676542783138678,-0.0014225341015879397,0.0
6319,0.3448275862068966,4.827586206896552,1.4285714285714286,0,172922.29322760183,445764.44440882443,262653.6998521938,285252.8474946578,79899.22897241155,1.1528152881840122e-06,0.0,0.0,0.0,1.1528152881840122e-06,0.0,24.342474078738306,1.1812338501798707,0.002813068934813287,0.0
6320,0.3448275862068966,4.827586206896552,1.7857142857142858,0,513833.5669813672,641106.6277694192,473876.62329326174,64490.075068288264,47636.98433551792,3.4255571132091147e-06,0.0,0.0,0.0,3.4255571132091147e-06,0.0,23.993939875635597,1.4999268843537292,0.0018815417127727653,0.0
6321,0.3448275862068966,4.827586206896552,2.142857142857143,0,574542.6647232119,851216.3519099635,571049.2380444106,190336.22738247472,341067.3327266552,3.830284431488079e-06,0.0,0.0,0.0,3.830284431488079e-06,0.0,22.761938792439327,1.8184482409349,0.018282946915112383,0.0
6322,0.3448275862068966,4.827586206896552,2.5,0,827071.8522538593,1329636.7756741142,413342.34374762885,638356.0479498653,507103.5411808394,5.5138123483590614e-06,0.0,0.0,0.0,5.5138123483590614e-06,0.0,23.979865339801727,2.1284163583237716,0.05071035411808394,0.0
6323,0.3448275862068966,4.827586206896552,2.857142857142857,0,857694.4851418199,1296255.243810588,495907.1379278587,390886.1672395986,335531.3350862562,5.7179632342788e-06,0.0,0.0,0.0,5.7179632342788e-06,0.0,23.12992351979111,2.425591098077757,0.017986189233359498,0.0
6324,0.3448275862068966,4.827586206896552,3.2142857142857144,0,319014.1513901331,748865.9022043088,703378.4164965657,409549.5843061709,137880.62263072366,2.126761009267554e-06,0.0,0.0,0.0,2.126761009267554e-06,0.0,23.249163441968292,2.7142125986394436,0.005445939672326374,0.0
6325,0.3448275862068966,4.827586206896552,3.5714285714285716,0,227237.66390514196,487735.47687940265,358078.67649836704,225350.01788490167,34465.36533732018,1.5149177593676132e-06,0.0,0.0,0.0,1.5149177593676132e-06,0.0,23.962327315809222,3.0026624216084423,0.0012134466102405466,0.0
6326,0.3448275862068966,4.827586206896552,3.928571428571429,0,263766.112333265,330073.3486590158,305303.00454249914,54795.83256109815,33615.76024893431,1.7584407488884334e-06,0.0,0.0,0.0,1.7584407488884334e-06,0.0,23.236340301335744,3.296225706885297,0.001139684777482015,0.0
6327,0.3448275862068966,4.827586206896552,4.285714285714286,0,243106.70466712798,440376.1889782072,256825.4069837679,164664.11682132172,-48032.517088066845,1.6207113644475198e-06,0.0,0.0,0.0,1.6207113644475198e-06,0.0,23.170954435455535,3.59505908887842,-0.0016094083977109435,0.0
6328,0.3448275862068966,4.827586206896552,4.642857142857143,0,337330.6804335697,569432.0070171551,274387.7754365598,201674.41719954007,-48522.54577798611,2.2488712028904647e-06,0.0,0.0,0.0,2.2488712028904647e-06,0.0,23.72884446644141,3.896969904949716,-0.0016199752994589132,0.0
6329,0.3448275862068966,4.827586206896552,5.0,0,166764.76728282572,367486.2024747993,244247.0599960729,177727.74983043026,45084.91615817592,1.1117651152188382e-06,0.0,0.0,0.0,1.1117651152188382e-06,0.0,23.42861668556586,4.200103117829869,0.0015035530077852877,0.0
6330,0.6896551724137931,4.827586206896552,0.0,0,201499.49102156796,327938.0637961141,285592.2266231561,108630.92949326284,29299.93307095997,1.3433299401437863e-06,0.0,0.0,0.0,1.3433299401437863e-06,0.0,22.95260885640878,-0.04989023035716538,0.0009771339563367585,0.0
6331,0.6896551724137931,4.827586206896552,0.35714285714285715,0,170661.3125538797,314872.58201788395,255422.11023130445,122437.4366049898,-9166.936480574625,1.1377420836925312e-06,0.0,0.0,0.0,1.1377420836925312e-06,0.0,24.049915569004003,0.25414768184737757,-0.0003060476409911908,0.0
6332,0.6896551724137931,4.827586206896552,0.7142857142857143,0,194749.51724087857,320978.27704798797,165715.13246160006,102465.93454318898,30356.612769848398,1.2983301149391904e-06,0.0,0.0,0.0,1.2983301149391904e-06,0.0,24.269667829014423,0.5594868439064007,0.0010171481837663483,0.0
6333,0.6896551724137931,4.827586206896552,1.0714285714285714,0,195509.58060485142,165301.8449356324,275201.7842342914,49472.72155862512,-43863.49800579694,1.3033972040323428e-06,0.0,0.0,0.0,1.3033972040323428e-06,0.0,24.234045043073827,0.8681019558185117,-0.001487116774814108,0.0
6334,0.6896551724137931,4.827586206896552,1.4285714285714286,0,395013.71728417155,460503.4702838679,88714.11999435836,45774.03794270799,-47658.95489218172,2.633424781894477e-06,0.0,0.0,0.0,2.633424781894477e-06,0.0,23.33726992183888,1.1823271221216762,-0.0016779626937220697,0.0
6335,0.6896551724137931,4.827586206896552,1.7857142857142858,0,202264.7429445669,507033.96305516874,477671.0708840394,291692.62645597477,-34422.725734342544,1.348431619630446e-06,0.0,0.0,0.0,1.348431619630446e-06,0.0,23.99661294265217,1.501995604405193,-0.0013596115547602253,0.0
6336,0.6896551724137931,4.827586206896552,2.142857142857143,0,355405.76468255365,612942.8927644585,378036.67388250463,204066.4506654249,373678.3226682932,2.3693717645503577e-06,0.0,0.0,0.0,2.3693717645503577e-06,0.0,23.548858122109415,1.8214813347043433,0.020031062142641574,0.0
6337,0.6896551724137931,4.827586206896552,2.5,0,607433.2524089806,1224050.0935733512,724224.1481155589,547984.9481202386,636867.7758278978,4.0495550160598704e-06,0.0,0.0,0.0,4.0495550160598704e-06,0.0,23.166883659390894,2.1318620827475976,0.06368677758278979,0.0
6338,0.6896551724137931,4.827586206896552,2.857142857142857,0,398769.800878936,708461.8767755606,416864.6934308969,254044.3192373568,293764.71212153154,2.658465339192907e-06,0.0,0.0,0.0,2.658465339192907e-06,0.0,23.43170307596638,2.4286241918472,0.0157472854240065,0.0
6339,0.6896551724137931,4.827586206896552,3.2142857142857144,0,432087.2000943783,568897.0479468356,427505.7490510081,83827.50461465164,16657.730522852005,2.880581333962522e-06,0.0,0.0,0.0,2.880581333962522e-06,0.0,22.40043336630602,2.716281318690908,0.0006579386847438517,0.0
6340,0.6896551724137931,4.827586206896552,3.5714285714285716,0,359678.2764570084,550934.2583261573,347465.1462644446,135641.5691163037,108213.28027908751,2.397855176380056e-06,0.0,0.0,0.0,2.397855176380056e-06,0.0,23.286187208344916,3.003755693550248,0.0038099418605460483,0.0
6341,0.6896551724137931,4.827586206896552,3.928571428571429,0,90873.60334381425,263255.9257789864,366778.89891433733,300176.3440023024,-9264.070680897761,6.05824022292095e-07,0.0,0.0,0.0,6.05824022292095e-07,0.0,23.086218019852275,3.296673384389941,-0.0003140824498494374,0.0
6342,0.6896551724137931,4.827586206896552,4.285714285714286,0,109346.47548264891,246744.1486210635,139379.15781481192,135518.44543146068,49393.16057769983,7.289765032176594e-07,0.0,0.0,0.0,7.289765032176594e-07,0.0,23.92576027217457,3.5952011296206865,0.0016549989932337856,0.0
6343,0.6896551724137931,4.827586206896552,4.642857142857143,0,165294.97116593618,373776.3821594788,317466.10078134196,187683.6219775107,-5190.54128131883,1.1019664744395745e-06,0.0,0.0,0.0,1.1019664744395745e-06,0.0,23.974789503439986,3.8970048247045206,-0.0001732915808876035,0.0
6344,0.6896551724137931,4.827586206896552,5.0,0,247340.72442508274,436125.393172709,257523.56376420474,153812.88851055724,-17755.425076142285,1.6489381628338848e-06,0.0,0.0,0.0,1.6489381628338848e-06,0.0,22.98891400669002,4.200109769642835,-0.0005921320266866867,0.0
6345,1.0344827586206897,4.827586206896552,0.0,0,169726.56146332563,218358.12327745874,194370.40793125625,37913.83431812948,45150.3167455879,1.1315104097555043e-06,0.0,0.0,0.0,1.1315104097555043e-06,0.0,24.279914511883323,-0.04988357939967609,0.0015057340753860174,0.0
6346,1.0344827586206897,4.827586206896552,0.35714285714285715,0,108679.35846949214,344764.8969122434,271585.29063221556,219887.14512766385,25181.950135048457,7.245290564632809e-07,0.0,0.0,0.0,7.245290564632809e-07,0.0,23.56677884725166,0.2541825971112195,0.0008407254103615516,0.0
6347,1.0344827586206897,4.827586206896552,0.7142857142857143,0,213632.70932426956,356950.1237308982,208764.04305886803,112065.98698021409,-766.518701622858,1.424218062161797e-06,0.0,0.0,0.0,1.424218062161797e-06,0.0,23.340694781213145,0.5596288663810778,-2.5683468412293587e-05,0.0
6348,1.0344827586206897,4.827586206896552,1.0714285714285714,0,203873.77103135793,193781.81933380273,277907.2887289269,45432.649036340765,37563.276299790945,1.3591584735423862e-06,0.0,0.0,0.0,1.3591584735423862e-06,0.0,22.98496763899838,0.8685495757482053,0.0012735185482702228,0.0
6349,1.0344827586206897,4.827586206896552,1.4285714285714286,0,298799.364758257,444020.45866958186,192029.54130875223,113925.77520946936,101309.01780625507,1.9919957650550465e-06,0.0,0.0,0.0,1.9919957650550465e-06,0.0,23.484430404575885,1.183420253459862,0.003566858585151383,0.0
6350,1.0344827586206897,4.827586206896552,1.7857142857142858,0,402133.2952736191,644619.0874064841,314488.47760443616,196761.41605718457,17606.38649244875,2.680888635157461e-06,0.0,0.0,0.0,2.680888635157461e-06,0.0,23.819988583574652,1.5040640584025158,0.0006954082223891291,0.0
6351,1.0344827586206897,4.827586206896552,2.142857142857143,0,297206.72730840754,761928.7226846972,722173.9886797069,446845.479046051,344814.41437750787,1.9813781820560503e-06,0.0,0.0,0.0,1.9813781820560503e-06,0.0,24.39223252457592,1.8245140383933798,0.018483809584549083,0.0
6352,1.0344827586206897,4.827586206896552,2.5,0,848543.9450871705,1195601.2506532618,953330.2788423037,252270.283789982,512556.93953301245,5.65695963391447e-06,0.0,0.0,0.0,5.65695963391447e-06,0.0,23.84642196987817,2.135307364023375,0.05125569395330125,0.0
6353,1.0344827586206897,4.827586206896552,2.857142857142857,0,377143.32450679725,997296.9092209254,563126.7000420126,750898.679308609,230540.274010087,2.514288830045315e-06,0.0,0.0,0.0,2.514288830045315e-06,0.0,23.74636841259773,2.4316568955362365,0.012358133386230558,0.0
6354,1.0344827586206897,4.827586206896552,3.2142857142857144,0,463586.24566537223,559773.3262132319,78178.9985436269,116584.50040229782,4996.507443936229,3.0905749711024817e-06,0.0,0.0,0.0,3.0905749711024817e-06,0.0,24.19878550486963,2.71834977268823,0.00019734954479341794,0.0
6355,1.0344827586206897,4.827586206896552,3.5714285714285716,0,130193.76518570005,348305.7408072429,252770.42569604228,200013.61275723064,65779.21989481572,8.679584345713337e-07,0.0,0.0,0.0,8.679584345713337e-07,0.0,23.983320052186226,3.0048488248884335,0.0023159357408348872,0.0
6356,1.0344827586206897,4.827586206896552,3.928571428571429,0,248954.72952342636,265363.9321078722,232763.45274131425,1715.0237180781614,-59908.654816004986,1.6596981968228423e-06,0.0,0.0,0.0,1.6596981968228423e-06,0.0,23.165475969417937,3.2971210043196346,-0.0020311003359024136,0.0
6357,1.0344827586206897,4.827586206896552,4.285714285714286,0,171215.7239502613,317388.00669218844,208965.6053715177,120004.6673431171,16245.324627248201,1.1414381596684088e-06,0.0,0.0,0.0,1.1414381596684088e-06,0.0,23.704380910831716,3.5953431520953636,0.0005443262910976861,0.0
6358,1.0344827586206897,4.827586206896552,4.642857142857143,0,177021.85279025044,355097.54686868744,244584.08915794367,150921.9873910439,-26306.464532078153,1.1801456852683364e-06,0.0,0.0,0.0,1.1801456852683364e-06,0.0,23.6399743078625,3.8970397399683625,-0.0008782684847791455,0.0
6359,1.0344827586206897,4.827586206896552,5.0,0,210095.64352621825,298046.0633465467,192697.64241386045,56119.476187233275,56491.13840034245,1.4006376235081217e-06,0.0,0.0,0.0,1.4006376235081217e-06,0.0,23.85724294034779,4.200116420600324,0.0018839431963687237,0.0
6360,1.3793103448275863,4.827586206896552,0.0,0,77247.07859140629,162469.5394637436,251537.77105740813,202850.49483869172,-7915.549057149334,5.149805239427086e-07,0.0,0.0,0.0,5.149805239427086e-07,0.0,23.726693222726325,-0.049876929541597524,-0.00026397847899714045,0.0
6361,1.3793103448275863,4.827586206896552,0.35714285714285715,0,225317.63142130218,363488.6823818562,135294.62859165223,141162.08286262845,-10553.376607369519,1.5021175428086813e-06,0.0,0.0,0.0,1.5021175428086813e-06,0.0,23.565843766554618,0.2542175066035291,-0.0003523353763846084,0.0
6362,1.3793103448275863,4.827586206896552,0.7142857142857143,0,192226.65506532456,301913.6553712702,275541.0021979018,97862.32599190222,45652.992603737795,1.2815110337688305e-06,0.0,0.0,0.0,1.2815110337688305e-06,0.0,24.70625327505324,0.5597708653792806,0.0015296785205401009,0.0
6363,1.3793103448275863,4.827586206896552,1.0714285714285714,0,146234.32066548974,276898.2085419343,302650.2452765209,145250.52299352852,26465.275153627776,9.74895471103265e-07,0.0,0.0,0.0,9.74895471103265e-07,0.0,23.95594345958114,0.8689971216858228,0.0008972598269711531,0.0
6364,1.3793103448275863,4.827586206896552,1.4285714285714286,0,278117.3682501658,407920.3367661904,180166.8100576203,97968.2847438664,23676.666728315096,1.8541157883344385e-06,0.0,0.0,0.0,1.8541157883344385e-06,0.0,24.22171406421939,1.1845132041022122,0.0008336012313253775,0.0
6365,1.3793103448275863,4.827586206896552,1.7857142857142858,0,364286.3216258819,650929.9079284149,258031.95111738378,324373.586248189,92740.40565334851,2.4285754775058792e-06,0.0,0.0,0.0,2.4285754775058792e-06,0.0,23.929344310542263,1.5061321704820738,0.003663014024297499,0.0
6366,1.3793103448275863,4.827586206896552,2.142857142857143,0,219304.31434652113,324902.61651011894,578045.5063512424,445695.6288437785,198683.45124719862,1.462028762310141e-06,0.0,0.0,0.0,1.462028762310141e-06,0.0,24.400362420206793,1.8275462407730971,0.010650445362280108,0.0
6367,1.3793103448275863,4.827586206896552,2.5,0,537689.1026235677,945116.1984637112,402233.9722622043,412775.22442775255,566252.0284962989,3.5845940174904513e-06,0.0,0.0,0.0,3.5845940174904513e-06,0.0,23.952065572763164,2.1387520757902956,0.056625202849629894,0.0
6368,1.3793103448275863,4.827586206896552,2.857142857142857,0,123741.819121605,528182.1263422646,444527.7007514339,386037.9627916297,264032.32083442813,8.249454608107e-07,0.0,0.0,0.0,8.249454608107e-07,0.0,24.4884086492504,2.434689097915954,0.014153477752026607,0.0
6369,1.3793103448275863,4.827586206896552,3.2142857142857144,0,458330.58349411405,548618.2020577256,459170.6350783896,52157.467082834395,70548.33964632657,3.0555372232940935e-06,0.0,0.0,0.0,3.0555372232940935e-06,0.0,22.571824276021253,2.7204178847677882,0.0027864829325993665,0.0
6370,1.3793103448275863,4.827586206896552,3.5714285714285716,0,100267.2964589531,357133.2124874026,295127.06739580916,241454.52823818926,21250.45051903886,6.684486430596873e-07,0.0,0.0,0.0,6.684486430596873e-07,0.0,24.061538408920704,3.0059417755307836,0.0007481797130550062,0.0
6371,1.3793103448275863,4.827586206896552,3.928571428571429,0,219331.02555404953,337747.9985947577,328427.1047624789,113905.11745037849,-33084.251433068035,1.462206837026997e-06,0.0,0.0,0.0,1.462206837026997e-06,0.0,24.146974739641735,3.2975685502572523,-0.0011216648813959374,0.0
6372,1.3793103448275863,4.827586206896552,4.285714285714286,0,74533.68670732477,261807.35327716332,213528.36144241088,175965.95572984888,17275.297838424183,4.968912447154984e-07,0.0,0.0,0.0,4.968912447154984e-07,0.0,24.173481112212624,3.5954851510935666,0.0005788372356822614,0.0
6373,1.3793103448275863,4.827586206896552,4.642857142857143,0,19140.604072048423,181303.82898198382,167526.81736651013,159448.4201060353,-5402.8860250689195,1.276040271469895e-07,0.0,0.0,0.0,1.276040271469895e-07,0.0,23.483991784723973,3.8970746494606723,-0.00018038092944361312,0.0
6374,1.3793103448275863,4.827586206896552,5.0,0,78439.30094606368,263756.235447014,205876.5762075928,174482.4790725039,-35941.04152001203,5.229286729737579e-07,0.0,0.0,0.0,5.229286729737579e-07,0.0,23.66929481168065,4.200123070458402,-0.0011986106592892102,0.0
6375,1.7241379310344829,4.827586206896552,0.0,0,206853.2570440478,289631.3078642485,179419.60737492872,51008.9576633987,-3925.5817438153854,1.3790217136269852e-06,0.0,0.0,0.0,1.3790217136269852e-06,0.0,23.541088813094643,-0.04987028112927476,-0.0001309156307957397,0.0
6376,1.7241379310344829,4.827586206896552,0.35714285714285715,0,229237.45218322103,322293.31086309993,180206.89024827268,57837.59762191951,536.4886303213227,1.5282496812214734e-06,0.0,0.0,0.0,1.5282496812214734e-06,0.0,24.311022623895575,0.25425240850611275,1.7911226948759615e-05,0.0
6377,1.7241379310344829,4.827586206896552,0.7142857142857143,0,35985.42519091935,205760.81809897107,186842.5999572901,228341.16272086828,15957.357381340391,2.39902834606129e-07,0.0,0.0,0.0,2.39902834606129e-07,0.0,24.524349896616485,0.5599128335052644,0.0005346774754218393,0.0
6378,1.7241379310344829,4.827586206896552,1.0714285714285714,0,268682.6423274797,333751.56372119713,142217.2363000707,26616.679313790137,-65948.96947742726,1.7912176155165314e-06,0.0,0.0,0.0,1.7912176155165314e-06,0.0,23.25501208027786,0.8694445703217947,-0.002235886859242835,0.0
6379,1.7241379310344829,4.827586206896552,1.4285714285714286,0,206122.46092651205,280068.91586004756,243393.96651005364,58070.74304711084,16533.235837374305,1.3741497395100803e-06,0.0,0.0,0.0,1.3741497395100803e-06,0.0,24.184269987270394,1.1856059171244944,0.0005820973834693519,0.0
6380,1.7241379310344829,4.827586206896552,1.7857142857142858,0,303783.2244967576,494328.7865863343,192786.50094999524,188353.14974316297,24958.976985527832,2.025221496645051e-06,0.0,0.0,0.0,2.025221496645051e-06,0.0,23.65411180850582,1.5081998329302273,0.000985817153656217,0.0
6381,1.7241379310344829,4.827586206896552,2.142857142857143,0,296680.7232987698,613252.7957970864,380122.17216510954,279300.64946528524,312866.5125556217,1.9778714886584653e-06,0.0,0.0,0.0,1.9778714886584653e-06,0.0,24.96494036395877,1.8305777839170656,0.016771239258950386,0.0
6382,1.7241379310344829,4.827586206896552,2.5,0,518112.1078410175,832781.5601834449,543350.5804969862,234620.9939640742,463473.30637442955,3.4540807189401166e-06,0.0,0.0,0.0,3.4540807189401166e-06,0.0,24.37719656276658,2.142196038637172,0.04634733063744295,0.0
6383,1.7241379310344829,4.827586206896552,2.857142857142857,0,565269.405035622,804704.92098968,169418.58189222147,357300.62172007584,234794.3815740807,3.76846270023748e-06,0.0,0.0,0.0,3.76846270023748e-06,0.0,23.924649666079823,2.4377206410599226,0.012586175228121084,0.0
6384,1.7241379310344829,4.827586206896552,3.2142857142857144,0,110484.20995570195,347806.6171551222,393530.09402508737,267523.8773242909,40370.1797880859,7.365613997046797e-07,0.0,0.0,0.0,7.365613997046797e-07,0.0,24.037907440067844,2.7224855472159417,0.0015945211117569746,0.0
6385,1.7241379310344829,4.827586206896552,3.5714285714285716,0,170316.02592279803,278007.4833358301,93107.6647590143,127535.2377980892,14772.351380967222,1.1354401728186535e-06,0.0,0.0,0.0,1.1354401728186535e-06,0.0,24.758620895960473,3.007034488553066,0.0005201006730402094,0.0
6386,1.7241379310344829,4.827586206896552,3.928571428571429,0,170235.9916569607,287119.96376302216,230893.05786700416,95883.26248587694,25315.426023895816,1.1349066110464046e-06,0.0,0.0,0.0,1.1349066110464046e-06,0.0,24.143424609014215,3.298015998893224,0.0008582761615757527,0.0
6387,1.7241379310344829,4.827586206896552,4.285714285714286,0,285560.4703963416,397828.83902414405,118634.62711580291,106301.72852630174,-23944.485667204004,1.903736469308944e-06,0.0,0.0,0.0,1.903736469308944e-06,0.0,23.225250776362138,3.59562711921955,-0.0008022993307015637,0.0
6388,1.7241379310344829,4.827586206896552,4.642857142857143,0,123112.69064267851,221642.44844390944,165828.58574468963,80508.55853219586,-9206.286888826684,8.207512709511901e-07,0.0,0.0,0.0,8.207512709511901e-07,0.0,24.882959805392808,3.897109551363256,-0.00030736139500738837,0.0
6389,1.7241379310344829,4.827586206896552,5.0,0,313154.4377216279,377122.3682518264,215294.77882598995,16164.692441291389,39354.597042364374,2.087696251477519e-06,0.0,0.0,0.0,2.087696251477519e-06,0.0,24.535450701426715,4.200129718870725,0.001312450544337864,0.0
6390,2.0689655172413794,4.827586206896552,0.0,0,212259.96160633911,353537.7466292112,287605.034469952,116135.7053045203,-9113.285060302356,1.4150664107089273e-06,0.0,0.0,0.0,1.4150664107089273e-06,0.0,23.892433436113485,-0.04986363467145917,-0.0003039222057139723,0.0
6391,2.0689655172413794,4.827586206896552,0.35714285714285715,0,94068.05908025231,247504.84051642893,182571.11505370602,139629.0379153502,9270.056749227659,6.271203938683487e-07,0.0,0.0,0.0,6.271203938683487e-07,0.0,24.466205919907395,0.2542873001481987,0.00030949041765125776,0.0
6392,2.0689655172413794,4.827586206896552,0.7142857142857143,0,153631.0761859123,238123.4564478894,76846.8703983995,93493.7213061887,-31249.07865967734,1.0242071745727487e-06,0.0,0.0,0.0,1.0242071745727487e-06,0.0,23.86384333686669,0.5600547598953108,-0.0010470517196382609,0.0
6393,2.0689655172413794,4.827586206896552,1.0714285714285714,0,242498.61414326314,224775.471069265,232380.81995270652,-13831.006260712176,-44561.792527754624,1.6166574276217543e-06,0.0,0.0,0.0,1.6166574276217543e-06,0.0,23.85531831257557,0.8698918874163507,-0.0015107912546111098,0.0
6394,2.0689655172413794,4.827586206896552,1.4285714285714286,0,184052.77481108913,299040.8675307905,198161.00749942003,86604.44281321423,-27725.6295825317,1.2270184987405942e-06,0.0,0.0,0.0,1.2270184987405942e-06,0.0,24.11948101217921,1.1866983089098648,-0.0009761559439289563,0.0
6395,2.0689655172413794,4.827586206896552,1.7857142857142858,0,58731.831038281176,312108.6574095025,310078.42334840435,252388.03306190457,15785.534991571105,3.9154554025520785e-07,0.0,0.0,0.0,3.9154554025520785e-07,0.0,24.484789641937834,1.5102668875248213,0.0006234891431389388,0.0
6396,2.0689655172413794,4.827586206896552,2.142857142857143,0,514757.80344386364,633639.047241354,522206.5963678643,72291.82703115106,309597.4609655771,3.4317186896257575e-06,0.0,0.0,0.0,3.4317186896257575e-06,0.0,24.424750870518565,1.8336084358448246,0.01659600143653645,0.0
6397,2.0689655172413794,4.827586206896552,2.5,0,708114.5638506486,983753.4911475118,193002.46147900046,408209.0490643098,523875.13938061695,4.720763759004324e-06,0.0,0.0,0.0,4.720763759004324e-06,0.0,24.663426971883993,2.145638989024265,0.052387513938061694,0.0
6398,2.0689655172413794,4.827586206896552,2.857142857142857,0,323293.1769469495,564809.6829270227,451256.40239882894,200059.47623000023,118799.56777905877,2.1552878463129966e-06,0.0,0.0,0.0,2.1552878463129966e-06,0.0,24.436401083726633,2.440751292987682,0.006368262166531084,0.0
6399,2.0689655172413794,4.827586206896552,3.2142857142857144,0,210380.67229891557,413385.79602809506,268420.8129281385,172087.1543826189,22241.194205569485,1.4025378153261038e-06,0.0,0.0,0.0,1.4025378153261038e-06,0.0,24.930394880903957,2.724552601810536,0.0008784715326418642,0.0
6400,2.0689655172413794,4.827586206896552,3.5714285714285716,0,179754.58891409353,200027.2356082535,286309.7309477116,79680.83700410642,24966.245448330326,1.198363926093957e-06,0.0,0.0,0.0,1.198363926093957e-06,0.0,25.0706554092174,3.0081268803384367,0.0008790043457599827,0.0
6401,2.0689655172413794,4.827586206896552,3.928571428571429,0,211816.1793679087,280402.88284788077,220558.46507317747,45102.78301819044,-2581.307384595405,1.4121078624527249e-06,0.0,0.0,0.0,1.4121078624527249e-06,0.0,24.36427694315439,3.29846331598778,-8.751480586605384e-05,0.0
6402,2.0689655172413794,4.827586206896552,4.285714285714286,0,148904.8479139943,266617.87355132034,94857.34672440178,173926.23726638264,38102.459864738725,9.926989860932953e-07,0.0,0.0,0.0,9.926989860932953e-07,0.0,24.04973470317435,3.5957690456095968,0.0012766855163413781,0.0
6403,2.0689655172413794,4.827586206896552,4.642857142857143,0,106695.36803946267,255633.36436409623,240433.97169570712,142153.3799307447,17000.371638126362,7.113024535964178e-07,0.0,0.0,0.0,7.113024535964178e-07,0.0,24.1329400231021,3.897144443005342,0.0005675749632221708,0.0
6404,2.0689655172413794,4.827586206896552,5.0,0,94227.80967317992,241423.4710108094,199346.34721334814,133488.32197826286,-6755.501677027263,6.281853978211994e-07,0.0,0.0,0.0,6.281853978211994e-07,0.0,23.264670177175386,4.200136365328541,-0.0002252916436609793,0.0
6405,2.413793103448276,4.827586206896552,0.0,0,117801.72297033649,228914.38716070724,94963.14089615433,141443.79750223883,-4344.368497250277,7.853448198022432e-07,0.0,0.0,0.0,7.853448198022432e-07,0.0,24.26976310378512,-0.04985699094702338,-0.00014488190014707973,0.0
6406,2.413793103448276,4.827586206896552,0.35714285714285715,0,128189.35093825287,267611.7798574552,172951.4124830531,121731.75684832543,-1381.0937808867113,8.545956729216858e-07,0.0,0.0,0.0,8.545956729216858e-07,0.0,23.955711433382714,0.25432217744097074,-4.6109242114164514e-05,0.0
6407,2.413793103448276,4.827586206896552,0.7142857142857143,0,90169.83563367471,242569.71432558115,221277.5886131513,143659.37049915452,-20635.90897955212,6.011322375578314e-07,0.0,0.0,0.0,6.011322375578314e-07,0.0,23.916448257357622,0.5601966279176162,-0.0006914400331175006,0.0
6408,2.413793103448276,4.827586206896552,1.0714285714285714,0,180938.02720100497,267192.28566584614,114918.73473268717,67167.8838920095,23769.00746304675,1.2062535146733663e-06,0.0,0.0,0.0,1.2062535146733663e-06,0.0,24.254707925979734,0.8703390205501345,0.0008058474888233285,0.0
6409,2.413793103448276,4.827586206896552,1.4285714285714286,0,98964.17599881173,304664.1421031502,284952.6003409626,197327.60659568544,25358.441086780964,6.597611733254115e-07,0.0,0.0,0.0,6.597611733254115e-07,0.0,23.228910723451975,1.1877902514451644,0.0008928126563167179,0.0
6410,2.413793103448276,4.827586206896552,1.7857142857142858,0,306555.5442479258,512451.0671777844,166317.07340151913,275198.8268647704,63084.82202924519,2.0437036283195055e-06,0.0,0.0,0.0,2.0437036283195055e-06,0.0,24.193677555970243,1.5123330920357407,0.0024916926574290164,0.0
6411,2.413793103448276,4.827586206896552,2.142857142857143,0,389979.9665082976,703892.8640042081,335861.8712406867,295156.9512114423,248860.22713745697,2.5998664433886507e-06,0.0,0.0,0.0,2.5998664433886507e-06,0.0,24.389869981603905,1.8366378414060216,0.013340176221694628,0.0
6412,2.413793103448276,4.827586206896552,2.5,0,458772.3873748106,757584.9548983548,373058.756684611,249763.9283311722,346619.45378016663,3.0584825824987374e-06,0.0,0.0,0.0,3.0584825824987374e-06,0.0,23.52482110363435,2.1490805234855643,0.03466194537801666,0.0
6413,2.413793103448276,4.827586206896552,2.857142857142857,0,635130.4524591806,808221.8641138675,604693.0458275374,96274.93577154435,265079.3211659369,4.234203016394538e-06,0.0,0.0,0.0,4.234203016394538e-06,0.0,24.974509612962155,2.4437806985488786,0.014209602304700846,0.0
6414,2.413793103448276,4.827586206896552,3.2142857142857144,0,241169.39128024763,453605.8422639607,251812.73813694943,186509.61319844017,49478.64758099361,1.6077959418683175e-06,0.0,0.0,0.0,1.6077959418683175e-06,0.0,24.523494400005266,2.726618806321455,0.001954282803872005,0.0
6415,2.413793103448276,4.827586206896552,3.5714285714285716,0,204157.1454571653,368341.7790262826,136540.40248015872,215276.16892214832,62158.96092411116,1.361047636381102e-06,0.0,0.0,0.0,1.361047636381102e-06,0.0,24.95214167306934,3.009218822873736,0.002188474710516502,0.0
6416,2.413793103448276,4.827586206896552,3.928571428571429,0,210723.32013103206,281870.12976489094,198332.17139159332,42186.08096462901,-32346.828192580466,1.4048221342068803e-06,0.0,0.0,0.0,1.4048221342068803e-06,0.0,24.52863169027781,3.2989104491215637,-0.0010966638094129892,0.0
6417,2.413793103448276,4.827586206896552,4.285714285714286,0,52695.41591352151,154099.07972525197,203045.51316044334,147267.47494871035,-17643.25249658022,3.5130277275681004e-07,0.0,0.0,0.0,3.5130277275681004e-07,0.0,24.496683635232035,3.595910913631902,-0.0005911661610168927,0.0
6418,2.413793103448276,4.827586206896552,4.642857142857143,0,201562.3587059242,306666.42088203976,202708.4651801998,74349.03327929687,-38587.07065796144,1.3437490580394948e-06,0.0,0.0,0.0,1.3437490580394948e-06,0.0,25.082043367195542,3.897179320298114,-0.0012882692023288922,0.0
6419,2.413793103448276,4.827586206896552,5.0,0,148468.1680354484,249724.93489067224,157010.60272415983,78484.47777939119,-5301.179010648913,9.897877869029894e-07,0.0,0.0,0.0,9.897877869029894e-07,0.0,24.983459184246097,4.200143009052977,-0.00017679091646317683,0.0
6420,2.7586206896551726,4.827586206896552,0.0,0,176272.42781061115,237328.40560424363,180082.75959388443,39548.34563921769,-41750.31259489541,1.1751495187374076e-06,0.0,0.0,0.0,1.1751495187374076e-06,0.0,25.328525578290982,-0.049850351211370436,-0.001392346119881766,0.0
6421,2.7586206896551726,4.827586206896552,0.35714285714285715,0,168767.78171555605,253365.12469834354,136713.48715559335,59847.36556388428,28436.402921163044,1.1251185447703737e-06,0.0,0.0,0.0,1.1251185447703737e-06,0.0,24.30042752037394,0.25435703379399005,0.0009493786774610027,0.0
6422,2.7586206896551726,4.827586206896552,0.7142857142857143,0,111286.56363818288,224030.70885741484,249046.25019399106,127380.94994059434,26286.261299561633,7.419104242545525e-07,0.0,0.0,0.0,7.419104242545525e-07,0.0,23.969857248186564,0.560338410764695,0.0008807643705694734,0.0
6423,2.7586206896551726,4.827586206896552,1.0714285714285714,0,110201.15041940672,259171.56325270215,230273.43892378584,137400.70758168923,-3798.6239298170462,7.346743361293781e-07,0.0,0.0,0.0,7.346743361293781e-07,0.0,23.793063867520523,0.8707858852325415,-0.00012878583843209802,0.0
6424,2.7586206896551726,4.827586206896552,1.4285714285714286,0,130496.26562387202,253998.8569554545,264072.83769057645,128831.54045919681,-25584.190263766064,8.699751041591468e-07,0.0,0.0,0.0,8.699751041591468e-07,0.0,23.887963822478916,1.1888815383961318,-0.0009007607680194694,0.0
6425,2.7586206896551726,4.827586206896552,1.7857142857142858,0,342985.9381175148,517881.8639069363,354438.6778775219,123743.72611303955,-19427.38012828662,2.2865729207834316e-06,0.0,0.0,0.0,2.2865729207834316e-06,0.0,24.720574319847323,1.5143980560314678,-0.0007673329156146839,0.0
6426,2.7586206896551726,4.827586206896552,2.142857142857143,0,444526.60312033707,597568.5013454885,491580.7474535303,109627.67602487256,187580.1876560043,2.9635106874689136e-06,0.0,0.0,0.0,2.9635106874689136e-06,0.0,25.749303650558947,1.839665428161964,0.010055253858011952,0.0
6427,2.7586206896551726,4.827586206896552,2.5,0,354611.7532959513,664405.3133789855,324566.27246513264,296668.7934536284,460118.6655136135,2.364078355306342e-06,0.0,0.0,0.0,2.364078355306342e-06,0.0,25.145155372121454,2.152519991706198,0.04601186655136135,0.0
6428,2.7586206896551726,4.827586206896552,2.857142857142857,0,302018.9848715517,498348.48756003403,505469.18327613024,199952.81379865555,182493.57454680617,2.0134598991436777e-06,0.0,0.0,0.0,2.0134598991436777e-06,0.0,24.305781372722382,2.446808285304821,0.009782585476933907,0.0
6429,2.7586206896551726,4.827586206896552,3.2142857142857144,0,218809.77990324452,434887.6353578005,298323.42888747866,182512.12399878856,122240.20957481865,1.4587318660216301e-06,0.0,0.0,0.0,1.4587318660216301e-06,0.0,24.783511963140704,2.7286837703171822,0.004828182482609821,0.0
6430,2.7586206896551726,4.827586206896552,3.5714285714285716,0,191118.19630279276,298884.3540168579,274468.01656424697,96731.33327533462,46568.852942130994,1.274121308685285e-06,0.0,0.0,0.0,1.274121308685285e-06,0.0,24.12836343945676,3.0103101098247036,0.0016395826996857576,0.0
6431,2.7586206896551726,4.827586206896552,3.928571428571429,0,162633.36976066744,267174.0424429608,213574.59331105763,84505.98482222423,179.3158516068662,1.0842224650711162e-06,0.0,0.0,0.0,1.0842224650711162e-06,0.0,24.164198085607797,3.299357313803971,6.079396834228911e-06,0.0
6432,2.7586206896551726,4.827586206896552,4.285714285714286,0,89218.43353939794,191195.35046158178,194931.54148333965,103903.70426853545,-11110.743187396472,5.947895569293196e-07,0.0,0.0,0.0,5.947895569293196e-07,0.0,23.897319415885747,3.596052696478981,-0.0003722837043459473,0.0
6433,2.7586206896551726,4.827586206896552,4.642857142857143,0,66898.59635102651,163053.4652764409,87109.21536100017,112843.06542707878,-13653.147960887029,4.459906423401768e-07,0.0,0.0,0.0,4.459906423401768e-07,0.0,23.935354507951782,3.8972141766511332,-0.0004558244441191147,0.0
6434,2.7586206896551726,4.827586206896552,5.0,0,110979.75665254741,269826.27534470527,163605.4293527576,154632.39807768716,38332.33042477974,7.39865044350316e-07,0.0,0.0,0.0,7.39865044350316e-07,0.0,24.70170337436095,4.20014964878863,0.0012783586089722676,0.0
6435,3.1034482758620694,4.827586206896552,0.0,0,209330.40110825477,313762.9189648779,142355.4811667977,80465.72280899632,-15887.28004314791,1.3955360073883651e-06,0.0,0.0,0.0,1.3955360073883651e-06,0.0,25.197233969212277,-0.04984371762579406,-0.0005298305892506437,0.0
6436,3.1034482758620694,4.827586206896552,0.35714285714285715,0,64432.07792356728,192305.0978050352,181596.20345590572,123189.51550951271,22609.480774943397,4.2954718615711523e-07,0.0,0.0,0.0,4.2954718615711523e-07,0.0,24.981178795902238,0.25439185786119994,0.0007548408642156705,0.0
6437,3.1034482758620694,4.827586206896552,0.7142857142857143,0,155673.08497996887,319914.8865278473,149748.96691221267,184664.41493994833,532.3911296425309,1.0378205665331258e-06,0.0,0.0,0.0,1.0378205665331258e-06,0.0,25.194188815248094,0.5604800622849546,1.7838639464646675e-05,0.0
6438,3.1034482758620694,4.827586206896552,1.0714285714285714,0,122633.11970503068,264294.1249649608,161262.85633406937,128651.79862005156,18005.99640889481,8.175541313668712e-07,0.0,0.0,0.0,8.175541313668712e-07,0.0,24.86200019766419,0.8712323360050952,0.0006104624693491442,0.0
6439,3.1034482758620694,4.827586206896552,1.4285714285714286,0,92316.9461060145,290224.19872686325,230126.56094371775,183928.2553780025,-20190.32193552169,6.1544630737343e-07,0.0,0.0,0.0,6.1544630737343e-07,0.0,24.457671082597294,1.1899718145390408,-0.000710855012634812,0.0
6440,3.1034482758620694,4.827586206896552,1.7857142857142858,0,232505.59364686423,383227.0046439071,255448.11750987338,114854.63250051333,29994.377933451986,1.5500372909790949e-06,0.0,0.0,0.0,1.5500372909790949e-06,0.0,24.21680347506669,1.5164611073476335,0.0011847028945613316,0.0
6441,3.1034482758620694,4.827586206896552,2.142857142857143,0,288541.6690240359,446029.2980877412,446783.01289716206,157865.22477608713,231153.48601696742,1.923611126826906e-06,0.0,0.0,0.0,1.923611126826906e-06,0.0,24.77272986324663,1.8426902106059078,0.012391004674371452,0.0
6442,3.1034482758620694,4.827586206896552,2.5,0,592078.287320986,869152.0123320703,287493.3517893054,267177.0565432309,372950.5715740285,3.947188582139907e-06,0.0,0.0,0.0,3.947188582139907e-06,0.0,23.64922285230865,2.155956274108298,0.037295057157402854,0.0
6443,3.1034482758620694,4.827586206896552,2.857142857142857,0,248714.82567314434,521148.5880935418,329092.2491920087,240201.95951706445,309701.3386630807,1.6580988378209623e-06,0.0,0.0,0.0,1.6580988378209623e-06,0.0,24.191514052747852,2.4498330677487647,0.016601569810423034,0.0
6444,3.1034482758620694,4.827586206896552,3.2142857142857144,0,93147.36004386147,351397.9703514701,346056.48651478667,255694.80346227429,12034.370526010229,6.209824002924098e-07,0.0,0.0,0.0,6.209824002924098e-07,0.0,24.10469304152666,2.730746821633348,0.00047532753064657627,0.0
6445,3.1034482758620694,4.827586206896552,3.5714285714285716,0,250508.78302278087,348292.39360983955,131937.00653591365,73839.59599946612,-13117.285134282552,1.6700585534852059e-06,0.0,0.0,0.0,1.6700585534852059e-06,0.0,25.12528413401738,3.0114003859676126,-0.00046182957952046756,0.0
6446,3.1034482758620694,4.827586206896552,3.928571428571429,0,123231.9326464014,155908.97600388515,237374.7859808423,95604.26137785608,34140.45921514922,8.21546217642676e-07,0.0,0.0,0.0,8.21546217642676e-07,0.0,23.819185320997263,3.2998037645765246,0.0011574737972789011,0.0
6447,3.1034482758620694,4.827586206896552,4.285714285714286,0,60600.25707894694,168778.01380515783,217230.39942739817,149281.60486764292,28281.77804003208,4.0400171385964626e-07,0.0,0.0,0.0,4.0400171385964626e-07,0.0,24.977509988792562,3.5961943479992406,0.0009476274373955881,0.0
6448,3.1034482758620694,4.827586206896552,4.642857142857143,0,117292.49046188859,241097.99677995837,156401.90377022215,107221.50010566584,38425.24397310434,7.819499364125907e-07,0.0,0.0,0.0,7.819499364125907e-07,0.0,24.71115636668566,3.897249000718343,0.0012828664513384288,0.0
6449,3.1034482758620694,4.827586206896552,5.0,0,195666.2726282103,256118.44242625468,314444.7798276711,96247.70142233022,-46166.41668691382,1.304441817521402e-06,0.0,0.0,0.0,1.304441817521402e-06,0.0,24.72200234598889,4.2001562823742065,-0.001539620356057607,0.0
6450,3.4482758620689657,4.827586206896552,0.0,0,146689.0672200553,273073.4426865086,236149.18608712757,111450.10491362592,4996.782619015848,9.779271148003687e-07,0.0,0.0,0.0,9.779271148003687e-07,0.0,24.320156487630296,-0.0498370942513687,0.00016663949223532257,0.0
6451,3.4482758620689657,4.827586206896552,0.35714285714285715,0,165403.04940468812,233959.90934956225,127020.1660248901,43445.930825202995,2247.9362105238283,1.1026869960312541e-06,0.0,0.0,0.0,1.1026869960312541e-06,0.0,23.827038396395125,0.25442662832334123,7.504967180555494e-05,0.0
6452,3.4482758620689657,4.827586206896552,0.7142857142857143,0,288760.02390743286,376192.7111826219,212125.0084264265,42775.30208594604,-14027.684010826519,1.9250668260495524e-06,0.0,0.0,0.0,1.9250668260495524e-06,0.0,24.813528003618437,0.5606214957594755,-0.00047002059888026475,0.0
6453,3.4482758620689657,4.827586206896552,1.0714285714285714,0,200712.1312932541,245612.48934563212,183529.08335985392,21193.958179912945,8514.62531291733,1.3380808752883606e-06,0.0,0.0,0.0,1.3380808752883606e-06,0.0,25.01106714499404,0.8716780995510784,0.0002886737882241575,0.0
6454,3.4482758620689657,4.827586206896552,1.4285714285714286,0,140393.52332997607,285254.5273414379,162884.33064897096,131985.26850009125,-5853.8226232646975,9.359568221998405e-07,0.0,0.0,0.0,9.359568221998405e-07,0.0,24.821436991830975,1.1910604124079263,-0.00020609969311592623,0.0
6455,3.4482758620689657,4.827586206896552,1.7857142857142858,0,135892.73607383593,360110.5902230151,208208.10780131613,250084.98044534837,52065.4765932672,9.059515738255728e-07,0.0,0.0,0.0,9.059515738255728e-07,0.0,24.505580456002356,1.5185209829862827,0.002056456078656206,0.0
6456,3.4482758620689657,4.827586206896552,2.142857142857143,0,268503.1548187248,650439.0876063893,570590.8449010169,351069.13809249323,455308.38920138846,1.790021032124832e-06,0.0,0.0,0.0,1.790021032124832e-06,0.0,24.01337063602196,1.8457103369690635,0.02440684964820656,0.0
6457,3.4482758620689657,4.827586206896552,2.5,0,388424.7326216117,838665.2032702494,433458.40803341725,469540.44746438495,454594.83589074353,2.589498217477411e-06,0.0,0.0,0.0,2.589498217477411e-06,0.0,24.275530240408234,2.1593872670032117,0.045459483589074354,0.0
6458,3.4482758620689657,4.827586206896552,2.857142857142857,0,352623.3545287088,787494.7367652174,431364.6836973676,438485.9500775585,262182.3548390604,2.3508223635247254e-06,0.0,0.0,0.0,2.3508223635247254e-06,0.0,24.816921715098744,2.4528531941119205,0.014054310148323037,0.0
6459,3.4482758620689657,4.827586206896552,3.2142857142857144,0,103578.34308755903,300795.12388338766,220964.29441828735,183751.55503737746,80306.48243157106,6.905222872503935e-07,0.0,0.0,0.0,6.905222872503935e-07,0.0,24.201487514628596,2.732806697271997,0.0031719051616874647,0.0
6460,3.4482758620689657,4.827586206896552,3.5714285714285716,0,150244.07364063588,284344.84088698076,164592.2015554554,115758.99682715675,9161.480079962554,1.0016271576042392e-06,0.0,0.0,0.0,1.0016271576042392e-06,0.0,24.120272811549228,3.012488983836498,0.0003225547397804326,0.0
6461,3.4482758620689657,4.827586206896552,3.928571428571429,0,104179.56639607961,280332.8401660419,173606.38378570307,178902.1626380214,-28092.033454864573,6.945304426405307e-07,0.0,0.0,0.0,6.945304426405307e-07,0.0,23.882700753549127,3.300249528122508,-0.0009524122810234411,0.0
6462,3.4482758620689657,4.827586206896552,4.285714285714286,0,186846.51311494017,279111.1743457786,194240.9075032834,64893.04462462285,-41128.68642656413,1.2456434207662679e-06,0.0,0.0,0.0,1.2456434207662679e-06,0.0,24.8783576782611,3.5963357814737615,-0.001378084209086292,0.0
6463,3.4482758620689657,4.827586206896552,4.642857142857143,0,206199.12764066967,249314.90666965005,45397.67124825689,40907.2351193572,-729.2822912604308,1.3746608509377978e-06,0.0,0.0,0.0,1.3746608509377978e-06,0.0,24.872576260538196,3.8972837711804846,-2.434784241495197e-05,0.0
6464,3.4482758620689657,4.827586206896552,5.0,0,167405.76316549108,275945.67309629504,175100.06570079926,82703.71051993019,-6699.23690826136,1.1160384211032738e-06,0.0,0.0,0.0,1.1160384211032738e-06,0.0,25.19728718314827,4.200162905748631,-0.00022341524974658195,0.0
6465,3.793103448275862,4.827586206896552,0.0,0,119447.44073494016,218130.10254316835,143330.64439658565,80373.65025782578,-51099.62209830845,7.963162715662677e-07,0.0,0.0,0.0,7.963162715662677e-07,0.0,23.57962614435134,-0.04983048971069613,-0.0017041395892375484,0.0
6466,3.793103448275862,4.827586206896552,0.35714285714285715,0,205683.75566814374,341385.6886944889,255202.894880202,106629.99703340404,42410.78314363352,1.371225037787625e-06,0.0,0.0,0.0,1.371225037787625e-06,0.0,25.242337039011844,0.2544612999146886,0.0014159277923658494,0.0
6467,3.793103448275862,4.827586206896552,0.7142857142857143,0,265434.4423591823,312954.90568300564,336461.9015264941,60055.784025156965,2797.6725583174198,1.7695629490612152e-06,0.0,0.0,0.0,1.7695629490612152e-06,0.0,25.217879398367874,0.5607625270639056,9.374061536575472e-05,0.0
6468,3.793103448275862,4.827586206896552,1.0714285714285714,0,60287.255913232395,196655.70607614127,168981.80473249374,127499.95558125444,38895.776381202384,4.019150394215493e-07,0.0,0.0,0.0,4.019150394215493e-07,0.0,25.270201599407503,0.8721225955557925,0.0013186946813557835,0.0
6469,3.793103448275862,4.827586206896552,1.4285714285714286,0,146305.0149856069,245405.5414307442,111155.77502970067,89466.76530863276,-65844.26855212379,9.753667665707125e-07,0.0,0.0,0.0,9.753667665707125e-07,0.0,24.73041938486344,1.1921459148179372,-0.002318225955139556,0.0
6470,3.793103448275862,4.827586206896552,1.7857142857142858,0,56275.302776572586,354063.2844464171,323950.92089123325,289138.8374750645,112488.96190225845,3.7516868517715057e-07,0.0,0.0,0.0,3.7516868517715057e-07,0.0,24.786241295444853,1.520575001310208,0.004443032593223968,0.0
6471,3.793103448275862,4.827586206896552,2.142857142857143,0,560009.6235860819,753475.0169456478,437194.4030194975,106882.34951136123,218055.40956005562,3.7333974905738793e-06,0.0,0.0,0.0,3.7333974905738793e-06,0.0,24.78863574510906,1.848721875517361,0.011688881036093484,0.0
6472,3.793103448275862,4.827586206896552,2.5,0,488318.4637438189,580099.9936817761,854292.8424536732,290501.4060335001,548763.8841094433,3.255456424958793e-06,0.0,0.0,0.0,3.255456424958793e-06,0.0,24.22831367357319,2.162808503772646,0.05487638841094433,0.0
6473,3.793103448275862,4.827586206896552,2.857142857142857,0,435409.5301488691,619579.9796288661,685614.050973295,220959.33736886148,264505.8078085751,2.9027302009924605e-06,0.0,0.0,0.0,2.9027302009924605e-06,0.0,24.25429232018888,2.455864732660218,0.014178859066455406,0.0
6474,3.793103448275862,4.827586206896552,3.2142857142857144,0,254403.83102709326,488558.64523599134,390991.2483951968,199812.9466019248,67471.48548074593,1.6960255401806218e-06,0.0,0.0,0.0,1.6960255401806218e-06,0.0,24.807158543463302,2.7348607155959224,0.0026649548901044053,0.0
6475,3.793103448275862,4.827586206896552,3.5714285714285716,0,125917.4374676784,308489.68393453496,182155.46168934598,182993.21154693072,18139.130332930537,8.39449583117856e-07,0.0,0.0,0.0,8.39449583117856e-07,0.0,24.574465895825853,3.013574486246509,0.0006386372522032135,0.0
6476,3.793103448275862,4.827586206896552,3.928571428571429,0,141222.57980027076,282946.5951226958,224778.49575341106,121930.09602826035,-11264.535853160029,9.414838653351384e-07,0.0,0.0,0.0,9.414838653351384e-07,0.0,25.061809337889624,3.300694024127222,-0.0003819047953155799,0.0
6477,3.793103448275862,4.827586206896552,4.285714285714286,0,103590.7977262889,205456.82466029248,196621.11343307263,97731.17152442005,-16877.925676007962,6.906053181752594e-07,0.0,0.0,0.0,6.906053181752594e-07,0.0,24.530228388104195,3.5964768127781914,-0.0005655226285373421,0.0
6478,3.793103448275862,4.827586206896552,4.642857142857143,0,132562.3673535347,291252.02141446027,194762.5215960921,140098.99410751616,-9400.446348721864,8.837491156902313e-07,0.0,0.0,0.0,8.837491156902313e-07,0.0,23.978878297966926,3.897318442771832,-0.00031384360908217365,0.0
6479,3.793103448275862,4.827586206896552,5.0,0,111467.58210319025,228318.37170626913,101062.96186096186,147970.39888030087,-38304.09679258078,7.431172140212683e-07,0.0,0.0,0.0,7.431172140212683e-07,0.0,24.006957722873224,4.200169510289304,-0.0012774170354654096,0.0
6480,4.137931034482759,4.827586206896552,0.0,0,129380.49034984257,257247.19558313108,250997.5608220248,124855.14402399621,-13224.73976141289,8.625366023322838e-07,0.0,0.0,0.0,8.625366023322838e-07,0.0,24.3681825811397,-0.049823926005878476,-0.0004410365802985786,0.0
6481,4.137931034482759,4.827586206896552,0.35714285714285715,0,136303.51508199092,288245.7513703449,198546.90473236967,131395.27489751735,-19173.070707032646,9.086901005466061e-07,0.0,0.0,0.0,9.086901005466061e-07,0.0,25.11661630152771,0.254495757131692,-0.0006401127653583151,0.0
6482,4.137931034482759,4.827586206896552,0.7142857142857143,0,120347.28474604084,281731.9915707894,187661.5829208407,146116.10307557188,-41289.30032416705,8.023152316402722e-07,0.0,0.0,0.0,8.023152316402722e-07,0.0,24.49865512124581,0.5609026863722089,-0.0013834658415982275,0.0
6483,4.137931034482759,4.827586206896552,1.0714285714285714,0,230243.3386905685,285757.7363343838,164939.49270773778,20253.005068763752,13226.452239046232,1.5349555912704566e-06,0.0,0.0,0.0,1.5349555912704566e-06,0.0,24.912257670434155,0.8725643432430601,0.00044842021020220053,0.0
6484,4.137931034482759,4.827586206896552,1.4285714285714286,0,149706.7698204069,280879.7833882616,178889.53958535256,109010.3070652522,4409.381042827254,9.980451321360458e-07,0.0,0.0,0.0,9.980451321360458e-07,0.0,23.93161858455929,1.193224705569845,0.000155244211901155,0.0
6485,4.137931034482759,4.827586206896552,1.7857142857142858,0,192407.606408902,445066.060255942,361440.29293614154,224995.67946300702,61517.82982070457,1.2827173760593467e-06,0.0,0.0,0.0,1.2827173760593467e-06,0.0,24.85351062596491,1.5226163196450768,0.002429800385172798,0.0
6486,4.137931034482759,4.827586206896552,2.142857142857143,0,459125.5265032805,701737.8399424488,245618.4766519949,239664.06916892223,313474.0191430477,3.060836843355203e-06,0.0,0.0,0.0,3.060836843355203e-06,0.0,24.796117261793345,1.8517147937319645,0.01680380470753702,0.0
6487,4.137931034482759,4.827586206896552,2.5,0,382608.6324603861,598342.0446499052,708040.7743254785,282564.9031988392,456577.89735337725,2.5507242164025737e-06,0.0,0.0,0.0,2.5507242164025737e-06,0.0,25.377062556571673,2.16620858704553,0.045657789735337725,0.0
6488,4.137931034482759,4.827586206896552,2.857142857142857,0,298523.2674074977,636544.4724703736,343125.5043324827,333166.156030979,198708.09550217428,1.9901551160499845e-06,0.0,0.0,0.0,1.9901551160499845e-06,0.0,24.86381758779197,2.458857650874821,0.010651766419919608,0.0
6489,4.137931034482759,4.827586206896552,3.2142857142857144,0,337622.56286559836,510136.93525350094,136472.51395212836,227023.00179901518,64258.97036434601,2.2508170857706557e-06,0.0,0.0,0.0,2.2508170857706557e-06,0.0,25.172864108133716,2.7369020339307912,0.0025380685794209484,0.0
6490,4.137931034482759,4.827586206896552,3.5714285714285716,0,163815.42078539816,246058.12588278923,351772.54172053514,163070.42664589072,-92422.97360079637,1.0921028052359878e-06,0.0,0.0,0.0,1.0921028052359878e-06,0.0,25.76903690755041,3.0146532769984167,-0.003254001311943093,0.0
6491,4.137931034482759,4.827586206896552,3.928571428571429,0,250848.58566351276,350178.7088440869,150268.72350488082,68696.82766855616,-2891.8886701239926,1.6723239044234184e-06,0.0,0.0,0.0,1.6723239044234184e-06,0.0,24.8208504626065,3.301135771814489,-9.804453241891226e-05,0.0
6492,4.137931034482759,4.827586206896552,4.285714285714286,0,274268.9701494078,346134.3436591511,153359.7169624403,32142.05457890993,21125.662440033837,1.8284598009960521e-06,0.0,0.0,0.0,1.8284598009960521e-06,0.0,25.572534573161843,3.5966169720864944,0.0007078500274274404,0.0
6493,4.137931034482759,4.827586206896552,4.642857142857143,0,87246.00836223841,206638.9516951447,255050.4785036338,154332.56554654386,28807.5210008947,5.816400557482561e-07,0.0,0.0,0.0,5.816400557482561e-07,0.0,24.872351067180194,3.897352899988835,0.0009617688378021088,0.0
6494,4.137931034482759,4.827586206896552,5.0,0,257489.9045292189,349806.7980118386,294609.6867369165,69194.38877216038,-14565.422863056383,1.716599363528126e-06,0.0,0.0,0.0,1.716599363528126e-06,0.0,24.54797034888163,4.200176073994122,-0.00048574750097304085,0.0
6495,4.482758620689656,4.827586206896552,0.0,0,196011.2515191297,284383.3500999082,115183.97990951648,69594.99204321152,-65625.85370251743,1.306741676794198e-06,0.0,0.0,0.0,1.306741676794198e-06,0.0,24.789898023140992,-0.049817479813944424,-0.002188580086890185,0.0
6496,4.482758620689656,4.827586206896552,0.35714285714285715,0,223097.31668765345,317361.52469864115,148991.82684885897,64324.23620679883,-77114.94051609386,1.4873154445843564e-06,0.0,0.0,0.0,1.4873154445843564e-06,0.0,24.59561989399993,0.25452959744604,-0.0025745619248195247,0.0
6497,4.482758620689656,4.827586206896552,0.7142857142857143,0,98937.76809077116,264602.47687732294,153785.47708746218,185144.52017015425,18749.05918365133,6.595851206051411e-07,0.0,0.0,0.0,6.595851206051411e-07,0.0,24.61840248973037,0.5610403363469968,0.0006282180307982352,0.0
6498,4.482758620689656,4.827586206896552,1.0714285714285714,0,195814.8150344247,358549.7945959934,268459.4278139203,133904.39921518884,-10520.14678535136,1.305432100229498e-06,0.0,0.0,0.0,1.305432100229498e-06,0.0,24.571687600450808,0.8729981821279057,-0.0003566675588876915,0.0
6499,4.482758620689656,4.827586206896552,1.4285714285714286,0,206765.7587419965,380306.34280711453,361526.1847021414,164791.16039669715,75377.53438188144,1.3784383916133101e-06,0.0,0.0,0.0,1.3784383916133101e-06,0.0,24.71148670929855,1.1942841822581887,0.0026538704200225424,0.0
6500,4.482758620689656,4.827586206896552,1.7857142857142858,0,166056.66295825416,421815.6357834334,243842.4927482242,271031.1227025538,-18024.89046757527,1.1070444197216943e-06,0.0,0.0,0.0,1.1070444197216943e-06,0.0,25.223270764172018,1.524621091363278,-0.000711938082478838,0.0
6501,4.482758620689656,4.827586206896552,2.142857142857143,0,386960.5737205278,572548.2951076779,733788.08065422,292280.69255616097,307113.02309659874,2.579737158136852e-06,0.0,0.0,0.0,2.579737158136852e-06,0.0,24.02199705886117,1.8546541284202558,0.01646282290750731,0.0
6502,4.482758620689656,4.827586206896552,2.5,0,117023.99806624385,621830.8209207976,490298.5573832865,529249.3230360951,652833.3613440391,7.801599871082923e-07,0.0,0.0,0.0,7.801599871082923e-07,0.0,25.020932916551228,2.169547797137641,0.06528333613440392,0.0
6503,4.482758620689656,4.827586206896552,2.857142857142857,0,580673.4767265326,774577.2317570797,572746.1075877066,119920.00195984481,296969.8014844429,3.871156511510217e-06,0.0,0.0,0.0,3.871156511510217e-06,0.0,24.942214944325077,2.4617969855631125,0.015919094545131747,0.0
6504,4.482758620689656,4.827586206896552,3.2142857142857144,0,419182.7199917361,561548.4071770541,224574.7950830566,92145.09891737624,-27136.25822265102,2.794551466611574e-06,0.0,0.0,0.0,2.794551466611574e-06,0.0,25.579044109761075,2.7389068056489925,-0.001071814315844973,0.0
6505,4.482758620689656,4.827586206896552,3.5714285714285716,0,292054.57401817245,397532.5037138041,237639.46495924497,60444.901809225994,101944.77705518271,1.947030493454483e-06,0.0,0.0,0.0,1.947030493454483e-06,0.0,24.708736368626486,3.0157127536867603,0.0035892422128306453,0.0
6506,4.482758620689656,4.827586206896552,3.928571428571429,0,129961.39651929328,295531.59342909453,205145.30545045994,146594.99762556644,48034.18488572888,8.664093101286219e-07,0.0,0.0,0.0,8.664093101286219e-07,0.0,25.462157090342217,3.301569610699335,0.0016285167703371328,0.0
6507,4.482758620689656,4.827586206896552,4.285714285714286,0,68014.64397959724,225802.67890635127,187131.17956568926,147269.14085055568,-6672.025122128886,4.534309598639816e-07,0.0,0.0,0.0,4.534309598639816e-07,0.0,24.471091529680024,3.5967546220612827,-0.00022355716319435515,0.0
6508,4.482758620689656,4.827586206896552,4.642857142857143,0,152351.60234784905,252900.18337554147,227542.12442928285,89460.62401207355,23983.04224495101,1.0156773489856603e-06,0.0,0.0,0.0,1.0156773489856603e-06,0.0,24.678277810099086,3.897386740303183,0.0008006986323526077,0.0
6509,4.482758620689656,4.827586206896552,5.0,0,238381.81154042433,360270.75279673503,145983.90301401186,103505.31220934744,24291.751825754287,1.5892120769361621e-06,0.0,0.0,0.0,1.5892120769361621e-06,0.0,25.118839155353033,4.200182520186056,0.0008101143272363207,0.0
6510,4.827586206896552,4.827586206896552,0.0,0,104450.58941542798,282178.5491346022,163498.65662533542,204231.13221031625,20053.060711986436,6.963372627695199e-07,0.0,0.0,0.0,6.963372627695199e-07,0.0,25.23421845122588,-0.04981166161124101,0.0006687566999798112,0.0
6511,4.827586206896552,4.827586206896552,0.35714285714285715,0,212478.81203287956,321490.5889857085,246137.67073439973,81604.58793346141,-43183.108541119036,1.4165254135525305e-06,0.0,0.0,0.0,1.4165254135525305e-06,0.0,24.802486639181247,0.25456014103059943,-0.001441712673332234,0.0
6512,4.827586206896552,4.827586206896552,0.7142857142857143,0,140076.82369277874,246075.5310716493,303618.83174538054,143934.64210636387,10167.496004446899,9.338454912851916e-07,0.0,0.0,0.0,9.338454912851916e-07,0.0,25.051225180808324,0.5611645764353513,0.00034067865781938536,0.0
6513,4.827586206896552,4.827586206896552,1.0714285714285714,0,225249.37850607402,344754.6847891314,224633.6763899226,84905.56724221808,47389.69827742239,1.5016625233738268e-06,0.0,0.0,0.0,1.5016625233738268e-06,0.0,24.86236451745533,0.8733897563469919,0.0016066665556955882,0.0
6514,4.827586206896552,4.827586206896552,1.4285714285714286,0,95050.85637299364,341012.0381210966,300573.5618680171,232428.70929032163,23656.98855426572,6.336723758199577e-07,0.0,0.0,0.0,6.336723758199577e-07,0.0,25.344963568898784,1.1952404445282838,0.0008329084078673281,0.0
6515,4.827586206896552,4.827586206896552,1.7857142857142858,0,318476.50628095324,650281.099913648,457926.3285170117,282668.60872299876,77996.47185082755,2.1231767085396884e-06,0.0,0.0,0.0,2.1231767085396884e-06,0.0,24.880712579640218,1.5264305578436281,0.003080665522460876,0.0
6516,4.827586206896552,4.827586206896552,2.142857142857143,0,736618.4738602046,919931.7122339432,690002.4656781149,95773.05188589204,257707.82910948584,4.910789825734697e-06,0.0,0.0,0.0,4.910789825734697e-06,0.0,24.847271779716586,1.8573071125703742,0.01381445276963447,0.0
6517,4.827586206896552,4.827586206896552,2.5,0,461713.8368571898,844452.5810513648,477406.13564417895,326060.20878207963,456134.10474515357,3.0780922457145984e-06,0.0,0.0,0.0,3.0780922457145984e-06,0.0,25.459116509083625,2.1725617007545295,0.04561341047451536,0.0
6518,4.827586206896552,4.827586206896552,2.857142857142857,0,685335.2391403358,776494.5868288068,433868.4687658309,-12588.572987239213,175196.585685016,4.568901594268905e-06,0.0,0.0,0.0,4.568901594268905e-06,0.0,25.07334096982024,2.464449969713231,0.009391429692726345,0.0
6519,4.827586206896552,4.827586206896552,3.2142857142857144,0,171597.68458452105,478445.9195859243,302187.56375887303,311923.44249684917,97371.0587019529,1.143984563896807e-06,0.0,0.0,0.0,1.143984563896807e-06,0.0,25.307111824878728,2.7407162721293425,0.0038459132356951295,0.0
6520,4.827586206896552,4.827586206896552,3.5714285714285716,0,124963.04977250154,268809.2449445293,407551.9416899495,303849.6760078959,-3572.9643489775135,8.330869984833436e-07,0.0,0.0,0.0,8.330869984833436e-07,0.0,26.226966726202704,3.0166690159568557,-0.00012579589496132106,0.0
6521,4.827586206896552,4.827586206896552,3.928571428571429,0,275037.59560313885,267618.0839418443,258937.8412267114,-11656.882488078392,-43120.97851717654,1.8335839706875923e-06,0.0,0.0,0.0,1.8335839706875923e-06,0.0,23.989818846417066,3.301961184918421,-0.001461942923266567,0.0
6522,4.827586206896552,4.827586206896552,4.285714285714286,0,260105.65685991797,325953.15075554134,248518.898894303,35923.659013871984,30617.129977413166,1.7340377123994532e-06,0.0,0.0,0.0,1.7340377123994532e-06,0.0,24.473420030353342,3.5968788621496373,0.0010258772408098132,0.0
6523,4.827586206896552,4.827586206896552,4.642857142857143,0,171107.16350197792,332856.6598160401,241660.02037908768,135468.87696442186,-18342.47035522893,1.1407144233465195e-06,0.0,0.0,0.0,1.1407144233465195e-06,0.0,24.527996469812788,3.8974172838877426,-0.0006123823148621592,0.0
6524,4.827586206896552,4.827586206896552,5.0,0,192037.21786558998,321747.5679178751,136184.88853658203,123832.20870365735,-26805.22243944053,1.2802481191039333e-06,0.0,0.0,0.0,1.2802481191039333e-06,0.0,24.56983748063076,4.2001883383887595,-0.0008939369584668894,0.0
6525,5.172413793103448,4.827586206896552,0.0,0,235806.80837592992,313174.2600687906,362495.6385745036,105928.92936277522,-16539.301051911476,1.572045389172866e-06,0.0,0.0,0.0,1.572045389172866e-06,0.0,25.641901041794508,-0.04981166161124101,-0.000551575071272662,0.0
6526,5.172413793103448,4.827586206896552,0.35714285714285715,0,332648.81866860954,395561.0811076345,265294.80051519413,17493.02958053204,-6436.644603463106,2.2176587911240637e-06,0.0,0.0,0.0,2.2176587911240637e-06,0.0,23.60150122598147,0.25456014103059943,-0.00021489402713359686,0.0
6527,5.172413793103448,4.827586206896552,0.7142857142857143,0,162619.44346237712,338667.1051446046,282459.47932745155,155400.11847365476,15321.715179448081,1.084129623082514e-06,0.0,0.0,0.0,1.084129623082514e-06,0.0,25.18063770243424,0.5611645764353513,0.0005133792391501634,0.0
6528,5.172413793103448,4.827586206896552,1.0714285714285714,0,243667.95919320406,392995.3947614755,119518.11480140244,198970.5666850851,-29936.901410634102,1.6244530612880272e-06,0.0,0.0,0.0,1.6244530612880272e-06,0.0,24.178179839010234,0.8733897563469919,-0.0010149593693559607,0.0
6529,5.172413793103448,4.827586206896552,1.4285714285714286,0,114070.79380893408,258347.88518142074,342702.99929281627,388134.27194417734,45486.94693250622,7.604719587262272e-07,0.0,0.0,0.0,7.604719587262272e-07,0.0,24.962059977294338,1.1952404445282838,0.0016014912659484666,0.0
6530,5.172413793103448,4.827586206896552,1.7857142857142858,0,246923.82399845513,123611.00401250736,360622.51872771437,379377.57616196055,88188.52844075717,1.6461588266563675e-06,0.0,0.0,0.0,1.6461588266563675e-06,0.0,25.083707980237108,1.5264305578436281,0.0034832262613570825,0.0
6531,5.172413793103448,4.827586206896552,2.142857142857143,0,688557.9373001477,897997.9022064554,370025.50273463246,119185.62303593659,276764.6945506963,4.590386248667651e-06,0.0,0.0,0.0,4.590386248667651e-06,0.0,25.41188787884353,1.8573071125703742,0.01483599785999739,0.0
6532,5.172413793103448,4.827586206896552,2.5,0,278860.98935284495,714942.1512033268,509172.68796339753,397563.4863793877,560938.8578551045,1.8590732623522995e-06,0.0,0.0,0.0,1.8590732623522995e-06,0.0,24.83071569948029,2.1725617007545295,0.056093885785510444,0.0
6533,5.172413793103448,4.827586206896552,2.857142857142857,0,406868.7038443375,813660.2575699523,379863.8971593285,440532.50129517994,284585.2547792291,2.7124580256289164e-06,0.0,0.0,0.0,2.7124580256289164e-06,0.0,24.88166006326265,2.464449969713231,0.015255219737277842,0.0
6534,5.172413793103448,4.827586206896552,3.2142857142857144,0,348277.7770030255,538894.4293875284,254450.5816469271,150468.96560348006,64193.30182185343,2.3218518466868368e-06,0.0,0.0,0.0,2.3218518466868368e-06,0.0,23.948194568308256,2.7407162721293425,0.002535474836268642,0.0
6535,5.172413793103448,4.827586206896552,3.5714285714285716,0,278936.8203415254,527502.2926838651,285119.6172529635,222616.29328642876,65886.68290707316,1.8595788022768361e-06,0.0,0.0,0.0,1.8595788022768361e-06,0.0,26.117754147625455,3.0166690159568557,0.0023197192674760175,0.0
6536,5.172413793103448,4.827586206896552,3.928571428571429,0,173428.7244639962,372098.7774698386,214524.5369934702,186282.26162964973,-14695.406287069512,1.1561914964266413e-06,0.0,0.0,0.0,1.1561914964266413e-06,0.0,25.135631378468776,3.301961184918421,-0.0004982225813208425,0.0
6537,5.172413793103448,4.827586206896552,4.285714285714286,0,114376.89968557836,345510.4263312562,256435.75115616797,216525.7568526201,6340.732199802628,7.625126645705224e-07,0.0,0.0,0.0,7.625126645705224e-07,0.0,25.20654608683212,3.5968788621496373,0.00021245664955030666,0.0
6538,5.172413793103448,4.827586206896552,4.642857142857143,0,184288.71643788775,389155.673613413,345085.39131727617,186827.19185045027,-23287.421240173986,1.2285914429192517e-06,0.0,0.0,0.0,1.2285914429192517e-06,0.0,25.528405368159525,3.8974172838877426,-0.000777474606748518,0.0
6539,5.172413793103448,4.827586206896552,5.0,0,180573.10730469465,357850.0921187549,224668.51983341345,152321.73479976036,17729.370307191635,1.203820715364631e-06,0.0,0.0,0.0,1.203820715364631e-06,0.0,24.96289680109822,4.2001883383887595,0.0005912631168702536,0.0
6540,5.517241379310345,4.827586206896552,0.0,0,229317.1819234658,321982.5128856313,88968.50762420808,96550.19208075969,9796.541373725924,1.5287812128231054e-06,0.0,0.0,0.0,1.5287812128231054e-06,0.0,25.0561526458004,-0.049817479813944424,0.00032670836509224576,0.0
6541,5.517241379310345,4.827586206896552,0.35714285714285715,0,329516.7706781186,430461.6930281953,230991.9697161568,50120.03482316174,47134.345124548156,2.1967784711874575e-06,0.0,0.0,0.0,2.1967784711874575e-06,0.0,25.206631241441652,0.25452959744604,0.001573628787065442,0.0
6542,5.517241379310345,4.827586206896552,0.7142857142857143,0,155507.85882179992,276695.44172870286,333819.3919356678,157828.33255806728,-29483.26552813508,1.0367190588119995e-06,0.0,0.0,0.0,1.0367190588119995e-06,0.0,24.116313996053147,0.5610403363469968,-0.0009878852496095975,0.0
6543,5.517241379310345,4.827586206896552,1.0714285714285714,0,236544.89478111872,390074.2609451349,250173.83002738125,116963.05189058617,25536.635990516184,1.5769659652074583e-06,0.0,0.0,0.0,1.5769659652074583e-06,0.0,25.12374317617877,0.8729981821279057,0.0008657759066274069,0.0
6544,5.517241379310345,4.827586206896552,1.4285714285714286,0,246183.28035210082,293995.77179418254,428278.5918825933,144152.61857005607,59174.32260385229,1.6412218690140054e-06,0.0,0.0,0.0,1.6412218690140054e-06,0.0,25.900745423422325,1.1942841822581887,0.0020833924281421306,0.0
6545,5.517241379310345,4.827586206896552,1.7857142857142858,0,221448.21781408432,634801.8089138534,482198.60601118795,380810.84362517647,37556.01805872313,1.4763214520938953e-06,0.0,0.0,0.0,1.4763214520938953e-06,0.0,25.741313881022087,1.524621091363278,0.001483368763342323,0.0
6546,5.517241379310345,4.827586206896552,2.142857142857143,0,552809.3209972904,938541.0928420171,300328.3748039344,608873.4705312406,329353.62883832096,3.6853954733152694e-06,0.0,0.0,0.0,3.6853954733152694e-06,0.0,25.638664177697237,1.8546541284202556,0.017655032700468445,0.0
6547,5.517241379310345,4.827586206896552,2.5,0,1088995.8257482757,1419770.7121799868,767589.8649224815,162601.87329823792,633785.554839528,7.259972171655171e-06,0.0,0.0,0.0,7.259972171655171e-06,0.0,25.832631518691297,2.169547797137641,0.0633785554839528,0.0
6548,5.517241379310345,4.827586206896552,2.857142857142857,0,334924.27473093703,620820.2554568048,686240.8728058073,323433.03774963086,319447.2320979369,2.232828498206247e-06,0.0,0.0,0.0,2.232828498206247e-06,0.0,24.25230511318396,2.4617969855631125,0.0171239993579418,0.0
6549,5.517241379310345,4.827586206896552,3.2142857142857144,0,357067.7726307924,536624.693663991,558733.5735603933,191125.0811547701,75062.4830958005,2.380451817538616e-06,0.0,0.0,0.0,2.380451817538616e-06,0.0,24.624399380917687,2.7389068056489925,0.0029647803062912695,0.0
6550,5.517241379310345,4.827586206896552,3.5714285714285716,0,279760.5548078258,495837.3991183522,452999.9351990523,197128.77951383247,34025.68740829095,1.8650703653855056e-06,0.0,0.0,0.0,1.8650703653855056e-06,0.0,24.43585575313169,3.0157127536867603,0.0011979665569361244,0.0
6551,5.517241379310345,4.827586206896552,3.928571428571429,0,381059.2142779665,390958.72545067355,322987.11932368646,-19512.16411231134,-3941.1222627338534,2.5403947618531098e-06,0.0,0.0,0.0,2.5403947618531098e-06,0.0,26.643862910388073,3.301569610699335,-0.0001336170003525546,0.0
6552,5.517241379310345,4.827586206896552,4.285714285714286,0,296031.67240678397,368451.0870997583,280268.06349311344,38348.09505718067,-4326.526640064978,1.973544482711893e-06,0.0,0.0,0.0,1.973544482711893e-06,0.0,25.0230025549991,3.5967546220612827,-0.0001449673831307626,0.0
6553,5.517241379310345,4.827586206896552,4.642857142857143,0,158137.9236879171,286706.01541983814,296087.6555287168,133467.76427465284,9453.075928009797,1.054252824586114e-06,0.0,0.0,0.0,1.054252824586114e-06,0.0,24.198645758261662,3.897386740303183,0.00031560070193664724,0.0
6554,5.517241379310345,4.827586206896552,5.0,0,101400.99978540542,312544.78949632414,236188.29830488443,197493.7434626179,-14147.523563811224,6.760066652360361e-07,0.0,0.0,0.0,6.760066652360361e-07,0.0,24.35967705250921,4.200182520186056,-0.0004718108276491519,0.0
6555,5.862068965517242,4.827586206896552,0.0,0,314240.3247265846,468479.3797159705,152817.20747092873,155680.4696930491,-13117.08358142494,2.0949354981772305e-06,0.0,0.0,0.0,2.0949354981772305e-06,0.0,24.80237132363518,-0.049823926005878476,-0.0004374463158150059,0.0
6556,5.862068965517242,4.827586206896552,0.35714285714285715,0,149320.97376587742,371290.5650945019,265722.2443404224,200446.03691241634,-33721.17629468499,9.954731584391829e-07,0.0,0.0,0.0,9.954731584391829e-07,0.0,24.07207828831594,0.254495757131692,-0.0011258162940591778,0.0
6557,5.862068965517242,4.827586206896552,0.7142857142857143,0,207250.50324085902,404606.59010928136,290942.75129109464,165392.73655531646,-1580.7516939561492,1.3816700216057268e-06,0.0,0.0,0.0,1.3816700216057268e-06,0.0,25.69262786681146,0.5609026863722089,-5.2965682524701035e-05,0.0
6558,5.862068965517242,4.827586206896552,1.0714285714285714,0,175538.4164884538,378808.2244293762,178077.15751554482,254070.2732630889,17609.595586016552,1.1702561099230253e-06,0.0,0.0,0.0,1.1702561099230253e-06,0.0,25.15828078213257,0.8725643432430601,0.0005970231783656829,0.0
6559,5.862068965517242,4.827586206896552,1.4285714285714286,0,109015.40639093542,343977.09209322056,434971.0434495216,314145.22573190957,-6463.233368744796,7.267693759395694e-07,0.0,0.0,0.0,7.267693759395694e-07,0.0,24.92429960983001,1.193224705569845,-0.0002275556503097486,0.0
6560,5.862068965517242,4.827586206896552,1.7857142857142858,0,538048.8989823819,766020.0450815237,581622.0777840916,160016.95485269785,18063.886434293992,3.586992659882546e-06,0.0,0.0,0.0,3.586992659882546e-06,0.0,24.245689217963275,1.5226163196450768,0.0007134783256120807,0.0
6561,5.862068965517242,4.827586206896552,2.142857142857143,0,586774.8161712518,1052578.7599476879,407058.7200106794,551542.0072780297,351488.07609691174,3.911832107808346e-06,0.0,0.0,0.0,3.911832107808346e-06,0.0,24.11669923163791,1.8517147937319645,0.018841551857811778,0.0
6562,5.862068965517242,4.827586206896552,2.5,0,935064.5142162486,1644111.5600887386,1095040.8969870878,564444.7480098543,693942.2696033053,6.233763428108324e-06,0.0,0.0,0.0,6.233763428108324e-06,0.0,24.956544263862288,2.1662085870455297,0.06939422696033053,0.0
6563,5.862068965517242,4.827586206896552,2.857142857142857,0,219039.06649620563,762082.012438256,610459.5024629957,861587.8230863784,372927.6025043466,1.4602604433080375e-06,0.0,0.0,0.0,1.4602604433080375e-06,0.0,24.85542211746802,2.458857650874821,0.019990819716620256,0.0
6564,5.862068965517242,4.827586206896552,3.2142857142857144,0,526548.7563512913,751659.9370935275,351330.74100528064,155192.43231694642,211902.64886475928,3.510325042341942e-06,0.0,0.0,0.0,3.510325042341942e-06,0.0,24.149752263609614,2.7369020339307912,0.008369624535380451,0.0
6565,5.862068965517242,4.827586206896552,3.5714285714285716,0,214407.52379126268,332400.52559346444,412680.6170092583,169718.19470054173,-23913.841333277356,1.429383491941751e-06,0.0,0.0,0.0,1.429383491941751e-06,0.0,24.769239744457714,3.0146532769984167,-0.0008419516061904005,0.0
6566,5.862068965517242,4.827586206896552,3.928571428571429,0,282960.52496534656,399942.80794408545,267459.431804185,75045.41246833533,-5579.896606030172,1.886403499768977e-06,0.0,0.0,0.0,1.886403499768977e-06,0.0,24.775261104192666,3.301135771814489,-0.00018917683773097917,0.0
6567,5.862068965517242,4.827586206896552,4.285714285714286,0,352832.65275079734,449855.28196390806,406399.9593550509,77307.7137985876,29334.35151307704,2.3522176850053158e-06,0.0,0.0,0.0,2.3522176850053158e-06,0.0,25.17466806471468,3.5966169720864944,0.0009828956408840784,0.0
6568,5.862068965517242,4.827586206896552,4.642857142857143,0,35245.4314656695,219680.83802292633,198615.6451605675,178991.4235159796,-26061.237856130418,2.3496954310446333e-07,0.0,0.0,0.0,2.3496954310446333e-07,0.0,25.863569332744763,3.897352899988835,-0.0008700813389599338,0.0
6569,5.862068965517242,4.827586206896552,5.0,0,212561.109725725,359707.84774759924,132654.37091667502,165451.53382183594,72323.8474283325,1.4170740648381665e-06,0.0,0.0,0.0,1.4170740648381665e-06,0.0,23.775342470279682,4.200176073994122,0.0024119538773003497,0.0
6570,6.206896551724139,4.827586206896552,0.0,0,131250.669278764,350085.4726803517,254039.9069141719,200533.5060193238,182.11599507444362,8.750044618584266e-07,0.0,0.0,0.0,8.750044618584266e-07,0.0,25.052258934280985,-0.04983048971069613,6.073451510907031e-06,0.0
6571,6.206896551724139,4.827586206896552,0.35714285714285715,0,139997.13174179944,339204.71173957136,338508.6148175251,198860.82947362,22142.992847875048,9.333142116119962e-07,0.0,0.0,0.0,9.333142116119962e-07,0.0,24.308159448656244,0.2544612999146886,0.0007392666830339122,0.0
6572,6.206896551724139,4.827586206896552,0.7142857142857143,0,260630.77774239302,426361.79648727435,203700.0225667449,139689.23412573215,758.2074690326633,1.7375385182826202e-06,0.0,0.0,0.0,1.7375385182826202e-06,0.0,24.87191217343528,0.5607625270639056,2.540498690982593e-05,0.0
6573,6.206896551724139,4.827586206896552,1.0714285714285714,0,340329.3694013575,499254.12146679196,176995.09156622872,143353.15606037565,41805.68534946355,2.2688624626757167e-06,0.0,0.0,0.0,2.2688624626757167e-06,0.0,24.73123079126985,0.8721225955557925,0.0014173501611196475,0.0
6574,6.206896551724139,4.827586206896552,1.4285714285714286,0,323608.58140671253,461321.367083697,353468.7495981585,97559.01518874144,-44416.43928679496,2.1573905427114167e-06,0.0,0.0,0.0,2.1573905427114167e-06,0.0,24.920678070235983,1.1921459148179372,-0.0015638011425097252,0.0
6575,6.206896551724139,4.827586206896552,1.7857142857142858,0,488164.7095338314,706834.5831526138,276503.70853896224,176365.66124731864,178234.30361223308,3.254431396892209e-06,0.0,0.0,0.0,3.254431396892209e-06,0.0,24.053797551562617,1.520575001310208,0.007039809122496924,0.0
6576,6.206896551724139,4.827586206896552,2.142857142857143,0,555317.8483926542,1028901.2564269383,765833.877182448,390934.374540873,402696.67091199814,3.7021189892843615e-06,0.0,0.0,0.0,3.7021189892843615e-06,0.0,25.164891375635754,1.848721875517361,0.021586593469146827,0.0
6577,6.206896551724139,4.827586206896552,2.5,0,584337.5843376846,1183994.907624422,747867.4869690639,520066.79281486606,760851.8171922863,3.895583895584564e-06,0.0,0.0,0.0,3.895583895584564e-06,0.0,24.705244493606365,2.162808503772646,0.07608518171922862,0.0
6578,6.206896551724139,4.827586206896552,2.857142857142857,0,250247.5931874035,786749.5819657757,803610.3776805836,545358.7576021965,305114.4646511567,1.6683172879160233e-06,0.0,0.0,0.0,1.6683172879160233e-06,0.0,25.385416946674475,2.455864732660218,0.016355689991338965,0.0
6579,6.206896551724139,4.827586206896552,3.2142857142857144,0,511935.46861593047,829444.0786379039,287347.39895549853,354247.9579246183,94413.01437054279,3.412903124106203e-06,0.0,0.0,0.0,3.412903124106203e-06,0.0,25.490508807167718,2.7348607155959224,0.003729077884435721,0.0
6580,6.206896551724139,4.827586206896552,3.5714285714285716,0,146977.90842354987,501936.8530222531,454822.6732114877,337178.85621422133,-39920.76115260066,9.798527228236658e-07,0.0,0.0,0.0,9.798527228236658e-07,0.0,24.817438816252203,3.0135744862465086,-0.0014055186075857887,0.0
6581,6.206896551724139,4.827586206896552,3.928571428571429,0,308647.0248246377,440051.48244786065,270559.34311288473,83796.11835228067,48209.0639028889,2.057646832164251e-06,0.0,0.0,0.0,2.057646832164251e-06,0.0,25.198699199146056,3.300694024127222,0.0016344457438984136,0.0
6582,6.206896551724139,4.827586206896552,4.285714285714286,0,194910.4371595448,332009.9323042723,337554.57795885956,139930.97545358012,-51053.27688638211,1.2994029143969652e-06,0.0,0.0,0.0,1.2994029143969652e-06,0.0,25.16017815618741,3.5964768127781914,-0.0017106239175630985,0.0
6583,6.206896551724139,4.827586206896552,4.642857142857143,0,267253.8014145957,358361.68760306225,351976.6729258998,87972.58960278965,6083.791415156494,1.7816920094306378e-06,0.0,0.0,0.0,1.7816920094306378e-06,0.0,25.382578509597927,3.897318442771832,0.0002031136590546539,0.0
6584,6.206896551724139,4.827586206896552,5.0,0,171267.13031988966,380627.71470145223,184839.58942642206,258594.73268098047,-15324.40459932944,1.1417808687992644e-06,0.0,0.0,0.0,1.1417808687992644e-06,0.0,25.35111919101995,4.200169510289304,-0.00051105905458498,0.0
6585,6.551724137931035,4.827586206896552,0.0,0,210432.08259068386,285673.88348202454,361206.45160594425,123433.20579538307,-64399.601270333966,1.402880550604559e-06,0.0,0.0,0.0,1.402880550604559e-06,0.0,23.971929324394555,-0.0498370942513687,-0.0021476853555737305,0.0
6586,6.551724137931035,4.827586206896552,0.35714285714285715,0,96168.1661608001,273041.9596019389,171059.69366411946,260103.80625844304,-38555.92884104307,6.411211077386674e-07,0.0,0.0,0.0,6.411211077386674e-07,0.0,24.69777408858062,0.25442662832334123,-0.0012872295006112855,0.0
6587,6.551724137931035,4.827586206896552,0.7142857142857143,0,163286.50866879657,363836.8539951585,176148.6659321502,285560.0962632144,18597.43017456578,1.0885767244586439e-06,0.0,0.0,0.0,1.0885767244586439e-06,0.0,23.869225876743066,0.5606214957594755,0.0006231374517373577,0.0
6588,6.551724137931035,4.827586206896552,1.0714285714285714,0,262457.2367114763,470556.0395285118,465569.61018543114,205641.11702008394,-37923.30758217139,1.749714911409842e-06,0.0,0.0,0.0,1.749714911409842e-06,0.0,24.30717226621835,0.8716780995510784,-0.0012857247922732665,0.0
6589,6.551724137931035,4.827586206896552,1.4285714285714286,0,217674.9966538787,430422.9541398592,456662.1329274797,227056.90130610837,-26907.024807765498,1.4511666443591914e-06,0.0,0.0,0.0,1.4511666443591914e-06,0.0,24.332192632610035,1.1910604124079263,-0.0009473347438823356,0.0
6590,6.551724137931035,4.827586206896552,1.7857142857142858,0,434950.6619597203,564705.8863739019,790587.0284553849,289168.19473039417,101184.76080042674,2.8996710797314686e-06,0.0,0.0,0.0,2.8996710797314686e-06,0.0,24.870148099230224,1.5185209829862827,0.003996544928243674,0.0
6591,6.551724137931035,4.827586206896552,2.142857142857143,0,457291.6802590979,879563.6067592966,657739.3255425821,353668.12668873277,492439.9950917215,3.0486112017273194e-06,0.0,0.0,0.0,3.0486112017273194e-06,0.0,24.467250113430918,1.8457103369690635,0.026397292925018148,0.0
6592,6.551724137931035,4.827586206896552,2.5,0,652846.1837342867,1123768.3307370686,890781.137625796,386391.60065224714,795076.7328598019,4.352307891561911e-06,0.0,0.0,0.0,4.352307891561911e-06,0.0,24.507251317543904,2.1593872670032117,0.07950767328598018,0.0
6593,6.551724137931035,4.827586206896552,2.857142857142857,0,534067.8901997168,976408.5154883568,846367.6496588461,389329.13834114216,391416.6681853146,3.560452601331445e-06,0.0,0.0,0.0,3.560452601331445e-06,0.0,25.091376112632126,2.4528531941119205,0.0209819278466565,0.0
6594,6.551724137931035,4.827586206896552,3.2142857142857144,0,499503.2329646906,1016381.3487726741,494721.7586221834,542462.5259526983,90141.86768922929,3.3300215530979374e-06,0.0,0.0,0.0,3.3300215530979374e-06,0.0,25.036248935794315,2.732806697271997,0.0035603782752064604,0.0
6595,6.551724137931035,4.827586206896552,3.5714285714285716,0,443345.6040849796,599523.824625237,272685.46894614474,94874.75125451692,12102.405508530144,2.955637360566531e-06,0.0,0.0,0.0,2.955637360566531e-06,0.0,24.739251537001635,3.012488983836498,0.00042609799131246604,0.0
6596,6.551724137931035,4.827586206896552,3.928571428571429,0,309896.02057697944,513351.4141868042,221871.1569685202,187847.5842683603,-43879.21581481483,2.0659734705131964e-06,0.0,0.0,0.0,2.0659734705131964e-06,0.0,24.980590028482176,3.300249528122508,-0.0014876496602089467,0.0
6597,6.551724137931035,4.827586206896552,4.285714285714286,0,254800.96009796337,510167.8280688546,307152.19988748163,224236.53309128154,11561.174180978396,1.6986730673197557e-06,0.0,0.0,0.0,1.6986730673197557e-06,0.0,24.933710863002542,3.5963357814737615,0.00038737613479948547,0.0
6598,6.551724137931035,4.827586206896552,4.642857142857143,0,166903.3143682653,329861.44719649607,200590.65281778577,141437.87352152134,-43086.09877818383,1.112688762455102e-06,0.0,0.0,0.0,1.112688762455102e-06,0.0,25.597901352951908,3.8972837711804846,-0.0014384739022158038,0.0
6599,6.551724137931035,4.827586206896552,5.0,0,112679.47204188375,311370.628013037,198242.75995770458,199144.96995907847,25315.776936950322,7.51196480279225e-07,0.0,0.0,0.0,7.51196480279225e-07,0.0,24.515819777358427,4.200162905748631,0.0008442649072348432,0.0
6600,6.8965517241379315,4.827586206896552,0.0,0,290429.91214790865,332753.69641809247,332791.50092644565,42342.68836970346,5775.158929147409,1.936199414319391e-06,0.0,0.0,0.0,1.936199414319391e-06,0.0,24.07991347571082,-0.04984371762579406,0.00019259784243344952,0.0
6601,6.8965517241379315,4.827586206896552,0.35714285714285715,0,253933.65749359244,541530.2685685413,291076.2468314977,284254.4422760313,-92507.53853002492,1.692891049957283e-06,0.0,0.0,0.0,1.692891049957283e-06,0.0,24.562576525872444,0.25439185786119994,-0.0030884597052690727,0.0
6602,6.8965517241379315,4.827586206896552,0.7142857142857143,0,112684.92503780389,381881.1668542021,380543.1152304797,268533.1743086835,41991.4479890577,7.512328335853593e-07,0.0,0.0,0.0,7.512328335853593e-07,0.0,23.990177043212842,0.5604800622849546,0.001406992452669561,0.0
6603,6.8965517241379315,4.827586206896552,1.0714285714285714,0,143051.94752846248,331218.4968204745,271705.25391515583,168017.16722674505,-22779.409306217687,9.5367965018975e-07,0.0,0.0,0.0,9.5367965018975e-07,0.0,24.286123402776195,0.8712323360050952,-0.0007722968582021426,0.0
6604,6.8965517241379315,4.827586206896552,1.4285714285714286,0,306777.4172253067,469145.3753510474,299696.680700559,115018.46933274982,-24597.211625447995,2.0451827815020445e-06,0.0,0.0,0.0,2.0451827815020445e-06,0.0,24.69989414264811,1.1899718145390408,-0.0008660115097039035,0.0
6605,6.8965517241379315,4.827586206896552,1.7857142857142858,0,251672.77405269258,700340.8511654102,577105.0357778774,410799.9618447243,147769.13893781725,1.6778184936846172e-06,0.0,0.0,0.0,1.6778184936846172e-06,0.0,24.225890044107974,1.516461107347633,0.005836511329385657,0.0
6606,6.8965517241379315,4.827586206896552,2.142857142857143,0,837459.7914291904,1148115.063156716,585774.9896585338,185645.4347710474,393173.3046688708,5.583065276194603e-06,0.0,0.0,0.0,5.583065276194603e-06,0.0,24.37025456111014,1.8426902106059078,0.02107609251297401,0.0
6607,6.8965517241379315,4.827586206896552,2.5,0,947746.6260801196,1346418.2828428384,728696.3395243736,255228.50064203178,816347.3749812165,6.318310840534131e-06,0.0,0.0,0.0,6.318310840534131e-06,0.0,24.352553266406698,2.155956274108298,0.08163473749812164,0.0
6608,6.8965517241379315,4.827586206896552,2.857142857142857,0,421779.3162889087,909140.6627688314,627958.6941474816,424165.71100205375,339771.6551303131,2.8118621085927248e-06,0.0,0.0,0.0,2.8118621085927248e-06,0.0,24.27713183030785,2.4498330677487647,0.01821349199392822,0.0
6609,6.8965517241379315,4.827586206896552,3.2142857142857144,0,336829.4252956663,836288.079866029,483961.1678497499,517459.3791526224,136573.2702915566,2.245529501971109e-06,0.0,0.0,0.0,2.245529501971109e-06,0.0,23.950271328980687,2.730746821633348,0.005394302525396403,0.0
6610,6.8965517241379315,4.827586206896552,3.5714285714285716,0,237687.05848617497,447767.67017363425,541373.8594916764,271134.9826427239,16577.6979404159,1.5845803899078331e-06,0.0,0.0,0.0,1.5845803899078331e-06,0.0,25.009359198134792,3.0114003859676126,0.0005836627923281278,0.0
6611,6.8965517241379315,4.827586206896552,3.928571428571429,0,280660.2226690782,427976.3425826569,187600.32908386976,119547.29437450027,18171.728259748525,1.871068151127188e-06,0.0,0.0,0.0,1.871068151127188e-06,0.0,25.193016393302834,3.2998037645765246,0.0006160813239031739,0.0
6612,6.8965517241379315,4.827586206896552,4.285714285714286,0,427383.7445093029,487708.38866536843,411271.70636832545,27263.87557773234,-7649.272742104613,2.849224963395353e-06,0.0,0.0,0.0,2.849224963395353e-06,0.0,24.988518678708818,3.5961943479992406,-0.00025630145022283385,0.0
6613,6.8965517241379315,4.827586206896552,4.642857142857143,0,193108.40049072844,372576.1055263341,362283.93373748945,174527.43349064395,69663.7145166942,1.2873893366048563e-06,0.0,0.0,0.0,1.2873893366048563e-06,0.0,24.98881384835022,3.897249000718343,0.0023257950500363425,0.0
6614,6.8965517241379315,4.827586206896552,5.0,0,218592.1639377211,378696.5248362808,433084.9643843559,192433.58879768325,79935.28850897477,1.4572810929181408e-06,0.0,0.0,0.0,1.4572810929181408e-06,0.0,24.314333028588052,4.2001562823742065,0.0026657905505289153,0.0
6615,7.241379310344828,4.827586206896552,0.0,0,376839.80205572123,491908.3260469988,583840.2951528647,169540.73731936075,-96932.33159058017,2.5122653470381417e-06,0.0,0.0,0.0,2.5122653470381417e-06,0.0,24.445323537390227,-0.049850351211370436,-0.003232631024605509,0.0
6616,7.241379310344828,4.827586206896552,0.35714285714285715,0,88019.64559695293,364474.226246702,433913.98976816394,334920.88307997363,40754.649598364624,5.867976373130196e-07,0.0,0.0,0.0,5.867976373130196e-07,0.0,23.972762252148517,0.25435703379399005,0.001360636063687464,0.0
6617,7.241379310344828,4.827586206896552,0.7142857142857143,0,234572.07007762537,407384.31551976653,390653.532736317,164894.77599057998,-47648.18016616023,1.5638138005175024e-06,0.0,0.0,0.0,1.5638138005175024e-06,0.0,24.299782098488397,0.560338410764695,-0.00159653055771491,0.0
6618,7.241379310344828,4.827586206896552,1.0714285714285714,0,461585.304090399,505244.1164670571,198933.52007220322,-25656.276806927755,23466.65282865161,3.07723536060266e-06,0.0,0.0,0.0,3.07723536060266e-06,0.0,24.348959935649948,0.8707858852325415,0.0007955966727873531,0.0
6619,7.241379310344828,4.827586206896552,1.4285714285714286,0,543087.5192263812,745496.903411985,244526.72736394827,168338.10115270043,-87292.81555942622,3.620583461509208e-06,0.0,0.0,0.0,3.620583461509208e-06,0.0,23.684092647561663,1.1888815383961318,-0.003073380192034114,0.0
6620,7.241379310344828,4.827586206896552,1.7857142857142858,0,413884.9367857954,848596.1003476038,584389.9997349207,371605.9769325961,110256.94989263511,2.7592329119053027e-06,0.0,0.0,0.0,2.7592329119053027e-06,0.0,24.447462121424838,1.5143980560314678,0.004354873702435726,0.0
6621,7.241379310344828,4.827586206896552,2.142857142857143,0,766200.8429234832,1227499.200902471,404166.94398086466,535375.0047542921,329198.313753108,5.1080056194898885e-06,0.0,0.0,0.0,5.1080056194898885e-06,0.0,24.120702580093152,1.839665428161964,0.0176467070205056,0.0
6622,7.241379310344828,4.827586206896552,2.5,0,855226.0056525029,1459650.5265748962,1086117.9847723278,481198.33252907405,700844.6276804558,5.7015067043500196e-06,0.0,0.0,0.0,5.7015067043500196e-06,0.0,24.523472654784232,2.152519991706198,0.07008446276804557,0.0
6623,7.241379310344828,4.827586206896552,2.857142857142857,0,544738.8811332954,880773.4492732672,306183.5532446634,371836.250876207,374522.4790813881,3.631592540888636e-06,0.0,0.0,0.0,3.631592540888636e-06,0.0,24.278046381861813,2.446808285304821,0.02007631322771408,0.0
6624,7.241379310344828,4.827586206896552,3.2142857142857144,0,741805.2471069437,774444.6345854622,704296.5597830942,57.09106083748536,24132.63376115341,4.945368314046291e-06,0.0,0.0,0.0,4.945368314046291e-06,0.0,24.573536631447986,2.7286837703171822,0.0009531786634701711,0.0
6625,7.241379310344828,4.827586206896552,3.5714285714285716,0,266572.1033255217,525268.661127074,335891.9088798398,220430.2896367906,-30738.328051494616,1.777147355503478e-06,0.0,0.0,0.0,1.777147355503478e-06,0.0,24.753957988413756,3.0103101098247036,-0.0010822261598996941,0.0
6626,7.241379310344828,4.827586206896552,3.928571428571429,0,288529.1418645867,483949.61341646046,329805.9396524549,151087.1168456867,-17806.459169132777,1.923527612430578e-06,0.0,0.0,0.0,1.923527612430578e-06,0.0,23.783108575928633,3.299357313803971,-0.0006036975009827131,0.0
6627,7.241379310344828,4.827586206896552,4.285714285714286,0,234092.0197337163,451634.06318191055,242886.1222118418,198541.24197990034,-6787.589363543906,1.560613464891442e-06,0.0,0.0,0.0,1.560613464891442e-06,0.0,24.25472686203726,3.596052696478981,-0.000227429332963585,0.0
6628,7.241379310344828,4.827586206896552,4.642857142857143,0,301031.18171944,473354.7984625491,140912.1798219319,219206.23881033633,14216.094411819282,2.0068745447962667e-06,0.0,0.0,0.0,2.0068745447962667e-06,0.0,24.095275232897848,3.8972141766511332,0.0004746189927316496,0.0
6629,7.241379310344828,4.827586206896552,5.0,0,129414.14137514602,412458.0184798602,416519.008001359,285122.1680771708,81844.83512863485,8.627609425009735e-07,0.0,0.0,0.0,8.627609425009735e-07,0.0,25.013161664916353,4.20014964878863,0.0027294727042989956,0.0
6630,7.586206896551724,4.827586206896552,0.0,0,351200.693875243,454661.73884119117,434627.07646693784,93872.563564328,-42552.037024207304,2.341337959168287e-06,0.0,0.0,0.0,2.341337959168287e-06,0.0,25.10833548135292,-0.04985699094702338,-0.0014190831148642496,0.0
6631,7.586206896551724,4.827586206896552,0.35714285714285715,0,252319.97345626753,339105.38420874084,283040.5430302753,63468.60341416633,5695.398518087348,1.682133156375117e-06,0.0,0.0,0.0,1.682133156375117e-06,0.0,24.28538902976324,0.25432217744097074,0.00019014676109723556,0.0
6632,7.586206896551724,4.827586206896552,0.7142857142857143,0,273112.8257061844,422067.5823204907,375337.7664761036,128604.80547190431,34846.582023607116,1.8207521713745625e-06,0.0,0.0,0.0,1.8207521713745625e-06,0.0,24.471163062922905,0.5601966279176162,0.0011675919801889699,0.0
6633,7.586206896551724,4.827586206896552,1.0714285714285714,0,417862.5977902943,593787.7025611758,288874.7495439348,117479.07005574463,-32634.688709805258,2.7857506519352954e-06,0.0,0.0,0.0,2.7857506519352954e-06,0.0,23.53665796099355,0.8703390205501345,-0.001106423227230398,0.0
6634,7.586206896551724,4.827586206896552,1.4285714285714286,0,391909.1003069533,574293.0354779309,409058.419407728,126825.2318388012,-115077.08358431711,2.6127273353796886e-06,0.0,0.0,0.0,2.6127273353796886e-06,0.0,24.42992981495084,1.1877902514451644,-0.004051600661274615,0.0
6635,7.586206896551724,4.827586206896552,1.7857142857142858,0,205630.0933800467,770118.5749883904,658764.8509244795,532826.7454941949,-66192.2427340302,1.3708672892003113e-06,0.0,0.0,0.0,1.3708672892003113e-06,0.0,24.153735379339363,1.5123330920357407,-0.0026144280017574234,0.0
6636,7.586206896551724,4.827586206896552,2.142857142857143,0,948285.2893068618,1580315.8072525812,929263.3773125401,492331.04257793934,177727.40938294772,6.321901928712412e-06,0.0,0.0,0.0,6.321901928712412e-06,0.0,24.967129645765567,1.8366378414060216,0.009527094738542614,0.0
6637,7.586206896551724,4.827586206896552,2.5,0,289766.05741849367,981244.127577951,1305292.0042421257,1071093.9829304977,985529.5407383566,1.931773716123291e-06,0.0,0.0,0.0,1.931773716123291e-06,0.0,24.178844224034666,2.1490805234855643,0.09855295407383566,0.0
6638,7.586206896551724,4.827586206896552,2.857142857142857,0,449367.96604024543,891557.2762043946,920966.81060619,457616.4389825482,502521.0698206881,2.995786440268303e-06,0.0,0.0,0.0,2.995786440268303e-06,0.0,23.887024624094934,2.4437806985488786,0.026937689897790364,0.0
6639,7.586206896551724,4.827586206896552,3.2142857142857144,0,789124.8473595646,1038261.048915629,545691.9880387253,128086.60672946121,139926.3055109796,5.2608323157304305e-06,0.0,0.0,0.0,5.2608323157304305e-06,0.0,23.630655910269343,2.726618806321455,0.005526739028624772,0.0
6640,7.586206896551724,4.827586206896552,3.5714285714285716,0,362725.2900917914,544832.6087021856,295695.5606243715,128686.16278221602,59769.43669183396,2.4181686006119428e-06,0.0,0.0,0.0,2.4181686006119428e-06,0.0,24.397320722117293,3.009218822873736,0.002104345032755487,0.0
6641,7.586206896551724,4.827586206896552,3.928571428571429,0,161151.3484671933,442023.04248919344,280734.32596758695,281009.41426216235,-26436.444440524647,1.0743423231146221e-06,0.0,0.0,0.0,1.0743423231146221e-06,0.0,24.039807687572612,3.2989104491215637,-0.0008962823710217929,0.0
6642,7.586206896551724,4.827586206896552,4.285714285714286,0,290357.3214393095,342769.4143453892,388695.92564749916,78112.36337133232,103854.7198634379,1.9357154762620633e-06,0.0,0.0,0.0,1.9357154762620633e-06,0.0,24.924908527636287,3.595910913631902,0.003479823012058216,0.0
6643,7.586206896551724,4.827586206896552,4.642857142857143,0,288255.18431872095,489729.3688313092,179629.0009309217,229944.41196565522,15078.71137750287,1.921701228791473e-06,0.0,0.0,0.0,1.921701228791473e-06,0.0,24.63761821696976,3.897179320298114,0.0005034183509453646,0.0
6644,7.586206896551724,4.827586206896552,5.0,0,316988.72772559355,498329.44321069855,413964.469588826,147693.12367203293,-3270.353297313361,2.1132581848372905e-06,0.0,0.0,0.0,2.1132581848372905e-06,0.0,24.275246547327054,4.200143009052977,-0.00010906418278443083,0.0
6645,7.931034482758621,4.827586206896552,0.0,0,233602.7275384487,356106.92415220593,293497.7216578888,97579.30440632242,50605.39791265385,1.5573515169229913e-06,0.0,0.0,0.0,1.5573515169229913e-06,0.0,24.474749288663965,-0.04986363467145917,0.001687657529955146,0.0
6646,7.931034482758621,4.827586206896552,0.35714285714285715,0,175574.34988059924,443201.01994245953,244539.91557640902,308846.5253051506,30428.532069405763,1.1704956658706617e-06,0.0,0.0,0.0,1.1704956658706617e-06,0.0,25.037448703822275,0.2542873001481987,0.0010158879663233662,0.0
6647,7.931034482758621,4.827586206896552,0.7142857142857143,0,264247.89135041035,426753.41807433724,219692.602310713,129132.02118320734,61078.02888929115,1.7616526090027356e-06,0.0,0.0,0.0,1.7616526090027356e-06,0.0,23.59062899338638,0.5600547598953108,0.002046519703096681,0.0
6648,7.931034482758621,4.827586206896552,1.0714285714285714,0,345407.9496719932,495419.3972540666,393468.75274977525,110511.1457174913,65992.21792044594,2.302719664479955e-06,0.0,0.0,0.0,2.302719664479955e-06,0.0,23.857774158705343,0.8698918874163507,0.002237353123631716,0.0
6649,7.931034482758621,4.827586206896552,1.4285714285714286,0,196611.1743995557,425089.80885001284,381779.4326252263,210434.3295921835,-12462.513121220647,1.3107411626637046e-06,0.0,0.0,0.0,1.3107411626637046e-06,0.0,25.15088062187423,1.1866983089098648,-0.00043877655594291084,0.0
6650,7.931034482758621,4.827586206896552,1.7857142857142858,0,674452.3469883269,981001.6768755012,798485.1525920132,234074.47606831405,97315.8025326846,4.4963489799221795e-06,0.0,0.0,0.0,4.4963489799221795e-06,0.0,23.80757268493906,1.5102668875248213,0.003843730755237633,0.0
6651,7.931034482758621,4.827586206896552,2.142857142857143,0,741385.1584596175,1375307.9149674685,520039.1148541512,979897.9287726169,332726.42048498953,4.942567723064117e-06,0.0,0.0,0.0,4.942567723064117e-06,0.0,24.52068691405701,1.8336084358448246,0.017835831518516483,0.0
6652,7.931034482758621,4.827586206896552,2.5,0,451367.06443422654,1268357.9044473814,799239.7191511095,837130.758917694,566463.1701959769,3.0091137628948436e-06,0.0,0.0,0.0,3.0091137628948436e-06,0.0,24.78777976043031,2.145638989024265,0.056646317019597686,0.0
6653,7.931034482758621,4.827586206896552,2.857142857142857,0,683198.0179430321,1112084.7156129042,792238.8135131971,327635.1591219325,535680.1856840054,4.554653452953547e-06,0.0,0.0,0.0,4.554653452953547e-06,0.0,24.191106243818243,2.440751292987682,0.02871518746765279,0.0
6654,7.931034482758621,4.827586206896552,3.2142857142857144,0,459087.4094550377,763150.6919892589,431214.93935676833,239236.95159107744,157727.54862796556,3.0605827297002513e-06,0.0,0.0,0.0,3.0605827297002513e-06,0.0,24.54845304043735,2.724552601810536,0.006229843600230606,0.0
6655,7.931034482758621,4.827586206896552,3.5714285714285716,0,430757.17868735467,462435.900853629,384053.4447648454,-2130.326366557102,-101680.90324721069,2.8717145245823645e-06,0.0,0.0,0.0,2.8717145245823645e-06,0.0,24.061498841887847,3.0081268803384367,-0.003579951820151471,0.0
6656,7.931034482758621,4.827586206896552,3.928571428571429,0,202436.99225153553,429494.53322903585,360019.5957469743,201468.00471418863,-33499.34978811638,1.3495799483435702e-06,0.0,0.0,0.0,1.3495799483435702e-06,0.0,25.121529884137686,3.29846331598778,-0.0011357380801843367,0.0
6657,7.931034482758621,4.827586206896552,4.285714285714286,0,290073.5152053312,432722.722273081,364540.2593472786,114631.47666298616,2571.920543881073,1.933823434702208e-06,0.0,0.0,0.0,1.933823434702208e-06,0.0,23.99699372284086,3.5957690456095968,8.617642323383159e-05,0.0
6658,7.931034482758621,4.827586206896552,4.642857142857143,0,362344.2663845033,603085.6395741907,456556.41949847294,190424.12600047857,6903.249221253724,2.415628442563355e-06,0.0,0.0,0.0,2.415628442563355e-06,0.0,23.745371799795862,3.897144443005342,0.00023047210415562324,0.0
6659,7.931034482758621,4.827586206896552,5.0,0,472485.1741594078,542217.1033760026,200281.02618981767,3075.153241993833,93232.35625002466,3.1499011610627185e-06,0.0,0.0,0.0,3.1499011610627185e-06,0.0,24.671760826370797,4.200136365328541,0.0031092392225113004,0.0
6660,8.275862068965518,4.827586206896552,0.0,0,315451.9407640842,545379.9804283115,352680.6109860756,181336.176058945,-28807.025203563433,2.1030129384272283e-06,0.0,0.0,0.0,2.1030129384272283e-06,0.0,24.417721681602302,-0.04987028112927476,-0.00096069579542314,0.0
6661,8.275862068965518,4.827586206896552,0.35714285714285715,0,203907.69151931096,493580.4688638654,262240.7463881454,339965.9602514797,-7872.817522876863,1.3593846101287398e-06,0.0,0.0,0.0,1.3593846101287398e-06,0.0,24.142007067889665,0.25425240850611275,-0.00026284214316706366,0.0
6662,8.275862068965518,4.827586206896552,0.7142857142857143,0,170831.78984984508,358017.93799236306,362383.15455228137,189410.59022516356,29967.832005627464,1.1388785989989672e-06,0.0,0.0,0.0,1.1388785989989672e-06,0.0,24.088738407079298,0.5599128335052644,0.0010041214455327797,0.0
6663,8.275862068965518,4.827586206896552,1.0714285714285714,0,317319.6527136691,471054.5709670121,373473.5654262656,116404.25959706787,-16330.087609723656,2.1154643514244608e-06,0.0,0.0,0.0,2.1154643514244608e-06,0.0,23.828950580851284,0.8694445703217947,-0.000553643651844516,0.0
6664,8.275862068965518,4.827586206896552,1.4285714285714286,0,414298.85460957605,659136.717331848,277441.90769841993,218538.74663993425,-20935.886458430483,2.7619923640638403e-06,0.0,0.0,0.0,2.7619923640638403e-06,0.0,23.714341974674973,1.1856059171244944,-0.0007371046326282389,0.0
6665,8.275862068965518,4.827586206896552,1.7857142857142858,0,250235.6030096272,591736.1300829641,410994.33902105177,306129.067983437,36872.03836643617,1.6682373533975147e-06,0.0,0.0,0.0,1.6682373533975147e-06,0.0,23.78355395875366,1.5081998329302273,0.0014563532765377173,0.0
6666,8.275862068965518,4.827586206896552,2.142857142857143,0,361471.9300616747,1320683.9857021754,939956.1320235416,982175.9320894429,469151.8252815432,2.4098128670778313e-06,0.0,0.0,0.0,2.4098128670778313e-06,0.0,24.247504904255482,1.8305777839170656,0.02514892836020993,0.0
6667,8.275862068965518,4.827586206896552,2.5,0,1376572.722336185,2018773.580382997,971369.0462619609,459619.5924261945,771148.9161142902,9.177151482241232e-06,0.0,0.0,0.0,9.177151482241232e-06,0.0,23.99251726375927,2.142196038637172,0.07711489161142902,0.0
6668,8.275862068965518,4.827586206896552,2.857142857142857,0,1068943.534621045,1420326.1948914514,768615.6313950965,186673.97203883255,521812.29475969356,7.126290230806967e-06,0.0,0.0,0.0,7.126290230806967e-06,0.0,23.35510931955164,2.4377206410599226,0.02797179785139493,0.0
6669,8.275862068965518,4.827586206896552,3.2142857142857144,0,601669.5219295194,1014345.5918089255,657564.1492174591,319683.17335591005,111557.36487641133,4.011130146196796e-06,0.0,0.0,0.0,4.011130146196796e-06,0.0,23.895103987389586,2.7224855472159417,0.004406236841182218,0.0
6670,8.275862068965518,4.827586206896552,3.5714285714285716,0,294755.5718798415,576100.045609125,467178.0280156369,242384.9540906859,-153989.66984947326,1.96503714586561e-06,0.0,0.0,0.0,1.96503714586561e-06,0.0,24.003745880600466,3.007034488553066,-0.00542162373913873,0.0
6671,8.275862068965518,4.827586206896552,3.928571428571429,0,305996.8034244992,566948.9927266152,282182.87843877607,243416.16654871195,-82892.41972759532,2.039978689496661e-06,0.0,0.0,0.0,2.039978689496661e-06,0.0,24.369725260583685,3.298015998893224,-0.0028103255209045936,0.0
6672,8.275862068965518,4.827586206896552,4.285714285714286,0,145971.53117588558,394853.0731030193,244164.90334243287,254106.43066963003,-23081.012524616875,9.731435411725706e-07,0.0,0.0,0.0,9.731435411725706e-07,0.0,24.265565665853927,3.59562711921955,-0.0007733672444582043,0.0
6673,8.275862068965518,4.827586206896552,4.642857142857143,0,283260.5562224605,532730.8763902897,205714.7827322972,363574.94695291587,45038.8714701809,1.888403708149737e-06,0.0,0.0,0.0,1.888403708149737e-06,0.0,25.00201125581755,3.897109551363256,0.001503669235143458,0.0
6674,8.275862068965518,4.827586206896552,5.0,0,338243.03564066725,519624.18067488394,324715.62945987505,129055.00667962543,-29943.812203295653,2.254953570937782e-06,0.0,0.0,0.0,2.254953570937782e-06,0.0,23.639274570386732,4.200129718870725,-0.0009986069120072759,0.0
6675,8.620689655172415,4.827586206896552,0.0,0,336563.97214606433,487104.63129358727,191239.17475598457,120944.88575244234,17246.51712284841,2.2437598143070957e-06,0.0,0.0,0.0,2.2437598143070957e-06,0.0,24.240869440597336,-0.049876929541597524,0.0005751602731810056,0.0
6676,8.620689655172415,4.827586206896552,0.35714285714285715,0,493305.5304798872,581704.563576307,331507.52069755795,13434.03692553608,27560.801753763004,3.2887035365325814e-06,0.0,0.0,0.0,3.2887035365325814e-06,0.0,24.28647932028602,0.2542175066035291,0.0009201458282643519,0.0
6677,8.620689655172415,4.827586206896552,0.7142857142857143,0,179248.56155048352,412189.8418587802,435807.7654772407,245921.03391310282,24965.15027681863,1.1949904103365568e-06,0.0,0.0,0.0,1.1949904103365568e-06,0.0,24.113443865146348,0.5597708653792806,0.0008364983752977138,0.0
6678,8.620689655172415,4.827586206896552,1.0714285714285714,0,305538.11316266627,458142.87868374225,299518.43465186027,105916.2874754033,-25749.558585304156,2.0369207544177753e-06,0.0,0.0,0.0,2.0369207544177753e-06,0.0,23.829992258603596,0.8689971216858228,-0.0008729946825308766,0.0
6679,8.620689655172415,4.827586206896552,1.4285714285714286,0,239889.4354287043,563662.7758671633,327856.69067384937,319888.53374632937,-56548.540031614466,1.5992629028580287e-06,0.0,0.0,0.0,1.5992629028580287e-06,0.0,23.641503848957697,1.1845132041022122,-0.0019909446351091486,0.0
6680,8.620689655172415,4.827586206896552,1.7857142857142858,0,552469.4650934347,629155.8264020073,871199.534049294,239018.5635585487,-20509.52185474077,3.6831297672895646e-06,0.0,0.0,0.0,3.6831297672895646e-06,0.0,23.967622882177086,1.5061321704820738,-0.0008100748067284193,0.0
6681,8.620689655172415,4.827586206896552,2.142857142857143,0,329864.1140128252,1227163.103727235,1176162.479114388,874769.0228502089,791497.0965162311,2.1990940934188344e-06,0.0,0.0,0.0,2.1990940934188344e-06,0.0,23.09879535214647,1.8275462407730971,0.042428277382605226,0.0
6682,8.620689655172415,4.827586206896552,2.5,0,687031.3857661451,906373.7897858424,755636.760781105,156489.97813086768,859866.4362835309,4.5802092384409675e-06,0.0,0.0,0.0,4.5802092384409675e-06,0.0,23.535534504542202,2.1387520757902956,0.0859866436283531,0.0
6683,8.620689655172415,4.827586206896552,2.857142857142857,0,649838.1752550883,1419685.5008544922,854356.3906680377,709713.2089945332,658806.7684646383,4.332254501700589e-06,0.0,0.0,0.0,4.332254501700589e-06,0.0,23.514808861618036,2.434689097915954,0.03531539968622265,0.0
6684,8.620689655172415,4.827586206896552,3.2142857142857144,0,294975.97907692054,799700.3013541602,606700.0503103925,460148.72951860004,17451.171746735374,1.9665065271794704e-06,0.0,0.0,0.0,1.9665065271794704e-06,0.0,24.258810577070488,2.7204178847677882,0.0006892776282180074,0.0
6685,8.620689655172415,4.827586206896552,3.5714285714285716,0,188367.3322002729,495481.2573815,409700.9256076596,279491.256570264,75997.32336717397,1.255782214668486e-06,0.0,0.0,0.0,1.255782214668486e-06,0.0,24.32438591155439,3.0059417755307836,0.0026756917712807368,0.0
6686,8.620689655172415,4.827586206896552,3.928571428571429,0,379207.55045676866,396525.00966223684,505902.5327922063,84027.46374982187,-22388.712806942756,2.5280503363784575e-06,0.0,0.0,0.0,2.5280503363784575e-06,0.0,23.480289598466797,3.2975685502572523,-0.0007590509625406494,0.0
6687,8.620689655172415,4.827586206896552,4.285714285714286,0,178865.48066123007,440296.65568158665,331438.7825567218,233863.33508296602,-1330.8822039345484,1.1924365377415338e-06,0.0,0.0,0.0,1.1924365377415338e-06,0.0,23.36736197578358,3.5954851510935666,-4.459339475066675e-05,0.0
6688,8.620689655172415,4.827586206896552,4.642857142857143,0,284492.40499269415,523888.9717312955,344199.49785429274,195885.25798973185,-13186.998856225406,1.8966160332846276e-06,0.0,0.0,0.0,1.8966160332846276e-06,0.0,23.294317615047348,3.8970746494606723,-0.0004402615748733029,0.0
6689,8.620689655172415,4.827586206896552,5.0,0,446010.8416638408,510845.8839561948,385699.6338434396,15630.316525372762,-40490.034391763926,2.973405611092272e-06,0.0,0.0,0.0,2.973405611092272e-06,0.0,24.519515474757725,4.200123070458402,-0.001350316650949928,0.0
6690,8.965517241379311,4.827586206896552,0.0,0,91335.13393788095,394312.31482207845,430622.7594658809,326716.32491477754,-39676.537642346186,6.089008929192064e-07,0.0,0.0,0.0,6.089008929192064e-07,0.0,24.3234554891375,-0.04988357939967609,-0.0013231870566501548,0.0
6691,8.965517241379311,4.827586206896552,0.35714285714285715,0,243586.87399624864,381487.11679159314,407471.3641284826,151934.0295177976,-1795.688350451746,1.6239124933083244e-06,0.0,0.0,0.0,1.6239124933083244e-06,0.0,24.195408752087655,0.2541825971112195,-5.995090996601629e-05,0.0
6692,8.965517241379311,4.827586206896552,0.7142857142857143,0,180352.2500168024,521170.9611225345,372029.38189881796,320725.12991737586,-27037.445314195535,1.2023483334453494e-06,0.0,0.0,0.0,1.2023483334453494e-06,0.0,24.627038147502084,0.5596288663810778,-0.0009059340251008279,0.0
6693,8.965517241379311,4.827586206896552,1.0714285714285714,0,222188.11289433014,406025.6512808322,184264.06966683755,183413.4494848552,6318.172165209333,1.481254085962201e-06,0.0,0.0,0.0,1.481254085962201e-06,0.0,24.769068652907166,0.8685495757482053,0.0002142068061193986,0.0
6694,8.965517241379311,4.827586206896552,1.4285714285714286,0,227555.4655333891,558131.1340393826,332222.1507294595,328964.1717152837,-39275.56560479267,1.5170364368892606e-06,0.0,0.0,0.0,1.5170364368892606e-06,0.0,23.388169011509806,1.183420253459862,-0.0013828027494259408,0.0
6695,8.965517241379311,4.827586206896552,1.7857142857142858,0,576454.596364142,809601.2641186767,682509.0414344207,180205.7232732333,139113.6652027331,3.843030642427614e-06,0.0,0.0,0.0,3.843030642427614e-06,0.0,23.69239526904448,1.5040640584025158,0.005494641769346622,0.0
6696,8.965517241379311,4.827586206896552,2.142857142857143,0,628026.3933208317,1243587.310350341,877992.0326675343,518413.2151526578,387638.715591014,4.186842622138878e-06,0.0,0.0,0.0,4.186842622138878e-06,0.0,24.28447272032864,1.8245140383933798,0.0207794103373506,0.0
6697,8.965517241379311,4.827586206896552,2.5,0,890566.2852696675,1613685.9021448244,1191650.8243284388,590558.0854550961,1020135.9677627654,5.93710856846445e-06,0.0,0.0,0.0,5.93710856846445e-06,0.0,22.518720112611284,2.135307364023375,0.10201359677627653,0.0
6698,8.965517241379311,4.827586206896552,2.857142857142857,0,753861.3769931891,874863.989685686,1261169.6149093567,392455.59214519255,435553.080066037,5.025742513287927e-06,0.0,0.0,0.0,5.025742513287927e-06,0.0,23.778440937087492,2.4316568955362365,0.02334786441697442,0.0
6699,8.965517241379311,4.827586206896552,3.2142857142857144,0,270051.6385475289,488065.7817171123,367061.5899850357,178673.39542242882,75148.13088646479,1.800344256983526e-06,0.0,0.0,0.0,1.800344256983526e-06,0.0,24.38987514687016,2.71834977268823,0.0029681631797663544,0.0
6700,8.965517241379311,4.827586206896552,3.5714285714285716,0,618241.0169065978,488930.78850747424,511582.65285617317,-117672.98791523848,95371.24971648262,4.121606779377318e-06,0.0,0.0,0.0,4.121606779377318e-06,0.0,23.7389625955732,3.0048488248884335,0.0033578033643402783,0.0
6701,8.965517241379311,4.827586206896552,3.928571428571429,0,470510.82950540783,645586.5547554155,300855.13275505364,109558.05256527345,-23201.284636246084,3.1367388633693856e-06,0.0,0.0,0.0,3.1367388633693856e-06,0.0,24.283875664166167,3.2971210043196346,-0.0007865998187203063,0.0
6702,8.965517241379311,4.827586206896552,4.285714285714286,0,347039.2713331052,646953.9963343849,408629.4714175592,248798.32631086555,-18737.716527113436,2.3135951422207013e-06,0.0,0.0,0.0,2.3135951422207013e-06,0.0,22.92255177695851,3.5953431520953636,-0.0006278379764560702,0.0
6703,8.965517241379311,4.827586206896552,4.642857142857143,0,495777.48244107264,627354.5879982304,317643.79585823306,55540.283857400806,-32187.594045897895,3.3051832162738176e-06,0.0,0.0,0.0,3.3051832162738176e-06,0.0,24.069496662801235,3.8970397399683625,-0.0010746160669711162,0.0
6704,8.965517241379311,4.827586206896552,5.0,0,409696.9192097533,441374.6404092512,516664.75521401246,74544.58786112141,9385.428307856477,2.7313127947316887e-06,0.0,0.0,0.0,2.7313127947316887e-06,0.0,23.701769232059885,4.200116420600324,0.00031299800829443804,0.0
6705,9.310344827586208,4.827586206896552,0.0,0,262826.5179620697,293554.6050696456,331158.12531918834,51555.17656081852,-33533.7610095552,1.752176786413798e-06,0.0,0.0,0.0,1.752176786413798e-06,0.0,23.65485054179109,-0.04989023035716538,-0.0011183293998235895,0.0
6706,9.310344827586208,4.827586206896552,0.35714285714285715,0,52616.34773286386,242431.7590727843,260910.94041465496,201547.8029673158,35433.0734716941,3.5077565155242575e-07,0.0,0.0,0.0,3.5077565155242575e-07,0.0,23.298289223530382,0.25414768184737757,0.0011829697491696548,0.0
6707,9.310344827586208,4.827586206896552,0.7142857142857143,0,281283.4276952686,401470.34756572667,358806.912871413,101292.36396947257,-2125.4005649994738,1.8752228513017907e-06,0.0,0.0,0.0,1.8752228513017907e-06,0.0,24.57656444280612,0.5594868439064007,-7.121503775323815e-05,0.0
6708,9.310344827586208,4.827586206896552,1.0714285714285714,0,130369.4862101241,452845.7282760579,360616.97328237054,303694.4860223345,39857.98990503345,8.691299080674941e-07,0.0,0.0,0.0,8.691299080674941e-07,0.0,23.816160522987822,0.8681019558185117,0.0013513168828968704,0.0
6709,9.310344827586208,4.827586206896552,1.4285714285714286,0,338706.216742368,690500.431607431,508300.02443625545,299693.4380088018,46680.03384430646,2.25804144494912e-06,0.0,0.0,0.0,2.25804144494912e-06,0.0,23.859290860619602,1.1823271221216762,0.00164349712471935,0.0
6710,9.310344827586208,4.827586206896552,1.7857142857142858,0,498827.8675106945,921181.861195311,619801.499929044,345395.63284175016,42456.4991963498,3.325519116737963e-06,0.0,0.0,0.0,3.325519116737963e-06,0.0,24.821958221878383,1.501995604405193,0.0016769255092555185,0.0
6711,9.310344827586208,4.827586206896552,2.142857142857143,0,781578.5190377837,1215867.1064280712,1389768.8133533518,535886.6535355395,352920.3342951025,5.210523460251892e-06,0.0,0.0,0.0,5.210523460251892e-06,0.0,23.3334564030168,1.8214813347043433,0.018918328195190424,0.0
6712,9.310344827586208,4.827586206896552,2.5,0,708511.5105748283,1124850.048735009,927376.7074507298,338551.1843761542,744622.5779528812,4.723410070498855e-06,0.0,0.0,0.0,4.723410070498855e-06,0.0,23.870588719318278,2.1318620827475976,0.07446225779528812,0.0
6713,9.310344827586208,4.827586206896552,2.857142857142857,0,591580.4105847754,939501.5684702351,790910.6315544408,287791.2298474657,439659.7547371068,3.943869403898503e-06,0.0,0.0,0.0,3.943869403898503e-06,0.0,23.464760242377174,2.4286241918472,0.023568003104571862,0.0
6714,9.310344827586208,4.827586206896552,3.2142857142857144,0,385533.0610187775,824841.1020278927,454658.5017244012,425601.78539474803,108902.52790545727,2.57022040679185e-06,0.0,0.0,0.0,2.57022040679185e-06,0.0,23.44529028568739,2.716281318690908,0.004301377422158564,0.0
6715,9.310344827586208,4.827586206896552,3.5714285714285716,0,275714.1025638054,624353.2839008452,392961.86928042205,319285.51877181453,31279.36819028529,1.838094017092036e-06,0.0,0.0,0.0,1.838094017092036e-06,0.0,23.968741944908974,3.003755693550248,0.001101274944556235,0.0
6716,9.310344827586208,4.827586206896552,3.928571428571429,0,221674.98807833748,508481.4320165386,351857.57856182876,254836.88785512134,-1203.2313780607292,1.4778332538555832e-06,0.0,0.0,0.0,1.4778332538555832e-06,0.0,23.678643722149374,3.296673384389941,-4.079349909713832e-05,0.0
6717,9.310344827586208,4.827586206896552,4.285714285714286,0,215044.85775651486,362974.2788544085,346114.25306355266,139995.68056334468,-31169.591755996298,1.4336323850434324e-06,0.0,0.0,0.0,1.4336323850434324e-06,0.0,24.813413418158763,3.5952011296206865,-0.001044388380341306,0.0
6718,9.310344827586208,4.827586206896552,4.642857142857143,0,319447.40565818176,515589.5572401447,325484.49758911214,146782.2197800392,-26762.903029269462,2.129649371054545e-06,0.0,0.0,0.0,2.129649371054545e-06,0.0,24.720170396844395,3.8970048247045206,-0.000893507155366531,0.0
6719,9.310344827586208,4.827586206896552,5.0,0,345809.25471546635,494983.8765747322,263659.3019701914,97451.50122676746,23643.654862531315,2.3053950314364425e-06,0.0,0.0,0.0,2.3053950314364425e-06,0.0,23.752535157762132,4.200109769642835,0.0007885007096137071,0.0
6720,9.655172413793103,4.827586206896552,0.0,0,112420.05214660312,355424.75374105683,236839.4041496066,250400.20525366985,-29405.913669875234,7.494670143106874e-07,0.0,0.0,0.0,7.494670143106874e-07,0.0,22.898528824162504,-0.049896882170131655,-0.0009806683412673387,0.0
6721,9.655172413793103,4.827586206896552,0.35714285714285715,0,339502.84707761154,381401.38662927656,282709.63370951917,3487.196719936843,25342.85742423274,2.2633523138507437e-06,0.0,0.0,0.0,2.2633523138507437e-06,0.0,23.528191523931046,0.25411276209257255,0.0008460974663780289,0.0
6722,9.655172413793103,4.827586206896552,0.7142857142857143,0,494217.88902632357,516293.266478044,421270.341193894,-18536.679895633,26915.164528802834,3.294785926842157e-06,0.0,0.0,0.0,3.294785926842157e-06,0.0,24.20226821367611,0.5593448031641346,0.0009018368064910084,0.0
6723,9.655172413793103,4.827586206896552,1.0714285714285714,0,450391.9927782584,445607.96658561495,454145.85122668283,-454.386423370253,72015.78508609944,3.0026132851883895e-06,0.0,0.0,0.0,3.0026132851883895e-06,0.0,23.239986700821003,0.8676542783138678,0.0024415718518115558,0.0
6724,9.655172413793103,4.827586206896552,1.4285714285714286,0,633883.9910169365,716011.3251203337,371964.9972900856,-15505.366279649412,-19296.444779869384,4.225893273446243e-06,0.0,0.0,0.0,4.225893273446243e-06,0.0,24.490300643092183,1.1812338501798707,-0.0006793836443820218,0.0
6725,9.655172413793103,4.827586206896552,1.7857142857142858,0,410281.4173038209,856311.7482350941,398245.96964679763,522576.19302667544,56677.21927783261,2.7352094486921395e-06,0.0,0.0,0.0,2.7352094486921395e-06,0.0,23.98329547418009,1.4999268843537292,0.002238608377980385,0.0
6726,9.655172413793103,4.827586206896552,2.142857142857143,0,348944.7834748536,1040905.1516856033,788474.0091320457,642712.8339466654,168232.40274152678,2.326298556499024e-06,0.0,0.0,0.0,2.326298556499024e-06,0.0,23.11202013415925,1.8184482409349,0.00901811400152531,0.0
6727,9.655172413793103,4.827586206896552,2.5,0,1226409.9870620992,1354033.5925000135,1517357.6766950723,217469.30545872386,654918.9157226302,8.176066580413994e-06,0.0,0.0,0.0,8.176066580413994e-06,0.0,23.37213095173948,2.1284163583237716,0.06549189157226301,0.0
6728,9.655172413793103,4.827586206896552,2.857142857142857,0,675320.8533442928,1167753.4183698676,1037583.8962670796,436823.1973217018,324663.1239589178,4.502139022295286e-06,0.0,0.0,0.0,4.502139022295286e-06,0.0,23.447512011526285,2.425591098077757,0.017403597738844805,0.0
6729,9.655172413793103,4.827586206896552,3.2142857142857144,0,112264.78822781917,664923.3957400667,630542.9997671712,539488.6877062393,121340.83570733627,7.484319215187944e-07,0.0,0.0,0.0,7.484319215187944e-07,0.0,23.30864075862491,2.7142125986394436,0.004792659464714162,0.0
6730,9.655172413793103,4.827586206896552,3.5714285714285716,0,196071.19716899988,444159.6168002617,484938.7629048381,271684.70299319824,105029.23975823083,1.3071413144599991e-06,0.0,0.0,0.0,1.3071413144599991e-06,0.0,23.14365725586352,3.0026624216084423,0.003697839083190069,0.0
6731,9.655172413793103,4.827586206896552,3.928571428571429,0,129113.26557837175,533121.136174119,471329.38614097843,384723.89916887827,27452.177957048305,8.607551038558117e-07,0.0,0.0,0.0,8.607551038558117e-07,0.0,23.43358798466039,3.296225706885297,0.0009307190762513582,0.0
6732,9.655172413793103,4.827586206896552,4.285714285714286,0,340370.618128699,530522.5243161656,213028.0800203352,171150.9864279243,44968.94167138487,2.2691374541913267e-06,0.0,0.0,0.0,2.2691374541913267e-06,0.0,23.535508811505846,3.59505908887842,0.0015067582702235852,0.0
6733,9.655172413793103,4.827586206896552,4.642857142857143,0,335334.89647963113,506985.9464626198,281183.71804787347,121670.61084012678,-32177.714261816112,2.235565976530874e-06,0.0,0.0,0.0,2.235565976530874e-06,0.0,24.380138987400475,3.896969904949716,-0.0010742862201768093,0.0
6734,9.655172413793103,4.827586206896552,5.0,0,443560.12305129506,589337.9307035158,268764.62808065093,83117.54152400281,-54180.92225901978,2.9570674870086337e-06,0.0,0.0,0.0,2.9570674870086337e-06,0.0,23.95466406577867,4.200103117829869,-0.0018068989712950144,0.0
6735,10.0,4.827586206896552,0.0,0,203765.80000793212,399861.16895206226,366575.8668120228,181501.9648950422,-10853.52758072551,1.3584386667195476e-06,0.0,0.0,0.0,1.3584386667195476e-06,0.0,23.819670135955896,-0.04990353466181586,-0.00036195817647364256,0.0
6736,10.0,4.827586206896552,0.35714285714285715,0,308051.2652030637,598738.049453272,328342.6358104206,263389.5939350408,-27977.93444452363,2.0536751013537584e-06,0.0,0.0,0.0,2.0536751013537584e-06,0.0,23.750113660973206,0.2540778387747294,-0.0009340722339134064,0.0
6737,10.0,4.827586206896552,0.7142857142857143,0,187461.41320551786,368895.6960788816,383045.79192519624,188910.29245852056,-38740.542017230386,1.2497427547034523e-06,0.0,0.0,0.0,1.2497427547034523e-06,0.0,23.181993787055998,0.5592027479287373,-0.0012980655071664826,0.0
6738,10.0,4.827586206896552,1.0714285714285714,0,189061.3180823257,369695.318537046,277515.04231577646,152224.66956868808,10415.448430447712,1.2604087872155047e-06,0.0,0.0,0.0,1.2604087872155047e-06,0.0,24.15833906183826,0.867206555130437,0.0003531179404816976,0.0
6739,10.0,4.827586206896552,1.4285714285714286,0,174953.9953511845,349107.7607998207,524942.8045113602,350883.37333403534,-57118.287721150235,1.1663599690078968e-06,0.0,0.0,0.0,1.1663599690078968e-06,0.0,23.372338574903775,1.1801404666860311,-0.0020110041469057907,0.0
6740,10.0,4.827586206896552,1.7857142857142858,0,271260.8679122121,702928.0984135085,529513.2518183507,390327.05702154874,145074.489335176,1.808405786081414e-06,0.0,0.0,0.0,1.808405786081414e-06,0.0,23.426332227573184,1.4978579532203558,0.005730079411005471,0.0
6741,10.0,4.827586206896552,2.142857142857143,0,565456.263379164,1028209.8591573428,959209.6872786907,431419.7964220011,385574.21417109366,3.7697084225277603e-06,0.0,0.0,0.0,3.7697084225277603e-06,0.0,23.788546154602308,1.8154148376836474,0.020668742541743133,0.0
6742,10.0,4.827586206896552,2.5,0,1061053.6710996344,1486863.3126914075,1263392.4902418728,331873.14514424145,770180.4663084077,7.073691140664229e-06,0.0,0.0,0.0,7.073691140664229e-06,0.0,24.853591993503446,2.124970282315356,0.07701804663084078,0.0
6743,10.0,4.827586206896552,2.857142857142857,0,738677.9174653327,1199174.2437716783,1055387.7402407916,399174.44293344126,442655.94022194634,4.924519449768885e-06,0.0,0.0,0.0,4.924519449768885e-06,0.0,23.32577173213329,2.422557694826504,0.023728613913379673,0.0
6744,10.0,4.827586206896552,3.2142857142857144,0,210217.22471980634,587603.3628975418,595907.5093085364,381661.2609501184,45274.05311071774,1.401448164798709e-06,0.0,0.0,0.0,1.401448164798709e-06,0.0,22.798450188666127,2.71214366750607,0.001788211840491998,0.0
6745,10.0,4.827586206896552,3.5714285714285716,0,350528.77018638735,496424.2637025143,465400.7377551757,131414.89793774247,74952.08915749508,2.336858467909249e-06,0.0,0.0,0.0,2.336858467909249e-06,0.0,23.76259587671053,3.001569038114603,0.0026388914676649528,0.0
6746,10.0,4.827586206896552,3.928571428571429,0,389640.5646234058,429148.20229738025,485995.634311552,71054.07045641128,-74145.17643703097,2.5976037641560387e-06,0.0,0.0,0.0,2.5976037641560387e-06,0.0,23.96459092175645,3.2957779837018664,-0.002513765218553439,0.0
6747,10.0,4.827586206896552,4.285714285714286,0,198666.766278235,290144.76363483875,361203.15412615554,136778.4510486842,57753.00694827873,1.3244451085215668e-06,0.0,0.0,0.0,1.3244451085215668e-06,0.0,23.410219007912747,3.594917033643023,0.0019351093802808476,0.0
6748,10.0,4.827586206896552,4.642857142857143,0,161831.62057882347,360542.77712999185,248523.9463100059,175002.24740586663,-15566.769076007964,1.0788774705254897e-06,0.0,0.0,0.0,1.0788774705254897e-06,0.0,23.33525811751482,3.8969349816318726,-0.0005197126612213873,0.0
6749,10.0,4.827586206896552,5.0,0,72009.54385952697,379318.39157187816,366211.39403712034,301655.6151497865,41291.209713551536,4.800636257301798e-07,0.0,0.0,0.0,4.800636257301798e-07,0.0,23.001200186625994,4.200096465338184,0.0013770353335490228,0.0
6750,0.0,5.172413793103448,0.0,0,434764.5999642508,577035.8838192855,310573.4304722215,75336.77781395504,9024.713674288158,2.8984306664283388e-06,0.0,0.0,0.0,2.8984306664283388e-06,0.0,23.739102821731738,-0.04990353466181586,0.0003009684068563202,0.0
6751,0.0,5.172413793103448,0.35714285714285715,0,325072.03661114787,465716.65796154656,103343.95740512485,199757.974902505,38148.40327392503,2.1671469107409858e-06,0.0,0.0,0.0,2.1671469107409858e-06,0.0,24.547480623872694,0.2540778387747294,0.0012736238387062021,0.0
6752,0.0,5.172413793103448,0.7142857142857143,0,308012.33982326963,509565.6229642506,356559.13464675157,155009.57377925143,-5321.944788313967,2.0534155988217974e-06,0.0,0.0,0.0,2.0534155988217974e-06,0.0,24.436277166282952,0.5592027479287373,-0.00017832050356141787,0.0
6753,0.0,5.172413793103448,1.0714285714285714,0,165940.45708558406,324639.0736842094,335328.1601799844,164301.56337714198,11350.755994385154,1.1062697139038937e-06,0.0,0.0,0.0,1.1062697139038937e-06,0.0,23.735194877403494,0.867206555130437,0.0003848279415344651,0.0
6754,0.0,5.172413793103448,1.4285714285714286,0,248765.25855294743,667413.8597084453,501719.4296084374,381359.4333240746,65920.43762631048,1.6584350570196496e-06,0.0,0.0,0.0,1.6584350570196496e-06,0.0,23.381422460298506,1.1801404666860311,0.002320907693863994,0.0
6755,0.0,5.172413793103448,1.7857142857142858,0,606346.4236228134,972556.5705288397,424439.95589957654,321228.97210281494,88689.05458000257,4.042309490818756e-06,0.0,0.0,0.0,4.042309490818756e-06,0.0,23.78524079376363,1.4978579532203558,0.0035029957917431854,0.0
6756,0.0,5.172413793103448,2.142857142857143,0,379464.379022656,686419.1960055308,456054.79482730135,248448.52451109272,583327.6642886752,2.5297625268177067e-06,0.0,0.0,0.0,2.5297625268177067e-06,0.0,23.436547773628657,1.8154148376836474,0.031269335104730345,0.0
6757,0.0,5.172413793103448,2.5,0,328267.12869367754,1155569.9384529754,987131.539715792,777274.7503434944,823649.3882573241,2.188447524624517e-06,0.0,0.0,0.0,2.188447524624517e-06,0.0,23.283412120057363,2.124970282315356,0.08236493882573241,0.0
6758,0.0,5.172413793103448,2.857142857142857,0,534579.5989423229,1256772.9951551512,887319.8997239004,643789.9176439662,347467.0721882692,3.5638639929488193e-06,0.0,0.0,0.0,3.5638639929488193e-06,0.0,23.689887963283248,2.422557694826504,0.01862600555960887,0.0
6759,0.0,5.172413793103448,3.2142857142857144,0,622384.755569324,871194.7564409232,554697.5448831706,154166.30110391133,53910.03222379042,4.149231703795493e-06,0.0,0.0,0.0,4.149231703795493e-06,0.0,24.252154354657225,2.71214366750607,0.002129311411729245,0.0
6760,0.0,5.172413793103448,3.5714285714285716,0,343751.81228905305,465633.29693945183,379349.11326224514,86959.40603051166,54617.830226476406,2.291678748593687e-06,0.0,0.0,0.0,2.291678748593687e-06,0.0,23.523274829867642,3.001569038114603,0.0019229687629408621,0.0
6761,0.0,5.172413793103448,3.928571428571429,0,210810.33023787237,435264.1104584912,225422.46853111484,223498.26471630487,-57177.792838677495,1.4054022015858158e-06,0.0,0.0,0.0,1.4054022015858158e-06,0.0,23.52212323519989,3.2957779837018664,-0.0019385151377121317,0.0
6762,0.0,5.172413793103448,4.285714285714286,0,190485.86986224444,396212.7163268827,302479.90785117465,177022.52650323647,35683.81344939146,1.2699057990816295e-06,0.0,0.0,0.0,1.2699057990816295e-06,0.0,23.49501813782387,3.594917033643023,0.0011956447945983067,0.0
6763,0.0,5.172413793103448,4.642857142857143,0,278616.50263472367,458447.3481168788,282724.4222549899,137201.55508790104,-16406.18869068248,1.8574433508981579e-06,0.0,0.0,0.0,1.8574433508981579e-06,0.0,24.028451312050827,3.8969349816318726,-0.0005477375519160337,0.0
6764,0.0,5.172413793103448,5.0,0,244013.98317934896,555828.8492212357,410129.1296194236,274121.33988836594,-57837.86855272861,1.6267598878623264e-06,0.0,0.0,0.0,1.6267598878623264e-06,0.0,24.062945573580873,4.200096465338184,-0.001928855782303036,0.0
6765,0.3448275862068966,5.172413793103448,0.0,0,211908.16910931413,336432.3272723289,308617.5149916178,111990.30569165372,8244.075814502472,1.4127211273954275e-06,0.0,0.0,0.0,1.4127211273954275e-06,0.0,23.130843486407596,-0.049896882170131655,0.00027493463542922205,0.0
6766,0.3448275862068966,5.172413793103448,0.35714285714285715,0,258900.4750448805,477486.34927556425,256375.33938323444,192684.1888184246,-27857.08201173048,1.7260031669658699e-06,0.0,0.0,0.0,1.7260031669658699e-06,0.0,23.585480792734014,0.25411276209257255,-0.0009300374506417248,0.0
6767,0.3448275862068966,5.172413793103448,0.7142857142857143,0,141671.73676071613,336724.6717324847,416992.4553875027,253413.46168417577,-22809.169756357154,9.444782450714409e-07,0.0,0.0,0.0,9.444782450714409e-07,0.0,24.23163742594871,0.5593448031641346,-0.0007642587058968787,0.0
6768,0.3448275862068966,5.172413793103448,1.0714285714285714,0,179443.89207300663,341489.2916235894,265723.59594987973,136589.13952870877,-25466.595947415062,1.1962926138200442e-06,0.0,0.0,0.0,1.1962926138200442e-06,0.0,23.515925366665698,0.8676542783138678,-0.0008634013189237399,0.0
6769,0.3448275862068966,5.172413793103448,1.4285714285714286,0,478355.5074450041,556089.0842684255,387806.8591217554,16333.210051296117,11496.861693740066,3.1890367163000276e-06,0.0,0.0,0.0,3.1890367163000276e-06,0.0,24.384227647270592,1.1812338501798707,0.0004047781798954813,0.0
6770,0.3448275862068966,5.172413793103448,1.7857142857142858,0,516093.4476419031,810735.8597533156,456311.28498328687,218626.1605925479,45411.04905923758,3.440622984279354e-06,0.0,0.0,0.0,3.440622984279354e-06,0.0,24.035953792691494,1.4999268843537292,0.001793622837750042,0.0
6771,0.3448275862068966,5.172413793103448,2.142857142857143,0,681610.807438322,1186879.02092066,1040784.5868000146,444066.46804789966,422159.26326092466,4.544072049588813e-06,0.0,0.0,0.0,4.544072049588813e-06,0.0,24.57564091686296,1.8184482409349,0.022629887589111917,0.0
6772,0.3448275862068966,5.172413793103448,2.5,0,152294.26383361148,879277.3491446552,856045.3658183959,716701.929125202,809351.3490996354,1.0152950922240765e-06,0.0,0.0,0.0,1.0152950922240765e-06,0.0,23.546559343496575,2.1284163583237716,0.08093513490996354,0.0
6773,0.3448275862068966,5.172413793103448,2.857142857142857,0,550759.4488999022,919670.2541967878,733540.5012517635,299962.4656348865,437446.9721301773,3.671729659332681e-06,0.0,0.0,0.0,3.671729659332681e-06,0.0,24.057793400583392,2.425591098077757,0.023449386681785925,0.0
6774,0.3448275862068966,5.172413793103448,3.2142857142857144,0,315280.02202110033,797189.5273991218,460014.6674455708,509705.8079634108,195681.81114455033,2.101866813474002e-06,0.0,0.0,0.0,2.101866813474002e-06,0.0,24.07809166745141,2.7142125986394436,0.007728942023411798,0.0
6775,0.3448275862068966,5.172413793103448,3.5714285714285716,0,367792.6330480872,481825.3494721737,353279.4543612041,67012.26789201747,104031.37857849052,2.4519508869872477e-06,0.0,0.0,0.0,2.4519508869872477e-06,0.0,24.255115311898095,3.0026624216084423,0.0036627066755049727,0.0
6776,0.3448275862068966,5.172413793103448,3.928571428571429,0,185096.82746867675,322897.7544318456,386487.90212382266,177978.21265039514,-11671.735446680326,1.2339788497911783e-06,0.0,0.0,0.0,1.2339788497911783e-06,0.0,23.8978158286825,3.296225706885297,-0.0003957102001225903,0.0
6777,0.3448275862068966,5.172413793103448,4.285714285714286,0,262275.81236143736,435705.8881588895,346903.528388376,140557.410333569,-45997.949717338306,1.7485054157429158e-06,0.0,0.0,0.0,1.7485054157429158e-06,0.0,24.282558719979765,3.59505908887842,-0.0015412368753617081,0.0
6778,0.3448275862068966,5.172413793103448,4.642857142857143,0,68587.83647584634,340973.5449689293,280729.6462731567,266328.6148707883,-11503.101089993132,4.57252243172309e-07,0.0,0.0,0.0,4.57252243172309e-07,0.0,23.415202009982597,3.896969904949716,-0.0003840429090062717,0.0
6779,0.3448275862068966,5.172413793103448,5.0,0,448914.13247687946,540534.5459554124,413788.44989437616,41873.69808732223,4707.795345718079,2.9927608831791962e-06,0.0,0.0,0.0,2.9927608831791962e-06,0.0,23.70742297208523,4.200103117829869,0.00015700195221075866,0.0
6780,0.6896551724137931,5.172413793103448,0.0,0,253122.9836451811,464164.14687756036,310134.8078753322,172027.49594651166,78926.52447888277,1.6874865576345407e-06,0.0,0.0,0.0,1.6874865576345407e-06,0.0,23.023461878652196,-0.04989023035716538,0.0026321489177870655,0.0
6781,0.6896551724137931,5.172413793103448,0.35714285714285715,0,240439.08181082553,397524.68084729224,217189.0459432676,124544.81196033048,-13293.195761243313,1.6029272120721701e-06,0.0,0.0,0.0,1.6029272120721701e-06,0.0,23.637349933396436,0.25414768184737757,-0.0004438070682156172,0.0
6782,0.6896551724137931,5.172413793103448,0.7142857142857143,0,266237.7373599079,452656.2798122181,150836.7579580103,251137.57733032247,9893.884228098292,1.7749182490660527e-06,0.0,0.0,0.0,1.7749182490660527e-06,0.0,23.35143362098221,0.5594868439064007,0.0003315108457357363,0.0
6783,0.6896551724137931,5.172413793103448,1.0714285714285714,0,247208.78278524155,371321.76726760477,226173.685730442,85883.43145233972,-24734.5014994657,1.6480585519016103e-06,0.0,0.0,0.0,1.6480585519016103e-06,0.0,23.947218162836407,0.8681019558185117,-0.0008385809105251693,0.0
6784,0.6896551724137931,5.172413793103448,1.4285714285714286,0,247646.51818183254,491209.360222179,333413.30154274666,205782.63828380092,-9413.398768506184,1.6509767878788836e-06,0.0,0.0,0.0,1.6509767878788836e-06,0.0,24.279459364076434,1.1823271221216762,-0.0003314242200739869,0.0
6785,0.6896551724137931,5.172413793103448,1.7857142857142858,0,562884.547316101,790580.2003809832,500047.13731835806,141794.13789000822,-9825.869077382347,3.752563648774007e-06,0.0,0.0,0.0,3.752563648774007e-06,0.0,24.07347270694169,1.501995604405193,-0.000388097248203735,0.0
6786,0.6896551724137931,5.172413793103448,2.142857142857143,0,521445.75858228887,948507.5829440701,878644.5710448036,395652.2903040292,208749.273268781,3.476305057215259e-06,0.0,0.0,0.0,3.476305057215259e-06,0.0,24.18600850903947,1.8214813347043433,0.01119002471221759,0.0
6787,0.6896551724137931,5.172413793103448,2.5,0,597455.7417978566,1009507.53189819,511784.98362962255,346934.32644452824,758589.2718146874,3.983038278652378e-06,0.0,0.0,0.0,3.983038278652378e-06,0.0,23.848404513082247,2.1318620827475976,0.07585892718146875,0.0
6788,0.6896551724137931,5.172413793103448,2.857142857142857,0,285064.1138406866,595880.6304126628,553471.567163231,291987.83848075755,437393.7620277783,1.9004274256045775e-06,0.0,0.0,0.0,1.9004274256045775e-06,0.0,23.73498950470998,2.4286241918472,0.023446534349169573,0.0
6789,0.6896551724137931,5.172413793103448,3.2142857142857144,0,518651.1851040369,600084.1507931098,283434.54791316105,1533.4714713371427,41725.415009801145,3.4576745673602458e-06,0.0,0.0,0.0,3.4576745673602458e-06,0.0,23.22361055152457,2.716281318690908,0.0016480495127639808,0.0
6790,0.6896551724137931,5.172413793103448,3.5714285714285716,0,301803.2216554848,496149.68154328095,184132.0901713823,205720.0853557395,50654.29970509154,2.012021477703232e-06,0.0,0.0,0.0,2.012021477703232e-06,0.0,22.852555071448243,3.003755693550248,0.0017834219271917716,0.0
6791,0.6896551724137931,5.172413793103448,3.928571428571429,0,321854.7780157257,435900.11102747126,210572.0345497585,67285.01966577151,-47672.54136091349,2.1456985201048383e-06,0.0,0.0,0.0,2.1456985201048383e-06,0.0,23.06560269000942,3.296673384389941,-0.0016162558660156219,0.0
6792,0.6896551724137931,5.172413793103448,4.285714285714286,0,288778.7458356794,391696.71233141853,275152.4082919278,62858.056576656105,-6163.391214289973,1.9251916389045293e-06,0.0,0.0,0.0,1.9251916389045293e-06,0.0,23.492755540567476,3.5952011296206865,-0.00020651454847700457,0.0
6793,0.6896551724137931,5.172413793103448,4.642857142857143,0,278325.2572329048,316276.3812657905,302989.8626524948,31545.815288887552,6180.671128963276,1.855501714886032e-06,0.0,0.0,0.0,1.855501714886032e-06,0.0,24.285230691374043,3.8970048247045206,0.00020634808834663133,0.0
6794,0.6896551724137931,5.172413793103448,5.0,0,133908.69578659852,214405.65754966275,180964.28248637242,66945.55502515844,44894.66927909649,8.927246385773234e-07,0.0,0.0,0.0,8.927246385773234e-07,0.0,23.219394689707464,4.200109769642835,0.0014972083965131256,0.0
6795,1.0344827586206897,5.172413793103448,0.0,0,122147.33670359761,287143.753380172,171511.98750363165,159385.4448049055,6295.815519220339,8.143155780239841e-07,0.0,0.0,0.0,8.143155780239841e-07,0.0,23.455077961533384,-0.04988357939967609,0.00020996140543267722,0.0
6796,1.0344827586206897,5.172413793103448,0.35714285714285715,0,171222.9995810694,299369.4415266849,109669.12202646272,156273.48225294577,17365.219078830432,1.141486663873796e-06,0.0,0.0,0.0,1.141486663873796e-06,0.0,23.63544692674661,0.2541825971112195,0.0005797557718037259,0.0
6797,1.0344827586206897,5.172413793103448,0.7142857142857143,0,112100.27636896008,299776.15534949803,237562.90801158335,170365.8905793545,-15024.433837417158,7.473351757930672e-07,0.0,0.0,0.0,7.473351757930672e-07,0.0,24.519499420391867,0.5596288663810778,-0.0005034183393815728,0.0
6798,1.0344827586206897,5.172413793103448,1.0714285714285714,0,267371.7786427517,370225.59947496775,182383.68882936743,64115.505720563735,8907.697486854411,1.7824785242850112e-06,0.0,0.0,0.0,1.7824785242850112e-06,0.0,23.860998036995788,0.8685495757482053,0.00030200022706624967,0.0
6799,1.0344827586206897,5.172413793103448,1.4285714285714286,0,319308.0303061585,534928.4346730141,395359.3225359965,169596.98651974308,53221.94493086767,2.1287202020410564e-06,0.0,0.0,0.0,2.1287202020410564e-06,0.0,23.952358473288403,1.183420253459862,0.0018738228373525758,0.0
6800,1.0344827586206897,5.172413793103448,1.7857142857142858,0,362393.4407547,562012.28837214,428876.367055544,151881.92327555644,-30886.23967245163,2.4159562716979997e-06,0.0,0.0,0.0,2.4159562716979997e-06,0.0,24.09494898078569,1.5040640584025158,-0.0012199292021742322,0.0
6801,1.0344827586206897,5.172413793103448,2.142857142857143,0,271935.6472767219,777376.8659889331,540956.7187471968,480202.7408284988,398798.52702586097,1.812904315178146e-06,0.0,0.0,0.0,1.812904315178146e-06,0.0,24.591793588782746,1.8245140383933798,0.021377633094173495,0.0
6802,1.0344827586206897,5.172413793103448,2.5,0,407604.7185094717,906552.5166073405,546689.0922288292,463913.0896529599,531606.6345088112,2.7173647900631446e-06,0.0,0.0,0.0,2.7173647900631446e-06,0.0,23.940927746417906,2.135307364023375,0.05316066345088112,0.0
6803,1.0344827586206897,5.172413793103448,2.857142857142857,0,568376.1757535869,832815.1369788309,325906.244597723,218342.67422540364,192233.31387273563,3.789174505023913e-06,0.0,0.0,0.0,3.789174505023913e-06,0.0,23.02116423949569,2.4316568955362365,0.010304685132856433,0.0
6804,1.0344827586206897,5.172413793103448,3.2142857142857144,0,194137.16155872415,457604.52957317745,233878.29258612028,333528.07161877607,43122.052662693895,1.2942477437248276e-06,0.0,0.0,0.0,1.2942477437248276e-06,0.0,23.9720029443832,2.71834977268823,0.0017032132062303504,0.0
6805,1.0344827586206897,5.172413793103448,3.5714285714285716,0,187510.16597171006,392079.39776975045,220372.16495641542,191999.98746158,54206.741166467735,1.2500677731447338e-06,0.0,0.0,0.0,1.2500677731447338e-06,0.0,24.633514500789992,3.0048488248884335,0.0019084952582647246,0.0
6806,1.0344827586206897,5.172413793103448,3.928571428571429,0,276490.1238428437,359172.3810579406,184573.7221096331,40392.448070834835,-15680.182254850874,1.8432674922856246e-06,0.0,0.0,0.0,1.8432674922856246e-06,0.0,24.238523047672242,3.2971210043196346,-0.0005316097238813359,0.0
6807,1.0344827586206897,5.172413793103448,4.285714285714286,0,270910.7272902506,333201.61947277526,159948.21603801165,21008.81700079022,9577.064598302039,1.8060715152683374e-06,0.0,0.0,0.0,1.8060715152683374e-06,0.0,24.030256973129216,3.5953431520953636,0.0003208952835360939,0.0
6808,1.0344827586206897,5.172413793103448,4.642857142857143,0,270439.75070594385,347943.20196555636,247182.48070338753,41588.005559666366,-51423.942364899456,1.802931671372959e-06,0.0,0.0,0.0,1.802931671372959e-06,0.0,24.10434874001994,3.8970397399683625,-0.0017168414207510572,0.0
6809,1.0344827586206897,5.172413793103448,5.0,0,104085.84304676583,346357.6435753458,255877.09831835475,232605.94182546815,-58185.75960494857,6.939056203117722e-07,0.0,0.0,0.0,6.939056203117722e-07,0.0,23.013630695181718,4.200116420600324,-0.0019404577255363732,0.0
6810,1.3793103448275863,5.172413793103448,0.0,0,125005.7008159571,187143.1391631383,176317.4918806844,57076.678362077524,-31210.94639807496,8.333713387730473e-07,0.0,0.0,0.0,8.333713387730473e-07,0.0,22.976053012132272,-0.049876929541597524,-0.001040865023858783,0.0
6811,1.3793103448275863,5.172413793103448,0.35714285714285715,0,96778.47736463799,326851.49475483416,315154.9695457848,224756.3249036696,29363.656367460106,6.451898490975866e-07,0.0,0.0,0.0,6.451898490975866e-07,0.0,24.41613699581158,0.2542175066035291,0.00098033599132933,0.0
6812,1.3793103448275863,5.172413793103448,0.7142857142857143,0,178546.59492336592,251815.70736555674,101987.20231960919,54253.78521327095,-1474.360046513425,1.1903106328224394e-06,0.0,0.0,0.0,1.1903106328224394e-06,0.0,24.616652439851837,0.5597708653792806,-4.940085558617771e-05,0.0
6813,1.3793103448275863,5.172413793103448,1.0714285714285714,0,175021.40271213432,233975.60238258622,213240.072936793,49510.10714238767,33144.33607886945,1.166809351414229e-06,0.0,0.0,0.0,1.166809351414229e-06,0.0,23.663802981411482,0.8689971216858228,0.00112370194840478,0.0
6814,1.3793103448275863,5.172413793103448,1.4285714285714286,0,61700.77398360859,271304.48195000517,228533.66418524136,200573.57306026318,44705.435216543505,4.113384932240573e-07,0.0,0.0,0.0,4.113384932240573e-07,0.0,24.07993045866561,1.1845132041022122,0.00157397602758332,0.0
6815,1.3793103448275863,5.172413793103448,1.7857142857142858,0,249034.66820019262,542076.7277649234,294236.527428402,291864.5364411008,14726.075651003492,1.6602311213346175e-06,0.0,0.0,0.0,1.6602311213346175e-06,0.0,24.298416740405674,1.5061321704820738,0.0005816431495255603,0.0
6816,1.3793103448275863,5.172413793103448,2.142857142857143,0,311760.3378562548,706158.0802570628,414217.4905409755,377780.1997085838,394553.90434572415,2.078402252375032e-06,0.0,0.0,0.0,2.078402252375032e-06,0.0,24.822787104914052,1.8275462407730971,0.021150099690387156,0.0
6817,1.3793103448275863,5.172413793103448,2.5,0,129569.77168717506,577065.3121161325,607502.5080151291,465423.71707972506,454414.6930744188,8.637984779145004e-07,0.0,0.0,0.0,8.637984779145004e-07,0.0,23.957518790601707,2.1387520757902956,0.045441469307441876,0.0
6818,1.3793103448275863,5.172413793103448,2.857142857142857,0,547913.6405741563,809716.6587072593,484004.4476030846,177134.0112390823,352676.0559053298,3.6527576038277088e-06,0.0,0.0,0.0,3.6527576038277088e-06,0.0,24.371110959535276,2.434689097915954,0.018905233628797865,0.0
6819,1.3793103448275863,5.172413793103448,3.2142857142857144,0,63463.81342265766,355202.13377910736,310081.6230844415,282634.2765083137,100406.31785841624,4.230920894843844e-07,0.0,0.0,0.0,4.230920894843844e-07,0.0,25.0035518287519,2.7204178847677882,0.003965798379383857,0.0
6820,1.3793103448275863,5.172413793103448,3.5714285714285716,0,203319.17174142387,357961.5780288313,153307.62261555617,156004.0101508286,6641.822914679809,1.3554611449428259e-06,0.0,0.0,0.0,1.3554611449428259e-06,0.0,23.87146924674225,3.0059417755307836,0.0002338433793681312,0.0
6821,1.3793103448275863,5.172413793103448,3.928571428571429,0,208961.38493835964,313942.225458609,112781.19407171974,97968.72911261543,2189.5872817351087,1.3930758995890642e-06,0.0,0.0,0.0,1.3930758995890642e-06,0.0,24.04882566509985,3.2975685502572523,7.423420667812615e-05,0.0
6822,1.3793103448275863,5.172413793103448,4.285714285714286,0,196272.12836082024,342362.1710960443,186810.98840941017,121843.38185917318,9324.609832740329,1.3084808557388016e-06,0.0,0.0,0.0,1.3084808557388016e-06,0.0,23.468374898186344,3.5954851510935666,0.0003124363718577362,0.0
6823,1.3793103448275863,5.172413793103448,4.642857142857143,0,214690.8018786545,393233.079195812,179630.62664199583,177470.23303123098,3346.83067332943,1.4312720125243634e-06,0.0,0.0,0.0,1.4312720125243634e-06,0.0,23.49825753018943,3.8970746494606723,0.00011173739826167352,0.0
6824,1.3793103448275863,5.172413793103448,5.0,0,64644.742945529266,210750.96342284555,191482.9947072715,138662.98138136097,-11308.725288845724,4.309649529701951e-07,0.0,0.0,0.0,4.309649529701951e-07,0.0,24.468356566238658,4.200123070458402,-0.00037713872778663424,0.0
6825,1.7241379310344829,5.172413793103448,0.0,0,242781.51656323642,265026.60412474803,181667.65006578018,-8453.063518098435,-12746.41439107586,1.6185434437549094e-06,0.0,0.0,0.0,1.6185434437549094e-06,0.0,24.659684500018514,-0.04987028112927476,-0.0004250847362994226,0.0
6826,1.7241379310344829,5.172413793103448,0.35714285714285715,0,95950.93797211371,253084.99495703692,159528.67674934395,154906.50520936982,-10237.154999242211,6.396729198140914e-07,0.0,0.0,0.0,6.396729198140914e-07,0.0,24.64929212938232,0.25425240850611275,-0.0003417779914389524,0.0
6827,1.7241379310344829,5.172413793103448,0.7142857142857143,0,129943.04999869202,292059.43323928234,176705.3103314824,151284.44167222184,32742.80126893531,8.662869999912801e-07,0.0,0.0,0.0,8.662869999912801e-07,0.0,23.555646454796705,0.5599128335052644,0.0010971013496999704,0.0
6828,1.7241379310344829,5.172413793103448,1.0714285714285714,0,177610.46058215486,288820.33443524735,146549.72788660083,89760.12509328085,-43800.12116568403,1.1840697372143657e-06,0.0,0.0,0.0,1.1840697372143657e-06,0.0,23.97410153421312,0.8694445703217947,-0.0014849680915956797,0.0
6829,1.7241379310344829,5.172413793103448,1.4285714285714286,0,176224.04106325415,299073.7914721587,323301.87663489085,136217.37207301208,-11941.896469483634,1.1748269404216944e-06,0.0,0.0,0.0,1.1748269404216944e-06,0.0,24.32092137332797,1.1856059171244944,-0.0004204468355090179,0.0
6830,1.7241379310344829,5.172413793103448,1.7857142857142858,0,203901.7123788194,420273.07271770184,248919.0958435424,194759.50370146066,33528.31024289217,1.3593447491921292e-06,0.0,0.0,0.0,1.3593447491921292e-06,0.0,22.948263945763532,1.5081998329302273,0.0013242843803139774,0.0
6831,1.7241379310344829,5.172413793103448,2.142857142857143,0,484371.19771213195,530410.0494895276,427357.3514478672,2805.3841773166077,241984.10694802867,3.2291413180808797e-06,0.0,0.0,0.0,3.2291413180808797e-06,0.0,24.319642989713742,1.8305777839170656,0.012971581142827888,0.0
6832,1.7241379310344829,5.172413793103448,2.5,0,632376.3946774773,962257.1445434152,446140.75253273506,256853.6602330645,487469.31821569044,4.215842631183182e-06,0.0,0.0,0.0,4.215842631183182e-06,0.0,25.03612227149434,2.142196038637172,0.04874693182156904,0.0
6833,1.7241379310344829,5.172413793103448,2.857142857142857,0,464745.83347492106,745610.9481711915,376877.7546631502,223582.44397672522,165489.71443013175,3.0983055564994736e-06,0.0,0.0,0.0,3.0983055564994736e-06,0.0,24.668968949639115,2.4377206410599226,0.008871091932888434,0.0
6834,1.7241379310344829,5.172413793103448,3.2142857142857144,0,327079.5682610491,545519.909203407,324913.3935532109,169734.79152090903,95810.02668061145,2.1805304550736607e-06,0.0,0.0,0.0,2.1805304550736607e-06,0.0,22.900201217900072,2.7224855472159417,0.0037842563759232987,0.0
6835,1.7241379310344829,5.172413793103448,3.5714285714285716,0,180348.43400196973,301786.2427947268,218653.64357773712,94864.91345464697,32583.235712594324,1.202322893346465e-06,0.0,0.0,0.0,1.202322893346465e-06,0.0,24.308764794401004,3.007034488553066,0.0011471811350075346,0.0
6836,1.7241379310344829,5.172413793103448,3.928571428571429,0,84554.00167252196,240504.96446967413,168371.44103348674,147456.22931833053,18848.2454554596,5.636933444834797e-07,0.0,0.0,0.0,5.636933444834797e-07,0.0,24.222809252671652,3.298015998893224,0.0006390174807518407,0.0
6837,1.7241379310344829,5.172413793103448,4.285714285714286,0,131975.0500662295,210787.23628777938,172885.43514147098,64008.31084377356,-5574.296723817771,8.798336671081967e-07,0.0,0.0,0.0,8.798336671081967e-07,0.0,24.255392902570147,3.59562711921955,-0.00018677596974974578,0.0
6838,1.7241379310344829,5.172413793103448,4.642857142857143,0,134818.65489401814,287120.63924293226,148957.11642875316,155916.41466740245,-19779.715129743126,8.987910326267876e-07,0.0,0.0,0.0,8.987910326267876e-07,0.0,24.177863880507207,3.897109551363256,-0.0006603662158850463,0.0
6839,1.7241379310344829,5.172413793103448,5.0,0,70505.48353035309,212138.37437146358,209005.68605589741,140118.76268273467,-8710.117921591016,4.700365568690206e-07,0.0,0.0,0.0,4.700365568690206e-07,0.0,23.965803754695433,4.200129718870725,-0.00029047684048532485,0.0
6840,2.0689655172413794,5.172413793103448,0.0,0,154163.0807145564,345675.9827114837,280390.0105917338,169612.07126522294,1536.037621596045,1.027753871430376e-06,0.0,0.0,0.0,1.027753871430376e-06,0.0,22.998440387198777,-0.04986363467145917,5.122586849045908e-05,0.0
6841,2.0689655172413794,5.172413793103448,0.35714285714285715,0,54951.84987323411,186403.08658929067,132527.17253343223,188495.20393217172,16815.723833601696,3.6634566582156075e-07,0.0,0.0,0.0,3.6634566582156075e-07,0.0,24.321309605817035,0.2542873001481987,0.0005614103055845046,0.0
6842,2.0689655172413794,5.172413793103448,0.7142857142857143,0,74068.19695168173,267082.7122138287,197208.4350425001,189433.90260007916,-2055.4535597636636,4.937879796778782e-07,0.0,0.0,0.0,4.937879796778782e-07,0.0,24.484275200299727,0.5600547598953108,-6.887134842680034e-05,0.0
6843,2.0689655172413794,5.172413793103448,1.0714285714285714,0,260046.23609049496,342639.32216427,184965.09545219774,42492.07894993753,9570.884904390568,1.733641573936633e-06,0.0,0.0,0.0,1.733641573936633e-06,0.0,23.897638237777148,0.8698918874163507,0.000324484460615825,0.0
6844,2.0689655172413794,5.172413793103448,1.4285714285714286,0,171337.3486645479,339502.3151885343,252765.98784798157,142140.33934711514,-9344.165818420905,1.142248991096986e-06,0.0,0.0,0.0,1.142248991096986e-06,0.0,24.8093405120271,1.1866983089098648,-0.00032898668639994326,0.0
6845,2.0689655172413794,5.172413793103448,1.7857142857142858,0,304700.544943716,449553.69982314616,364529.123663481,111371.76809410584,58182.17730570598,2.0313369662914403e-06,0.0,0.0,0.0,2.0313369662914403e-06,0.0,23.3646951647759,1.5102668875248213,0.0022980504552846935,0.0
6846,2.0689655172413794,5.172413793103448,2.142857142857143,0,185288.46609531122,518816.0412057381,476849.74542041536,679522.0184182888,226649.5749962603,1.2352564406354081e-06,0.0,0.0,0.0,1.2352564406354081e-06,0.0,23.326862464565387,1.8336084358448246,0.01214957209434781,0.0
6847,2.0689655172413794,5.172413793103448,2.5,0,141608.08816368933,547870.2150092488,523938.1741332207,395821.0274953641,457131.39724173374,9.440539210912622e-07,0.0,0.0,0.0,9.440539210912622e-07,0.0,24.23675167460569,2.145638989024265,0.045713139724173374,0.0
6848,2.0689655172413794,5.172413793103448,2.857142857142857,0,327811.71718874364,742548.0372444531,394505.7572044534,439645.3609027145,128990.4645227952,2.1854114479249574e-06,0.0,0.0,0.0,2.1854114479249574e-06,0.0,23.858139292224706,2.440751292987682,0.006914546158884138,0.0
6849,2.0689655172413794,5.172413793103448,3.2142857142857144,0,341314.24142155336,565117.2632125571,237562.73303230497,211533.69233685877,66901.88514216393,2.275428276143689e-06,0.0,0.0,0.0,2.275428276143689e-06,0.0,24.68974837811757,2.724552601810536,0.002642457101640234,0.0
6850,2.0689655172413794,5.172413793103448,3.5714285714285716,0,286516.253679714,276566.55898269993,206351.1796965171,-38530.262603814146,20182.538537065506,1.91010835786476e-06,0.0,0.0,0.0,1.91010835786476e-06,0.0,23.994679270097436,3.0081268803384367,0.0007105809769940935,0.0
6851,2.0689655172413794,5.172413793103448,3.928571428571429,0,120680.93717014001,201452.5076205868,115593.69210412572,63470.02813478923,13967.061286474587,8.045395811342667e-07,0.0,0.0,0.0,8.045395811342667e-07,0.0,24.8922163214604,3.29846331598778,0.00047352929151314044,0.0
6852,2.0689655172413794,5.172413793103448,4.285714285714286,0,73153.59962799163,128730.13943461404,147180.6689656941,66568.20220603222,-25000.808514164924,4.876906641866109e-07,0.0,0.0,0.0,4.876906641866109e-07,0.0,23.856919112889003,3.5957690456095968,-0.0008376931631229587,0.0
6853,2.0689655172413794,5.172413793103448,4.642857142857143,0,138863.1120429241,202905.01537940436,232570.04608211768,81271.5886378674,-17924.905406016627,9.257540802861606e-07,0.0,0.0,0.0,9.257540802861606e-07,0.0,24.294521213751082,3.897144443005342,-0.0005984414778183073,0.0
6854,2.0689655172413794,5.172413793103448,5.0,0,110455.58417820228,246630.83229900504,181629.49991766948,119095.66622731362,-21920.35267848672,7.363705611880152e-07,0.0,0.0,0.0,7.363705611880152e-07,0.0,23.23515227027977,4.200136365328541,-0.0007310296881959746,0.0
6855,2.413793103448276,5.172413793103448,0.0,0,172748.6169558494,320917.05215215543,213616.39493183905,121640.4505682481,8023.521622277583,1.1516574463723293e-06,0.0,0.0,0.0,1.1516574463723293e-06,0.0,24.23281618628339,-0.04985699094702338,0.0002675792947220119,0.0
6856,2.413793103448276,5.172413793103448,0.35714285714285715,0,290858.7905309782,275940.55512827716,241722.89377770943,-30513.570597603364,16008.022833083593,1.9390586035398544e-06,0.0,0.0,0.0,1.9390586035398544e-06,0.0,24.300525527054123,0.25432217744097074,0.0005344443735789088,0.0
6857,2.413793103448276,5.172413793103448,0.7142857142857143,0,150031.58691715472,258862.51782699508,162144.8960922767,86029.80082921553,-16991.043703257033,1.0002105794476981e-06,0.0,0.0,0.0,1.0002105794476981e-06,0.0,24.873702820054163,0.5601966279176162,-0.000569312833882054,0.0
6858,2.413793103448276,5.172413793103448,1.0714285714285714,0,138263.79842789256,231243.4705560684,186373.30305501056,76117.47149092887,33230.09248467312,9.217586561859504e-07,0.0,0.0,0.0,9.217586561859504e-07,0.0,23.51810618471643,0.8703390205501345,0.0011266093724684413,0.0
6859,2.413793103448276,5.172413793103448,1.4285714285714286,0,66501.15319068058,258035.56304348743,186839.1346775727,197523.40062579128,41715.07292807278,4.4334102127120385e-07,0.0,0.0,0.0,4.4334102127120385e-07,0.0,24.136890387759188,1.1877902514451644,0.001468692217392376,0.0
6860,2.413793103448276,5.172413793103448,1.7857142857142858,0,315226.18246636784,536069.2294371375,224899.87737322645,216937.0928183108,49849.22806494029,2.101507883109119e-06,0.0,0.0,0.0,2.101507883109119e-06,0.0,25.009534335007253,1.5123330920357407,0.0019689198059453152,0.0
6861,2.413793103448276,5.172413793103448,2.142857142857143,0,382419.7980415706,644841.7390611985,315807.5269933986,225280.9751942774,256814.9097949493,2.549465320277137e-06,0.0,0.0,0.0,2.549465320277137e-06,0.0,25.080546222886237,1.8366378414060216,0.01376658774457728,0.0
6862,2.413793103448276,5.172413793103448,2.5,0,273640.2748125171,422700.65918063186,633620.8199878198,324412.08480763005,298377.1864689652,1.824268498750114e-06,0.0,0.0,0.0,1.824268498750114e-06,0.0,23.87540405161455,2.1490805234855643,0.029837718646896518,0.0
6863,2.413793103448276,5.172413793103448,2.857142857142857,0,464097.0384310377,536439.6220969104,459834.2420669806,38806.14398548809,201023.82523795712,3.0939802562069178e-06,0.0,0.0,0.0,3.0939802562069178e-06,0.0,23.954477540150677,2.4437806985488786,0.010775901333370837,0.0
6864,2.413793103448276,5.172413793103448,3.2142857142857144,0,194955.08311626466,346613.34495001653,447441.0034782057,222720.48504338015,-8326.535140257409,1.2997005541084311e-06,0.0,0.0,0.0,1.2997005541084311e-06,0.0,23.452222627264845,2.726618806321455,-0.0003288773084147878,0.0
6865,2.413793103448276,5.172413793103448,3.5714285714285716,0,166994.87863548123,260191.39511952898,261261.43415044865,93734.10716894614,-22909.374404393297,1.1132991909032082e-06,0.0,0.0,0.0,1.1132991909032082e-06,0.0,23.245290601273364,3.009218822873736,-0.0008065866252008252,0.0
6866,2.413793103448276,5.172413793103448,3.928571428571429,0,192714.351959658,279656.5720754255,139191.42899079795,59955.009986937635,13093.945732049437,1.28476234639772e-06,0.0,0.0,0.0,1.28476234639772e-06,0.0,24.117085624093075,3.2989104491215637,0.0004439278040265482,0.0
6867,2.413793103448276,5.172413793103448,4.285714285714286,0,67691.2756431234,238733.03441683235,211787.7129758135,161718.489576292,18449.37930508315,4.51275170954156e-07,0.0,0.0,0.0,4.51275170954156e-07,0.0,23.993622701773518,3.595910913631902,0.0006181767641224056,0.0
6868,2.413793103448276,5.172413793103448,4.642857142857143,0,113320.06762393878,239460.68720758916,155400.74977257062,110586.70364098603,19403.887924617105,7.554671174929253e-07,0.0,0.0,0.0,7.554671174929253e-07,0.0,25.351756531243975,3.897179320298114,0.0006478188365295911,0.0
6869,2.413793103448276,5.172413793103448,5.0,0,214134.84470454144,307025.81567749986,229382.0948670479,64900.435428987534,5876.7590808722425,1.4275656313636095e-06,0.0,0.0,0.0,1.4275656313636095e-06,0.0,24.499586271054504,4.200143009052977,0.00019598614226262894,0.0
6870,2.7586206896551726,5.172413793103448,0.0,0,121046.13943085668,206415.2570817716,144547.7037540423,66938.9898667646,12551.58731592422,8.069742628723778e-07,0.0,0.0,0.0,8.069742628723778e-07,0.0,24.253394629379503,-0.049850351211370436,0.00041858737842889813,0.0
6871,2.7586206896551726,5.172413793103448,0.35714285714285715,0,213867.14563284986,329300.1435244168,117418.85991790613,113500.96894338558,-38118.17015233486,1.4257809708856657e-06,0.0,0.0,0.0,1.4257809708856657e-06,0.0,24.690448685277754,0.25435703379399005,-0.001272614474720526,0.0
6872,2.7586206896551726,5.172413793103448,0.7142857142857143,0,89880.26938990345,208325.7832292941,130146.44803405328,110122.18760346486,-31027.117155869983,5.992017959326896e-07,0.0,0.0,0.0,5.992017959326896e-07,0.0,24.88141223893542,0.560338410764695,-0.0010396145347923963,0.0
6873,2.7586206896551726,5.172413793103448,1.0714285714285714,0,137301.26894087024,252337.51095469698,136617.67011422748,100624.90128335186,-5027.918565407669,9.15341792939135e-07,0.0,0.0,0.0,9.15341792939135e-07,0.0,24.978756312208457,0.8707858852325415,-0.0001704629676372109,0.0
6874,2.7586206896551726,5.172413793103448,1.4285714285714286,0,195800.4493918237,271899.99895917,153256.3561604998,45903.10293967381,20835.216836021747,1.3053363292788246e-06,0.0,0.0,0.0,1.3053363292788246e-06,0.0,24.506443710298726,1.1888815383961318,0.0007335602856912342,0.0
6875,2.7586206896551726,5.172413793103448,1.7857142857142858,0,298845.32953561307,422889.8174987963,241628.51404876396,77962.51638778132,25014.049292876418,1.9923021969040873e-06,0.0,0.0,0.0,1.9923021969040873e-06,0.0,24.36957364232986,1.5143980560314678,0.000987992372027833,0.0
6876,2.7586206896551726,5.172413793103448,2.142857142857143,0,460872.07583372307,665829.3968223983,532788.0441334589,153071.03813889986,147412.26618165057,3.0724805055581538e-06,0.0,0.0,0.0,3.0724805055581538e-06,0.0,24.46521786459311,1.839665428161964,0.007902048594596768,0.0
6877,2.7586206896551726,5.172413793103448,2.5,0,512696.38556874584,781880.7927569699,762053.8829527326,259558.56157270458,365356.69911978935,3.4179759037916388e-06,0.0,0.0,0.0,3.4179759037916388e-06,0.0,24.36162216973904,2.152519991706198,0.03653566991197894,0.0
6878,2.7586206896551726,5.172413793103448,2.857142857142857,0,267853.1649641034,519359.27038926183,265350.2057427393,239531.75455456597,173539.82639770274,1.7856877664273559e-06,0.0,0.0,0.0,1.7856877664273559e-06,0.0,24.130979146099058,2.446808285304821,0.009302618953043622,0.0
6879,2.7586206896551726,5.172413793103448,3.2142857142857144,0,214304.5076864969,320016.7430692112,393182.97192685993,151876.99792731146,-27697.37009057733,1.4286967179099792e-06,0.0,0.0,0.0,1.4286967179099792e-06,0.0,24.921923096090616,2.7286837703171822,-0.001093976830952967,0.0
6880,2.7586206896551726,5.172413793103448,3.5714285714285716,0,296411.3340023961,432337.44947126356,174146.60138340862,108658.38429109957,67706.89837068657,1.976075560015974e-06,0.0,0.0,0.0,1.976075560015974e-06,0.0,24.308634160507655,3.0103101098247036,0.0023838048868394493,0.0
6881,2.7586206896551726,5.172413793103448,3.928571428571429,0,32332.652581367747,223917.4241506516,190789.40588635675,192443.64549118298,30723.59930638723,2.155510172091183e-07,0.0,0.0,0.0,2.155510172091183e-07,0.0,23.902626154183867,3.299357313803971,0.0010416310141329191,0.0
6882,2.7586206896551726,5.172413793103448,4.285714285714286,0,166637.5580020983,274284.42194453464,88834.90384790809,137125.07147017794,-47537.640954205075,1.110917053347322e-06,0.0,0.0,0.0,1.110917053347322e-06,0.0,24.424819099768012,3.596052696478981,-0.0015928267598133592,0.0
6883,2.7586206896551726,5.172413793103448,4.642857142857143,0,36207.82730603672,162743.55066719934,193047.31801012723,152950.13374229742,-46103.80079052868,2.413855153735781e-07,0.0,0.0,0.0,2.413855153735781e-07,0.0,24.777599286793503,3.8972141766511332,-0.0015392230002432203,0.0
6884,2.7586206896551726,5.172413793103448,5.0,0,137495.97999622286,226409.00297985342,71691.30622612561,118196.13949088681,-19329.259968321236,9.166398666414857e-07,0.0,0.0,0.0,9.166398666414857e-07,0.0,23.696032668742493,4.20014964878863,-0.0006446184098839186,0.0
6885,3.1034482758620694,5.172413793103448,0.0,0,118501.91481074248,235773.10472672633,184539.3202153296,100274.32903571233,-36031.10793258665,7.900127654049499e-07,0.0,0.0,0.0,7.900127654049499e-07,0.0,24.321457452215583,-0.04984371762579406,-0.001201614316322793,0.0
6886,3.1034482758620694,5.172413793103448,0.35714285714285715,0,128677.54954974294,264857.54827643326,181832.8615434316,116630.22094426924,57653.592326074155,8.578503303316195e-07,0.0,0.0,0.0,8.578503303316195e-07,0.0,24.05957293177958,0.25439185786119994,0.0019248247179909294,0.0
6887,3.1034482758620694,5.172413793103448,0.7142857142857143,0,69912.50179001517,110573.99158623371,179197.02713563092,108062.72904047716,-19472.774458403303,4.660833452667678e-07,0.0,0.0,0.0,4.660833452667678e-07,0.0,25.55670940403028,0.5604800622849546,-0.0006524673000714227,0.0
6888,3.1034482758620694,5.172413793103448,1.0714285714285714,0,119039.21914712079,258403.40565952045,138306.07556871543,140451.2936186979,9202.166052804287,7.935947943141387e-07,0.0,0.0,0.0,7.935947943141387e-07,0.0,24.51597816113383,0.8712323360050952,0.00031198367945806853,0.0
6889,3.1034482758620694,5.172413793103448,1.4285714285714286,0,170318.8966557091,223803.78115029822,235386.62952125052,59571.957584974814,-11046.915561889591,1.1354593110380607e-06,0.0,0.0,0.0,1.1354593110380607e-06,0.0,25.250930390544873,1.1899718145390408,-0.00038893660667723383,0.0
6890,3.1034482758620694,5.172413793103448,1.7857142857142858,0,187787.055240775,443336.1537271415,323994.1964317826,226878.37385663454,-4738.547021149156,1.2519137016051666e-06,0.0,0.0,0.0,1.2519137016051666e-06,0.0,24.60162778718902,1.5164611073476335,-0.00018716075340604018,0.0
6891,3.1034482758620694,5.172413793103448,2.142857142857143,0,193938.37398351516,488984.12872299255,405881.55561895366,267342.40749720787,297248.9119523352,1.2929224932234345e-06,0.0,0.0,0.0,1.2929224932234345e-06,0.0,24.651027332746015,1.8426902106059078,0.015934056288395556,0.0
6892,3.1034482758620694,5.172413793103448,2.5,0,575591.3167591756,601599.6793109663,605567.2163469117,28002.386712467833,466299.90055704117,3.8372754450611705e-06,0.0,0.0,0.0,3.8372754450611705e-06,0.0,24.458329675451367,2.155956274108298,0.04662999005570412,0.0
6893,3.1034482758620694,5.172413793103448,2.857142857142857,0,282123.25659838563,583075.941399741,419988.34486756567,257308.15003162954,228970.77223249688,1.8808217106559042e-06,0.0,0.0,0.0,1.8808217106559042e-06,0.0,24.38226626404316,2.4498330677487647,0.012274000093682565,0.0
6894,3.1034482758620694,5.172413793103448,3.2142857142857144,0,274376.81484790175,328706.12917719875,335459.5412726349,57768.36222926593,143021.65837715587,1.8291787656526784e-06,0.0,0.0,0.0,1.8291787656526784e-06,0.0,24.46157145742546,2.730746821633348,0.005648997723516988,0.0
6895,3.1034482758620694,5.172413793103448,3.5714285714285716,0,155582.40819861708,262993.3773971163,196127.33945863988,85156.11517758855,10484.791576308024,1.0372160546574473e-06,0.0,0.0,0.0,1.0372160546574473e-06,0.0,24.17454945082034,3.0114003859676126,0.00036914550804349175,0.0
6896,3.1034482758620694,5.172413793103448,3.928571428571429,0,96157.44918872052,190402.22462863638,185904.43510052864,92074.80754298349,-11255.691259544548,6.410496612581368e-07,0.0,0.0,0.0,6.410496612581368e-07,0.0,24.502447301037186,3.2998037645765246,-0.0003816049345171945,0.0
6897,3.1034482758620694,5.172413793103448,4.285714285714286,0,156581.559406076,153748.37895971505,197826.26041124854,23930.018178122817,46496.28167444839,1.0438770627071733e-06,0.0,0.0,0.0,1.0438770627071733e-06,0.0,23.700866082593574,3.5961943479992406,0.001557934306294803,0.0
6898,3.1034482758620694,5.172413793103448,4.642857142857143,0,175884.68242189873,291239.760557144,150125.8967812176,94189.43121965326,9772.84119395823,1.1725645494793248e-06,0.0,0.0,0.0,1.1725645494793248e-06,0.0,24.604169565629082,3.897249000718343,0.0003262763955581551,0.0
6899,3.1034482758620694,5.172413793103448,5.0,0,74811.01990087728,179217.69599578716,109649.5477612294,100083.95150746264,39383.88805116673,4.987401326725151e-07,0.0,0.0,0.0,4.987401326725151e-07,0.0,23.91976566215631,4.2001562823742065,0.0013134273806755725,0.0
6900,3.4482758620689657,5.172413793103448,0.0,0,89093.56331494151,240043.3736203985,188003.05941566933,137169.3467569198,-973.0693049300678,5.939570887662768e-07,0.0,0.0,0.0,5.939570887662768e-07,0.0,24.60113742836715,-0.0498370942513687,-3.245123657495865e-05,0.0
6901,3.4482758620689657,5.172413793103448,0.35714285714285715,0,188661.96595861905,286481.0872910287,233521.18471350888,76999.02142813105,-75056.17444514303,1.257746439724127e-06,0.0,0.0,0.0,1.257746439724127e-06,0.0,24.719135872486167,0.25442662832334123,-0.0025058278934773867,0.0
6902,3.4482758620689657,5.172413793103448,0.7142857142857143,0,94274.55503107753,219063.09243107718,189793.19310983506,113625.3538727525,-38931.64417280872,6.284970335405169e-07,0.0,0.0,0.0,6.284970335405169e-07,0.0,25.271926235780203,0.5606214957594755,-0.001304468698851077,0.0
6903,3.4482758620689657,5.172413793103448,1.0714285714285714,0,108834.21815665238,214871.8168221592,196513.47966003453,98025.9605691381,28027.592407689346,7.255614543776825e-07,0.0,0.0,0.0,7.255614543776825e-07,0.0,24.72651172420459,0.8716780995510784,0.0009502275176872338,0.0
6904,3.4482758620689657,5.172413793103448,1.4285714285714286,0,188807.20596381335,312589.8991537011,206818.13645368663,94605.82979013416,-13857.255538219597,1.2587147064254224e-06,0.0,0.0,0.0,1.2587147064254224e-06,0.0,24.439684902897326,1.1910604124079263,-0.0004878822433917959,0.0
6905,3.4482758620689657,5.172413793103448,1.7857142857142858,0,438232.4119426503,524179.34140263137,363204.06332014775,28224.655820062722,55978.13682539651,2.921549412951002e-06,0.0,0.0,0.0,2.921549412951002e-06,0.0,24.263162892672565,1.5185209829862827,0.0022109963699308895,0.0
6906,3.4482758620689657,5.172413793103448,2.142857142857143,0,221183.27550478737,486274.86273776443,420694.0565830688,239717.2737756278,311354.3496208422,1.4745551700319158e-06,0.0,0.0,0.0,1.4745551700319158e-06,0.0,24.94049206858043,1.8457103369690635,0.01669017962054247,0.0
6907,3.4482758620689657,5.172413793103448,2.5,0,294530.93347987515,724386.524893084,454973.59506732784,409927.51977964764,444315.2528103587,1.963539556532501e-06,0.0,0.0,0.0,1.963539556532501e-06,0.0,24.537505254744854,2.1593872670032117,0.044431525281035875,0.0
6908,3.4482758620689657,5.172413793103448,2.857142857142857,0,392902.4363744949,414783.7403181737,584605.8683379858,135356.14574909923,184840.8727155031,2.619349575829966e-06,0.0,0.0,0.0,2.619349575829966e-06,0.0,24.215598448527974,2.4528531941119205,0.009908412619243724,0.0
6909,3.4482758620689657,5.172413793103448,3.2142857142857144,0,210470.02957750796,394706.600926871,254420.93911761977,152698.75564057325,44650.847251852385,1.4031335305167198e-06,0.0,0.0,0.0,1.4031335305167198e-06,0.0,24.673228578621302,2.732806697271997,0.0017635967680759792,0.0
6910,3.4482758620689657,5.172413793103448,3.5714285714285716,0,169733.33493930858,301104.0652876362,262541.4795902094,115407.3277594521,6957.043294292616,1.1315555662620572e-06,0.0,0.0,0.0,1.1315555662620572e-06,0.0,23.672799025574687,3.012488983836498,0.00024494156728450045,0.0
6911,3.4482758620689657,5.172413793103448,3.928571428571429,0,68670.47753485144,213355.62401907347,237059.89198855613,159677.49594964815,-10338.615705960747,4.578031835656762e-07,0.0,0.0,0.0,4.578031835656762e-07,0.0,24.646004250324758,3.300249528122508,-0.00035051305854947825,0.0
6912,3.4482758620689657,5.172413793103448,4.285714285714286,0,115494.15804447701,226953.872673073,203164.9115350508,101417.56644826347,-34591.00806145264,7.699610536298467e-07,0.0,0.0,0.0,7.699610536298467e-07,0.0,24.2205249894807,3.5963357814737615,-0.0011590285547042399,0.0
6913,3.4482758620689657,5.172413793103448,4.642857142857143,0,65869.60214845845,178862.26006053845,112083.02859462993,113941.62514308651,-8851.078963831626,4.3913068098972297e-07,0.0,0.0,0.0,4.3913068098972297e-07,0.0,24.45230130332194,3.8972837711804846,-0.00029550241161239283,0.0
6914,3.4482758620689657,5.172413793103448,5.0,0,133049.90493383456,252777.10302965922,175609.6503787441,99144.84176598964,-2310.508369969234,8.869993662255638e-07,0.0,0.0,0.0,8.869993662255638e-07,0.0,25.61730696586652,4.200162905748631,-7.705397071145129e-05,0.0
6915,3.793103448275862,5.172413793103448,0.0,0,206535.97798443993,315179.62950720295,171650.41303621413,78470.68758180247,-37556.506983310195,1.3769065198962662e-06,0.0,0.0,0.0,1.3769065198962662e-06,0.0,24.409027075848876,-0.04983048971069613,-0.001252485395304988,0.0
6916,3.793103448275862,5.172413793103448,0.35714285714285715,0,140681.37047728815,203171.4610167677,156379.63579074785,45056.79759904904,-23896.560378696955,9.37875803181921e-07,0.0,0.0,0.0,9.37875803181921e-07,0.0,25.051324476811235,0.2544612999146886,-0.0007978113459389127,0.0
6917,3.793103448275862,5.172413793103448,0.7142857142857143,0,124377.48893142809,228598.59161977083,190236.56396728902,89559.22022644084,-18714.514594518474,8.29183259542854e-07,0.0,0.0,0.0,8.29183259542854e-07,0.0,25.185748234448777,0.5607625270639056,-0.0006270605575859953,0.0
6918,3.793103448275862,5.172413793103448,1.0714285714285714,0,145900.65393134765,296056.28952654643,229698.27673466117,128771.1258471708,-49874.58269480875,9.726710262089844e-07,0.0,0.0,0.0,9.726710262089844e-07,0.0,25.09275661160563,0.8721225955557925,-0.0016909123060021658,0.0
6919,3.793103448275862,5.172413793103448,1.4285714285714286,0,232340.44774923657,388413.12398299284,190167.5484283652,132746.08530493034,7938.702526688221,1.5489363183282438e-06,0.0,0.0,0.0,1.5489363183282438e-06,0.0,24.85619297462463,1.1921459148179372,0.00027950354149551874,0.0
6920,3.793103448275862,5.172413793103448,1.7857142857142858,0,14889.10427078935,314092.6271957912,298132.52066128067,311648.0662771661,57784.88238848266,9.926069513859567e-08,0.0,0.0,0.0,9.926069513859567e-08,0.0,24.121532461385105,1.520575001310208,0.0022823582999256706,0.0
6921,3.793103448275862,5.172413793103448,2.142857142857143,0,232221.2459703682,641109.4141924138,432466.3018018907,390918.92429628875,214132.69433261635,1.5481416398024547e-06,0.0,0.0,0.0,1.5481416398024547e-06,0.0,24.354806795407068,1.848721875517361,0.01147860351202508,0.0
6922,3.793103448275862,5.172413793103448,2.5,0,283241.31332374766,824904.3310864749,728213.5450526662,505978.4315738428,343614.5518422458,1.8882754221583176e-06,0.0,0.0,0.0,1.8882754221583176e-06,0.0,24.101932621280167,2.162808503772646,0.03436145518422458,0.0
6923,3.793103448275862,5.172413793103448,2.857142857142857,0,576702.2228932853,649964.3645503544,430337.5466007245,-4283.153861081527,277252.9840087629,3.844681485955236e-06,0.0,0.0,0.0,3.844681485955236e-06,0.0,24.51357250826057,2.455864732660218,0.014862172662989136,0.0
6924,3.793103448275862,5.172413793103448,3.2142857142857144,0,107995.03711503657,225994.8403922725,202921.29913132617,320588.3520177968,71628.40897311163,7.199669141002437e-07,0.0,0.0,0.0,7.199669141002437e-07,0.0,24.52412542626087,2.7348607155959224,0.002829142969110479,0.0
6925,3.793103448275862,5.172413793103448,3.5714285714285716,0,213657.22550410565,343957.55831141514,120459.15401990048,141733.18018090355,7011.660031082722,1.4243815033607043e-06,0.0,0.0,0.0,1.4243815033607043e-06,0.0,24.24214076614113,3.013574486246509,0.00024686449755004995,0.0
6926,3.793103448275862,5.172413793103448,3.928571428571429,0,194239.54422370705,350763.1637849791,207828.4001082094,129608.63974749635,1290.49425832775,1.2949302948247137e-06,0.0,0.0,0.0,1.2949302948247137e-06,0.0,24.977431719399725,3.300694024127222,4.375199759733845e-05,0.0
6927,3.793103448275862,5.172413793103448,4.285714285714286,0,120269.83533260429,267209.0388777778,143056.28064980643,151240.1486029461,15512.494859406033,8.017989022173619e-07,0.0,0.0,0.0,8.017989022173619e-07,0.0,24.461776744464043,3.5964768127781914,0.000519771625759301,0.0
6928,3.793103448275862,5.172413793103448,4.642857142857143,0,106966.58715844557,206609.1997414687,217011.80367691375,105223.96343231955,-2484.8782442246657,7.131105810563038e-07,0.0,0.0,0.0,7.131105810563038e-07,0.0,24.531844300981504,3.897318442771832,-8.296022628790159e-05,0.0
6929,3.793103448275862,5.172413793103448,5.0,0,162778.97370787448,233527.45928308446,112878.10322177633,48383.73646004841,-23883.193751162995,1.0851931580524965e-06,0.0,0.0,0.0,1.0851931580524965e-06,0.0,23.933531560788076,4.200169510289304,-0.0007964891777572459,0.0
6930,4.137931034482759,5.172413793103448,0.0,0,197552.66611497357,372491.8679790464,162923.97365911852,189682.0972613149,-1933.5712841566806,1.3170177740998238e-06,0.0,0.0,0.0,1.3170177740998238e-06,0.0,24.783455553593296,-0.049823926005878476,-6.448336090636885e-05,0.0
6931,4.137931034482759,5.172413793103448,0.35714285714285715,0,235922.7652562036,325240.3295275304,119389.33578530175,67787.88533771555,-10787.774019613515,1.5728184350413573e-06,0.0,0.0,0.0,1.5728184350413573e-06,0.0,24.706440454557022,0.254495757131692,-0.0003601609760518178,0.0
6932,4.137931034482759,5.172413793103448,0.7142857142857143,0,223693.1090012319,311375.9700969296,217222.95148649154,55996.76318665334,-1937.140676469243,1.491287393341546e-06,0.0,0.0,0.0,1.491287393341546e-06,0.0,24.45854830674611,0.5609026863722089,-6.490708089565443e-05,0.0
6933,4.137931034482759,5.172413793103448,1.0714285714285714,0,180005.014717259,304666.0872356947,235981.2891607951,100430.76836808147,25330.252553708546,1.2000334314483934e-06,0.0,0.0,0.0,1.2000334314483934e-06,0.0,24.95358195583618,0.8725643432430601,0.0008587788296756356,0.0
6934,4.137931034482759,5.172413793103448,1.4285714285714286,0,166066.1142049485,286794.973522681,253729.7049743373,106683.70281024917,-35573.83420055601,1.10710742803299e-06,0.0,0.0,0.0,1.10710742803299e-06,0.0,24.82718967069347,1.193224705569845,-0.001252473261241812,0.0
6935,4.137931034482759,5.172413793103448,1.7857142857142858,0,247579.27040025627,454437.89605909307,228577.62054657246,189732.1110764763,58271.62804430553,1.6505284693350417e-06,0.0,0.0,0.0,1.6505284693350417e-06,0.0,25.066278296273023,1.5226163196450768,0.002301583535689783,0.0
6936,4.137931034482759,5.172413793103448,2.142857142857143,0,378361.3004342013,690500.0195958067,386381.6203066516,266795.32840643753,176692.33230366325,2.522408669561342e-06,0.0,0.0,0.0,2.522408669561342e-06,0.0,25.093554522993077,1.8517147937319645,0.009471609332941562,0.0
6937,4.137931034482759,5.172413793103448,2.5,0,336176.23080328875,916033.577835474,616399.8910415128,552489.8094599128,400429.7591274088,2.241174872021925e-06,0.0,0.0,0.0,2.241174872021925e-06,0.0,25.139489587040835,2.16620858704553,0.04004297591274088,0.0
6938,4.137931034482759,5.172413793103448,2.857142857142857,0,618506.2228778566,913112.1643736274,254235.05686786448,345009.2738582916,374946.55399983336,4.123374819185711e-06,0.0,0.0,0.0,4.123374819185711e-06,0.0,25.62104351168459,2.458857650874821,0.020099045804182137,0.0
6939,4.137931034482759,5.172413793103448,3.2142857142857144,0,409557.33973574627,579319.9180402219,308568.3390998201,108150.43981548077,71519.6895001092,2.7303822649049753e-06,0.0,0.0,0.0,2.7303822649049753e-06,0.0,24.85572964179309,2.7369020339307912,0.002824848821899061,0.0
6940,4.137931034482759,5.172413793103448,3.5714285714285716,0,215843.25713667276,236675.505870369,331612.97675905935,84573.52924174457,9473.358267127927,1.4389550475778183e-06,0.0,0.0,0.0,1.4389550475778183e-06,0.0,24.323131892538534,3.0146532769984167,0.00033353525675217625,0.0
6941,4.137931034482759,5.172413793103448,3.928571428571429,0,178017.59788608318,297134.33797212323,188840.00000096412,91677.82548895106,-46983.640512845595,1.1867839859072212e-06,0.0,0.0,0.0,1.1867839859072212e-06,0.0,24.585925049613916,3.301135771814489,-0.0015928998626432952,0.0
6942,4.137931034482759,5.172413793103448,4.285714285714286,0,217414.0028170035,316716.6349881289,111048.91992646555,89205.42643916789,-6503.549089611024,1.44942668544669e-06,0.0,0.0,0.0,1.44942668544669e-06,0.0,24.60401186613109,3.5966169720864944,-0.0002179120969353847,0.0
6943,4.137931034482759,5.172413793103448,4.642857142857143,0,200320.85008989432,309220.2315514689,159186.65524013818,81737.42270541498,-57035.452232212854,1.3354723339326289e-06,0.0,0.0,0.0,1.3354723339326289e-06,0.0,24.350463025849646,3.897352899988835,-0.0019041874726113842,0.0
6944,4.137931034482759,5.172413793103448,5.0,0,165969.1211160759,240486.82216526096,157874.07677674864,49423.64699254543,1024.8534859939618,1.106460807440506e-06,0.0,0.0,0.0,1.106460807440506e-06,0.0,23.55843164423306,4.200176073994122,3.417820576618773e-05,0.0
6945,4.482758620689656,5.172413793103448,0.0,0,286929.80734336405,463436.3642567445,330286.59612186963,134121.93467641363,-36510.004147982945,1.9128653822890935e-06,0.0,0.0,0.0,1.9128653822890935e-06,0.0,24.95983469230238,-0.049817479813944424,-0.0012175851976381732,0.0
6946,4.482758620689656,5.172413793103448,0.35714285714285715,0,184941.67822727756,218050.55734804738,302552.9914513693,90454.99545326445,16336.447149059015,1.2329445215151838e-06,0.0,0.0,0.0,1.2329445215151838e-06,0.0,24.865790966463113,0.25452959744604,0.0005454091585276666,0.0
6947,4.482758620689656,5.172413793103448,0.7142857142857143,0,178496.1713971855,230139.40302442503,248596.32427560017,61588.81610250387,4742.954645217562,1.1899744759812367e-06,0.0,0.0,0.0,1.1899744759812367e-06,0.0,25.810645617002788,0.5610403363469968,0.00015892048759342858,0.0
6948,4.482758620689656,5.172413793103448,1.0714285714285714,0,150216.17576795493,316814.1549020726,191103.47964693603,150457.51748787207,-36613.92487086717,1.0014411717863661e-06,0.0,0.0,0.0,1.0014411717863661e-06,0.0,25.78363284066826,0.8729981821279057,-0.0012413324140280403,0.0
6949,4.482758620689656,5.172413793103448,1.4285714285714286,0,260832.53034130114,500650.8086753954,330678.53963046055,200337.76059813565,17843.45098170966,1.7388835356086744e-06,0.0,0.0,0.0,1.7388835356086744e-06,0.0,25.203074521756754,1.1942841822581887,0.0006282270591602693,0.0
6950,4.482758620689656,5.172413793103448,1.7857142857142858,0,218588.27838255948,419594.46295946493,238480.7156483901,176790.4436904336,158552.22393224266,1.4572551892170632e-06,0.0,0.0,0.0,1.4572551892170632e-06,0.0,25.149237496382824,1.524621091363278,0.00626241621174527,0.0
6951,4.482758620689656,5.172413793103448,2.142857142857143,0,132055.9581442284,706827.8167380416,683298.1539448142,564588.6878418132,266423.2734244238,8.80373054294856e-07,0.0,0.0,0.0,8.80373054294856e-07,0.0,24.457814487229534,1.8546541284202558,0.014281644993755605,0.0
6952,4.482758620689656,5.172413793103448,2.5,0,310092.01636421314,1067619.0393377545,777877.3099651026,740554.9906188415,584140.7731166419,2.0672801090947544e-06,0.0,0.0,0.0,2.0672801090947544e-06,0.0,24.97168324112932,2.169547797137641,0.058414077311664196,0.0
6953,4.482758620689656,5.172413793103448,2.857142857142857,0,326599.6768637805,743850.0096184071,499965.39335689996,372794.13423215685,124565.58015298392,2.17733117909187e-06,0.0,0.0,0.0,2.17733117909187e-06,0.0,24.823834518067667,2.4617969855631125,0.006677349810022411,0.0
6954,4.482758620689656,5.172413793103448,3.2142857142857144,0,314527.6209782274,470140.7294437342,467499.51544887153,154300.81882616182,76640.19018251362,2.096850806521516e-06,0.0,0.0,0.0,2.096850806521516e-06,0.0,24.959723905627612,2.7389068056489925,0.0030270957894310067,0.0
6955,4.482758620689656,5.172413793103448,3.5714285714285716,0,209849.19415357654,391529.5381367168,214756.0074990505,159615.69022952337,-15602.167912903577,1.3989946276905103e-06,0.0,0.0,0.0,1.3989946276905103e-06,0.0,24.507105291254668,3.0157127536867603,-0.0005493166133891544,0.0
6956,4.482758620689656,5.172413793103448,3.928571428571429,0,240542.3364784825,319170.3418671635,135289.89280276926,46948.1133039621,-7948.382950183171,1.6036155765232166e-06,0.0,0.0,0.0,1.6036155765232166e-06,0.0,25.105863889588075,3.301569610699335,-0.0002694763107197174,0.0
6957,4.482758620689656,5.172413793103448,4.285714285714286,0,254980.56408644645,354329.42412572115,263110.9975099171,66285.71029005738,17487.620438409238,1.6998704272429763e-06,0.0,0.0,0.0,1.6998704272429763e-06,0.0,24.216370116821743,3.5967546220612827,0.0005859514532197941,0.0
6958,4.482758620689656,5.172413793103448,4.642857142857143,0,303095.96800853504,368490.31915094954,200001.77145456587,18584.846038726115,-7130.30208454928,2.0206397867235668e-06,0.0,0.0,0.0,2.0206397867235668e-06,0.0,26.423522741606565,3.897386740303183,-0.00023805249847155986,0.0
6959,4.482758620689656,5.172413793103448,5.0,0,204512.99489636064,310768.79736862716,240193.08275201957,80314.68667299922,-47357.16859421275,1.3634199659757375e-06,0.0,0.0,0.0,1.3634199659757375e-06,0.0,25.63404447667824,4.200182520186056,-0.0015793311676617384,0.0
6960,4.827586206896552,5.172413793103448,0.0,0,283648.9250114878,330695.5992919537,332517.50824857934,47962.01716505006,47720.19675737714,1.8909928334099186e-06,0.0,0.0,0.0,1.8909928334099186e-06,0.0,25.593947052270153,-0.04981166161124101,0.0015914379238265183,0.0
6961,4.827586206896552,5.172413793103448,0.35714285714285715,0,157308.9311632415,325909.29438291024,173623.69506822398,164017.313943786,-45322.52384898632,1.0487262077549434e-06,0.0,0.0,0.0,1.0487262077549434e-06,0.0,24.297381506478356,0.25456014103059943,-0.0015131392627343438,0.0
6962,4.827586206896552,5.172413793103448,0.7142857142857143,0,230157.34401981736,344194.8050742303,210476.1993026845,78433.75795492383,-26317.063467671065,1.5343822934654492e-06,0.0,0.0,0.0,1.5343822934654492e-06,0.0,24.129449372033356,0.5611645764353513,-0.000881796447816896,0.0
6963,4.827586206896552,5.172413793103448,1.0714285714285714,0,179969.25139089528,326574.84104882693,327509.2377900878,147074.6073011802,4345.384884782827,1.1997950092726353e-06,0.0,0.0,0.0,1.1997950092726353e-06,0.0,25.081924454319463,0.8733897563469919,0.00014732283217198477,0.0
6964,4.827586206896552,5.172413793103448,1.4285714285714286,0,148050.30433583492,375326.7940015195,312965.42990518076,206297.6886219016,9877.301676964475,9.87002028905566e-07,0.0,0.0,0.0,9.87002028905566e-07,0.0,24.797048525189297,1.1952404445282838,0.0003477571794446481,0.0
6965,4.827586206896552,5.172413793103448,1.7857142857142858,0,347029.5114559801,666403.3319635091,301143.5209989934,341055.4013687907,79653.78688417595,2.3135300763732004e-06,0.0,0.0,0.0,2.3135300763732004e-06,0.0,25.87787161540027,1.5264305578436281,0.0031461253203458016,0.0
6966,4.827586206896552,5.172413793103448,2.142857142857143,0,715142.9097722836,1038247.5104501178,405505.58957280405,262357.6411829623,311092.5765890203,4.767619398481891e-06,0.0,0.0,0.0,4.767619398481891e-06,0.0,25.272628243805787,1.8573071125703742,0.016676147252193543,0.0
6967,4.827586206896552,5.172413793103448,2.5,0,192331.74960856987,654754.3066925097,557167.215189447,433191.922354637,648523.0995730883,1.2822116640571325e-06,0.0,0.0,0.0,1.2822116640571325e-06,0.0,24.94285731763622,2.1725617007545295,0.06485230995730884,0.0
6968,4.827586206896552,5.172413793103448,2.857142857142857,0,395889.07437758864,798273.3647044421,440018.09947437735,373243.2454961549,339536.3137296294,2.6392604958505907e-06,0.0,0.0,0.0,2.6392604958505907e-06,0.0,25.70815487067507,2.464449969713231,0.01820087649568853,0.0
6969,4.827586206896552,5.172413793103448,3.2142857142857144,0,96963.43342487807,463650.3598882625,401925.30403586524,351890.2390958074,-7115.746118770119,6.464228894991871e-07,0.0,0.0,0.0,6.464228894991871e-07,0.0,25.064011436583773,2.7407162721293425,-0.0002810541709707771,0.0
6970,4.827586206896552,5.172413793103448,3.5714285714285716,0,124452.42502858983,352026.4496674059,268649.1638796001,208974.21737133805,-92806.70636762796,8.296828335239322e-07,0.0,0.0,0.0,8.296828335239322e-07,0.0,25.092181161445353,3.0166690159568557,-0.0032675116641645973,0.0
6971,4.827586206896552,5.172413793103448,3.928571428571429,0,123151.62960096488,349014.10829544463,244146.84632839088,213403.15528828418,5087.3159980198225,8.210108640064326e-07,0.0,0.0,0.0,8.210108640064326e-07,0.0,25.503478753472216,3.301961184918421,0.0001724767358598627,0.0
6972,4.827586206896552,5.172413793103448,4.285714285714286,0,290460.46968509373,355500.96960430156,166743.7875592687,21027.961488219666,45971.4701014805,1.9364031312339584e-06,0.0,0.0,0.0,1.9364031312339584e-06,0.0,24.648403836616037,3.5968788621496373,0.0015403496323290022,0.0
6973,4.827586206896552,5.172413793103448,4.642857142857143,0,193302.14945904203,305517.74352471845,214340.87331801173,83490.07032516427,-39139.898446438645,1.2886809963936136e-06,0.0,0.0,0.0,1.2886809963936136e-06,0.0,25.501234660471688,3.8974172838877426,-0.001306725928945942,0.0
6974,4.827586206896552,5.172413793103448,5.0,0,100965.75904013045,192894.24103447524,90258.47554969012,189466.95477055458,-32807.17319546974,6.731050602675363e-07,0.0,0.0,0.0,6.731050602675363e-07,0.0,25.279636405672772,4.2001883383887595,-0.001094098162718578,0.0
6975,5.172413793103448,5.172413793103448,0.0,0,86906.19598747048,268959.57152436057,242966.64482794653,172022.87513901715,11826.87455240071,5.793746399164699e-07,0.0,0.0,0.0,5.793746399164699e-07,0.0,24.469968750304652,-0.04981166161124101,0.0003944186730562796,0.0
6976,5.172413793103448,5.172413793103448,0.35714285714285715,0,238092.13924735802,393123.1417571035,311714.4099461153,125004.32916873426,16100.767266592453,1.5872809283157202e-06,0.0,0.0,0.0,1.5872809283157202e-06,0.0,25.91409622120006,0.25456014103059943,0.000537540742267685,0.0
6977,5.172413793103448,5.172413793103448,0.7142857142857143,0,44211.72284717573,151128.05560498685,138800.13408957256,102060.79426972716,37535.79977264857,2.9474481898117153e-07,0.0,0.0,0.0,2.9474481898117153e-07,0.0,24.711069317593104,0.5611645764353513,0.0012576986389894076,0.0
6978,5.172413793103448,5.172413793103448,1.0714285714285714,0,205780.52827226056,426358.4349085421,274486.9853583112,192160.51336918233,56762.99094775975,1.371870188481737e-06,0.0,0.0,0.0,1.371870188481737e-06,0.0,24.127298055490012,0.8733897563469919,0.0019244519900323259,0.0
6979,5.172413793103448,5.172413793103448,1.4285714285714286,0,381593.4134977902,442126.0606849899,231342.62586341996,1635.4161966757115,14485.396408796802,2.5439560899852683e-06,0.0,0.0,0.0,2.5439560899852683e-06,0.0,24.560480169567793,1.1952404445282838,0.0005099976454104742,0.0
6980,5.172413793103448,5.172413793103448,1.7857142857142858,0,351266.03198425757,724525.8437840596,493538.05823704234,320291.0508560538,7264.916062143697,2.3417735465617172e-06,0.0,0.0,0.0,2.3417735465617172e-06,0.0,24.436143857979047,1.5264305578436281,0.0002869460105711289,0.0
6981,5.172413793103448,5.172413793103448,2.142857142857143,0,400610.4648423406,816019.638761796,621799.6859056251,355319.64325231954,244350.00710129822,2.670736432282271e-06,0.0,0.0,0.0,2.670736432282271e-06,0.0,25.056590256135205,1.8573071125703742,0.013098405446295704,0.0
6982,5.172413793103448,5.172413793103448,2.5,0,417071.66799943545,587632.8442219071,780826.4543620112,302187.8348284028,522560.7095176754,2.780477786662903e-06,0.0,0.0,0.0,2.780477786662903e-06,0.0,25.77473725669517,2.1725617007545295,0.05225607095176754,0.0
6983,5.172413793103448,5.172413793103448,2.857142857142857,0,436314.15336506674,922908.7606469322,605854.0512889634,425298.4163000415,408127.7597085014,2.908761022433778e-06,0.0,0.0,0.0,2.908761022433778e-06,0.0,25.092562814536805,2.464449969713231,0.021877727502312386,0.0
6984,5.172413793103448,5.172413793103448,3.2142857142857144,0,473975.6890971491,719762.7631756759,553855.8664188827,185135.61613693507,31733.44930682821,3.1598379273143274e-06,0.0,0.0,0.0,3.1598379273143274e-06,0.0,25.765879453763617,2.7407162721293425,0.0012533918633560392,0.0
6985,5.172413793103448,5.172413793103448,3.5714285714285716,0,270362.3771550482,474436.65939739544,308090.84954327595,162478.66177653417,43533.19461371496,1.8024158477003212e-06,0.0,0.0,0.0,1.8024158477003212e-06,0.0,25.5109884467718,3.0166690159568557,0.0015327041196268312,0.0
6986,5.172413793103448,5.172413793103448,3.928571428571429,0,144280.7353364195,298871.8938392396,192566.4969173082,134627.78019163184,-52315.224344949966,9.618715689094633e-07,0.0,0.0,0.0,9.618715689094633e-07,0.0,23.64917301956464,3.301961184918421,-0.0017736580810599444,0.0
6987,5.172413793103448,5.172413793103448,4.285714285714286,0,137314.48909407013,340220.083186725,240694.44511006732,183563.60465803577,9607.817553156332,9.154299272938009e-07,0.0,0.0,0.0,9.154299272938009e-07,0.0,25.436887237605923,3.5968788621496373,0.00032192571181255045,0.0
6988,5.172413793103448,5.172413793103448,4.642857142857143,0,133810.87338894443,297828.46417101665,208753.56405516874,143953.9368514158,-25037.830723821615,8.920724892596295e-07,0.0,0.0,0.0,8.920724892596295e-07,0.0,24.70139578206817,3.8974172838877426,-0.0008359138349873269,0.0
6989,5.172413793103448,5.172413793103448,5.0,0,257090.77808147794,278676.82842616085,244126.05626138084,6057.847786059587,17401.218687700668,1.7139385205431863e-06,0.0,0.0,0.0,1.7139385205431863e-06,0.0,25.25297456150877,4.2001883383887595,0.0005803194710450238,0.0
6990,5.517241379310345,5.172413793103448,0.0,0,328582.6560931606,422147.6487689099,218342.08768236963,43091.42365406921,-9082.998952232234,2.190551040621071e-06,0.0,0.0,0.0,2.190551040621071e-06,0.0,24.815284718889203,-0.049817479813944424,-0.00030291218345457224,0.0
6991,5.517241379310345,5.172413793103448,0.35714285714285715,0,180267.96533498427,269591.2324747008,200161.35194738483,64931.718618688676,28272.12201476085,1.2017864355665618e-06,0.0,0.0,0.0,1.2017864355665618e-06,0.0,26.242026376384263,0.25452959744604,0.0009438939897498107,0.0
6992,5.517241379310345,5.172413793103448,0.7142857142857143,0,105870.01744006392,292053.8047450986,263112.0860176333,174722.6358320327,-15461.73707978689,7.058001162670929e-07,0.0,0.0,0.0,7.058001162670929e-07,0.0,25.071726731160005,0.5610403363469968,-0.0005180709029631496,0.0
6993,5.517241379310345,5.172413793103448,1.0714285714285714,0,88341.93003051054,285487.2727389889,260559.38463786265,187359.7606000668,-716.805340302679,5.889462002034036e-07,0.0,0.0,0.0,5.889462002034036e-07,0.0,25.150328933058447,0.8729981821279057,-2.4302057389485253e-05,0.0
6994,5.517241379310345,5.172413793103448,1.4285714285714286,0,83775.18593198844,298877.11746980954,388649.05040510517,312553.60107191117,39758.62857835499,5.585012395465896e-07,0.0,0.0,0.0,5.585012395465896e-07,0.0,25.402289261543906,1.1942841822581887,0.0013998102908248185,0.0
6995,5.517241379310345,5.172413793103448,1.7857142857142858,0,439565.6650289066,627784.0790237141,376328.34675513586,120224.46341819548,58032.74943189106,2.9304377668593775e-06,0.0,0.0,0.0,2.9304377668593775e-06,0.0,24.123340408902887,1.524621091363278,0.002292148428077146,0.0
6996,5.517241379310345,5.172413793103448,2.142857142857143,0,732927.9688154955,1113582.772850937,274558.81650318985,598088.9840151563,346095.23713131633,4.88618645876997e-06,0.0,0.0,0.0,4.88618645876997e-06,0.0,25.41436079072774,1.8546541284202556,0.018552468210481798,0.0
6997,5.517241379310345,5.172413793103448,2.5,0,887806.499241148,1023952.2315386882,666908.4739361876,13210.311845224296,694363.7996871514,5.918709994940987e-06,0.0,0.0,0.0,5.918709994940987e-06,0.0,24.769564550753763,2.169547797137641,0.06943637996871516,0.0
6998,5.517241379310345,5.172413793103448,2.857142857142857,0,280788.444114992,631524.3249367393,338614.5254164775,364674.08740446705,333890.0846955518,1.8719229607666132e-06,0.0,0.0,0.0,1.8719229607666132e-06,0.0,24.536376496015805,2.4617969855631125,0.017898209849559334,0.0
6999,5.517241379310345,5.172413793103448,3.2142857142857144,0,380070.64745095704,712384.1953887613,477652.28071777767,273880.58340971917,-32414.057996673087,2.5338043163397138e-06,0.0,0.0,0.0,2.5338043163397138e-06,0.0,25.296852052081167,2.7389068056489925,-0.0012802742039970682,0.0
7000,5.517241379310345,5.172413793103448,3.5714285714285716,0,397317.5448962652,569328.8292475439,155503.87869339902,190885.26580701247,-18961.74941160743,2.648783632641768e-06,0.0,0.0,0.0,2.648783632641768e-06,0.0,24.147409825440036,3.0157127536867603,-0.0006675997867003827,0.0
7001,5.517241379310345,5.172413793103448,3.928571428571429,0,173106.35728910554,319032.4904918794,184045.89662708694,123868.6192618415,-70238.00504834212,1.1540423819273702e-06,0.0,0.0,0.0,1.1540423819273702e-06,0.0,25.36577575900699,3.301569610699335,-0.002381299264437672,0.0
7002,5.517241379310345,5.172413793103448,4.285714285714286,0,148614.84288889382,321589.4776814917,223167.6066075668,150636.09680346763,-8883.638513361011,9.90765619259292e-07,0.0,0.0,0.0,9.90765619259292e-07,0.0,24.822298544619738,3.5967546220612827,-0.0002976609033296655,0.0
7003,5.517241379310345,5.172413793103448,4.642857142857143,0,321418.4623793797,391054.9329798815,357611.15448991634,54222.182909215066,16707.845186882463,2.142789749195865e-06,0.0,0.0,0.0,2.142789749195865e-06,0.0,24.855705708590282,3.897386740303183,0.0005578086655587766,0.0
7004,5.517241379310345,5.172413793103448,5.0,0,283100.2139969233,469391.44266756333,172045.6555787325,203096.93826656885,4416.0759840185665,1.8873347599794887e-06,0.0,0.0,0.0,1.8873347599794887e-06,0.0,23.788408881438,4.200182520186056,0.0001472732987920927,0.0
7005,5.862068965517242,5.172413793103448,0.0,0,145319.90869944516,336085.11420046765,263487.3503070792,168770.7775445104,52310.95401096315,9.687993913296345e-07,0.0,0.0,0.0,9.687993913296345e-07,0.0,25.19902699852106,-0.049823926005878476,0.0017445367308072128,0.0
7006,5.862068965517242,5.172413793103448,0.35714285714285715,0,116534.98130162286,275180.2209285395,306125.01228025183,177240.9029980894,48120.0354813985,7.768998753441523e-07,0.0,0.0,0.0,7.768998753441523e-07,0.0,24.877364882562706,0.254495757131692,0.001606537077539699,0.0
7007,5.862068965517242,5.172413793103448,0.7142857142857143,0,273255.3546083219,423880.2998422826,375153.2658890192,129539.47651619512,9667.575244088113,1.8217023640554793e-06,0.0,0.0,0.0,1.8217023640554793e-06,0.0,24.52469763889727,0.5609026863722089,0.00032392799142319604,0.0
7008,5.862068965517242,5.172413793103448,1.0714285714285714,0,280338.8219653376,449707.1387773466,331735.1708601299,129662.1266465303,-92506.12977664192,1.8689254797689175e-06,0.0,0.0,0.0,1.8689254797689175e-06,0.0,24.29930229157063,0.8725643432430601,-0.0031362618947032976,0.0
7009,5.862068965517242,5.172413793103448,1.4285714285714286,0,207555.64753594084,451148.3151736912,413998.9933970892,227526.60421463798,35914.498519325716,1.3837043169062723e-06,0.0,0.0,0.0,1.3837043169062723e-06,0.0,25.158546805442054,1.193224705569845,0.001264467272005812,0.0
7010,5.862068965517242,5.172413793103448,1.7857142857142858,0,105325.65100353118,573418.8853980614,563406.3864393526,463444.5209610255,18180.42437542427,7.021710066902079e-07,0.0,0.0,0.0,7.021710066902079e-07,0.0,24.946582492324946,1.5226163196450768,0.000718081282755902,0.0
7011,5.862068965517242,5.172413793103448,2.142857142857143,0,913121.6626526788,1146518.1352432393,438165.85117100045,115977.4819834572,444963.86009706435,6.087477751017859e-06,0.0,0.0,0.0,6.087477751017859e-06,0.0,24.77981768381813,1.8517147937319645,0.023852330178504754,0.0
7012,5.862068965517242,5.172413793103448,2.5,0,986363.9807016692,1244067.8481548321,868612.0797345542,125110.3322771883,684441.0652444216,6.575759871344462e-06,0.0,0.0,0.0,6.575759871344462e-06,0.0,24.28783418059369,2.1662085870455297,0.06844410652444216,0.0
7013,5.862068965517242,5.172413793103448,2.857142857142857,0,387589.37538410095,809352.5014090016,831749.0217813536,433447.00183941703,423432.643659398,2.5839291692273396e-06,0.0,0.0,0.0,2.5839291692273396e-06,0.0,24.93808899696108,2.458857650874821,0.022698147266876748,0.0
7014,5.862068965517242,5.172413793103448,3.2142857142857144,0,392391.04003672587,651808.449541925,328350.86106003675,215303.1649652637,100373.03493041066,2.6159402669115057e-06,0.0,0.0,0.0,2.6159402669115057e-06,0.0,24.913050618683318,2.7369020339307912,0.00396448378698807,0.0
7015,5.862068965517242,5.172413793103448,3.5714285714285716,0,118995.42352853846,328781.01913301816,263169.5600809744,191422.60838105768,113364.5181023116,7.933028235235898e-07,0.0,0.0,0.0,7.933028235235898e-07,0.0,25.454110484593244,3.0146532769984167,0.003991305151315105,0.0
7016,5.862068965517242,5.172413793103448,3.928571428571429,0,264208.3452530498,440930.42128760216,209132.51258558806,153251.52968435283,20456.908238301177,1.7613889683536653e-06,0.0,0.0,0.0,1.7613889683536653e-06,0.0,24.202176087054106,3.301135771814489,0.0006935564372451575,0.0
7017,5.862068965517242,5.172413793103448,4.285714285714286,0,144955.1628721845,356614.5576455397,321602.9279705711,197360.23811072647,-48173.194921916314,9.6636775248123e-07,0.0,0.0,0.0,9.6636775248123e-07,0.0,24.447719103397745,3.5966169720864944,-0.0016141220396538383,0.0
7018,5.862068965517242,5.172413793103448,4.642857142857143,0,186507.28003986034,342463.50466278184,257410.51188891134,128590.99337318583,40190.908764103675,1.2433818669324023e-06,0.0,0.0,0.0,1.2433818669324023e-06,0.0,25.78217661794089,3.897352899988835,0.0013418149937671506,0.0
7019,5.862068965517242,5.172413793103448,5.0,0,272184.85846317845,372614.98797254486,238488.1286579584,59396.9597711165,-16145.101933663538,1.8145657230878564e-06,0.0,0.0,0.0,1.8145657230878564e-06,0.0,24.910876390069557,4.200176073994122,-0.0005384287837686869,0.0
7020,6.206896551724139,5.172413793103448,0.0,0,271335.7187507928,397706.0887717418,175037.60359111885,95486.71959862302,53071.309206266575,1.808904791671952e-06,0.0,0.0,0.0,1.808904791671952e-06,0.0,24.778036215397822,-0.04983048971069613,0.0017698940883960062,0.0
7021,6.206896551724139,5.172413793103448,0.35714285714285715,0,279289.0806256441,465232.2443109082,270903.7866001512,145178.51716201106,60882.8665673197,1.8619272041709608e-06,0.0,0.0,0.0,1.8619272041709608e-06,0.0,25.1393857903103,0.2544612999146886,0.0020326373733683414,0.0
7022,6.206896551724139,5.172413793103448,0.7142857142857143,0,332796.284418954,442661.70292433683,232166.93151093266,58985.995510278,24622.118955493996,2.21864189612636e-06,0.0,0.0,0.0,2.21864189612636e-06,0.0,25.56732971979376,0.5607625270639056,0.000825004547310196,0.0
7023,6.206896551724139,5.172413793103448,1.0714285714285714,0,205356.29512274518,395083.614197596,305337.9630401182,160130.55156018693,-51845.82671182292,1.3690419674849679e-06,0.0,0.0,0.0,1.3690419674849679e-06,0.0,24.08494935961139,0.8721225955557925,-0.0017577439582467337,0.0
7024,6.206896551724139,5.172413793103448,1.4285714285714286,0,337837.25409565156,546343.8554752426,223425.4913229936,195340.99024186685,-15859.436520259384,2.252248360637677e-06,0.0,0.0,0.0,2.252248360637677e-06,0.0,25.76152805880753,1.1921459148179372,-0.0005583744520762484,0.0
7025,6.206896551724139,5.172413793103448,1.7857142857142858,0,442494.0015658688,733347.0019667799,499409.87724964734,222988.03850380733,162544.4488143589,2.9499600104391253e-06,0.0,0.0,0.0,2.9499600104391253e-06,0.0,24.65352253699034,1.520575001310208,0.006420099107655843,0.0
7026,6.206896551724139,5.172413793103448,2.142857142857143,0,417229.8433000223,920080.8178727884,615824.6500730944,444453.3052144898,580468.5450765559,2.7815322886668155e-06,0.0,0.0,0.0,2.7815322886668155e-06,0.0,24.812005481604018,1.848721875517361,0.03111607174655043,0.0
7027,6.206896551724139,5.172413793103448,2.5,0,924740.435567395,1154045.5090941146,532772.0241544272,91305.50519234003,690248.1111170619,6.1649362371159665e-06,0.0,0.0,0.0,6.1649362371159665e-06,0.0,24.714848002283905,2.162808503772646,0.06902481111170619,0.0
7028,6.206896551724139,5.172413793103448,2.857142857142857,0,681090.9856162324,976084.903475311,437108.9606095475,210599.32071082038,351745.7742606722,4.540606570774883e-06,0.0,0.0,0.0,4.540606570774883e-06,0.0,25.438457472841026,2.455864732660218,0.018855365792469457,0.0
7029,6.206896551724139,5.172413793103448,3.2142857142857144,0,558862.0461267956,747539.9582345501,315429.1819897492,116409.88479531986,-8606.168201980137,3.7257469741786372e-06,0.0,0.0,0.0,3.7257469741786372e-06,0.0,25.17351438732586,2.7348607155959224,-0.0003399221148239413,0.0
7030,6.206896551724139,5.172413793103448,3.5714285714285716,0,150454.3299712705,439164.5495978102,312203.72002898145,272984.4939985417,-49355.27961266384,1.0030288664751366e-06,0.0,0.0,0.0,1.0030288664751366e-06,0.0,24.626540757957002,3.0135744862465086,-0.0017376864036491302,0.0
7031,6.206896551724139,5.172413793103448,3.928571428571429,0,71549.06568215472,375996.63213217893,295358.5563985822,351246.6133891509,9755.21181469526,4.769937712143648e-07,0.0,0.0,0.0,4.769937712143648e-07,0.0,24.140295882544912,3.300694024127222,0.00033073374881275664,0.0
7032,6.206896551724139,5.172413793103448,4.285714285714286,0,401666.4026268107,551735.2939604941,298467.0950117771,88608.52955847625,27745.586795260042,2.6777760175120714e-06,0.0,0.0,0.0,2.6777760175120714e-06,0.0,24.58704156978519,3.5964768127781914,0.0009296614688303139,0.0
7033,6.206896551724139,5.172413793103448,4.642857142857143,0,285370.52981901244,468768.32123983727,300494.8948922575,139275.98905943462,-58691.52692778088,1.9024701987934163e-06,0.0,0.0,0.0,1.9024701987934163e-06,0.0,24.044521236798257,3.897318442771832,-0.0019594772365317324,0.0
7034,6.206896551724139,5.172413793103448,5.0,0,200426.85686802442,334510.3174389607,216316.55374523063,103095.12367508387,32719.465973901173,1.3361790457868296e-06,0.0,0.0,0.0,1.3361790457868296e-06,0.0,25.16351691003105,4.200169510289304,0.0010911731831903639,0.0
7035,6.551724137931035,5.172413793103448,0.0,0,245261.9433205545,459183.38302030053,375725.19091205375,183083.92094501798,56554.80387368276,1.63507962213703e-06,0.0,0.0,0.0,1.63507962213703e-06,0.0,24.214700591787587,-0.0498370942513687,0.0018860663990291667,0.0
7036,6.551724137931035,5.172413793103448,0.35714285714285715,0,266572.0443426848,421962.2028355155,252086.16766517475,114724.26547721033,25993.316026840537,1.7771469622845654e-06,0.0,0.0,0.0,1.7771469622845654e-06,0.0,24.50743141827594,0.25442662832334123,0.000867813698547019,0.0
7037,6.551724137931035,5.172413793103448,0.7142857142857143,0,222858.56982478953,445904.20981384505,326694.18320430076,188795.60334893723,68355.12483296024,1.4857237988319303e-06,0.0,0.0,0.0,1.4857237988319303e-06,0.0,25.14997391571514,0.5606214957594755,0.0022903507582382595,0.0
7038,6.551724137931035,5.172413793103448,1.0714285714285714,0,188687.52484137847,437736.1515927461,284236.46991717105,227078.25339884326,15417.259879877562,1.2579168322758565e-06,0.0,0.0,0.0,1.2579168322758565e-06,0.0,24.97165927497383,0.8716780995510784,0.0005226957910653734,0.0
7039,6.551724137931035,5.172413793103448,1.4285714285714286,0,465847.7823242126,612893.5997121081,383760.9994418243,76856.25084832493,24312.51623999379,3.1056518821614173e-06,0.0,0.0,0.0,3.1056518821614173e-06,0.0,24.7644587512323,1.1910604124079263,0.0008559880369494612,0.0
7040,6.551724137931035,5.172413793103448,1.7857142857142858,0,384837.8259818809,758240.53450435,466050.6139058152,322199.13081953797,99264.07922386285,2.5655855065458727e-06,0.0,0.0,0.0,2.5655855065458727e-06,0.0,24.179777168729466,1.5185209829862827,0.003920682810738376,0.0
7041,6.551724137931035,5.172413793103448,2.142857142857143,0,904899.6707842395,1037725.4166860721,818265.7864379981,43280.1008478455,539155.4530356815,6.03266447189493e-06,0.0,0.0,0.0,6.03266447189493e-06,0.0,24.82493020522494,1.8457103369690635,0.02890147950564589,0.0
7042,6.551724137931035,5.172413793103448,2.5,0,925850.9666641261,1494066.8914798107,863626.2937822194,431111.00965135987,779852.5339812865,6.172339777760841e-06,0.0,0.0,0.0,6.172339777760841e-06,0.0,24.189408090614403,2.1593872670032117,0.07798525339812865,0.0
7043,6.551724137931035,5.172413793103448,2.857142857142857,0,672066.4558051019,1099799.6051358748,906574.0006461616,352286.4876770681,340645.7325176791,4.480443038700679e-06,0.0,0.0,0.0,4.480443038700679e-06,0.0,24.83897784305544,2.4528531941119205,0.018260346995681555,0.0
7044,6.551724137931035,5.172413793103448,3.2142857142857144,0,425647.5122052016,726447.5224710796,380326.61411210126,251185.0791451852,104737.02284373197,2.837650081368011e-06,0.0,0.0,0.0,2.837650081368011e-06,0.0,23.943010162526377,2.732806697271997,0.004136850392630403,0.0
7045,6.551724137931035,5.172413793103448,3.5714285714285716,0,356982.46264011227,526190.3842162592,171314.0140348122,167138.46052702115,27683.163900075273,2.379883084267415e-06,0.0,0.0,0.0,2.379883084267415e-06,0.0,25.20485557640302,3.012488983836498,0.0009746608244684785,0.0
7046,6.551724137931035,5.172413793103448,3.928571428571429,0,257570.9386888871,418057.6233179898,215286.9995962183,128242.366719843,-8773.097661100299,1.7171395912592473e-06,0.0,0.0,0.0,1.7171395912592473e-06,0.0,24.705780410369645,3.300249528122508,-0.0002974368505033604,0.0
7047,6.551724137931035,5.172413793103448,4.285714285714286,0,254610.1434656602,414284.3741035389,377868.98230681435,143427.18862361755,42291.76556477389,1.6974009564377347e-06,0.0,0.0,0.0,1.6974009564377347e-06,0.0,24.604354559891963,3.5963357814737615,0.001417055086436008,0.0
7048,6.551724137931035,5.172413793103448,4.642857142857143,0,155306.89640464596,363837.574457417,275801.71573046106,184514.44284916567,3771.1506844600044,1.0353793093643064e-06,0.0,0.0,0.0,1.0353793093643064e-06,0.0,24.811068022795997,3.8972837711804846,0.00012590376002353967,0.0
7049,6.551724137931035,5.172413793103448,5.0,0,144181.0277823446,350208.9525094869,296074.81369526254,186795.66924403192,29066.55106529824,9.612068518822974e-07,0.0,0.0,0.0,9.612068518822974e-07,0.0,24.562477147217802,4.200162905748631,0.0009693508162873337,0.0
7050,6.8965517241379315,5.172413793103448,0.0,0,149096.2135558839,342010.30907327536,209095.64294448076,180790.38031519184,21785.12290980697,9.93974757039226e-07,0.0,0.0,0.0,9.93974757039226e-07,0.0,24.48989689427417,-0.04984371762579406,0.0007265198622327366,0.0
7051,6.8965517241379315,5.172413793103448,0.35714285714285715,0,184715.59518760286,308445.55496089224,304815.4387623537,121941.65638175204,-31022.75846573762,1.2314373012506856e-06,0.0,0.0,0.0,1.2314373012506856e-06,0.0,25.106277688780043,0.25439185786119994,-0.0010357268282154975,0.0
7052,6.8965517241379315,5.172413793103448,0.7142857142857143,0,123464.91318928283,353363.1513423503,212448.2243892965,264175.43666092015,-41998.03789094095,8.230994212618856e-07,0.0,0.0,0.0,8.230994212618856e-07,0.0,24.993929148610714,0.5604800622849546,-0.0014072132581587164,0.0
7053,6.8965517241379315,5.172413793103448,1.0714285714285714,0,169379.1874855625,426386.7405401237,231867.7963713254,311489.3994557215,-31316.087216494358,1.1291945832370833e-06,0.0,0.0,0.0,1.1291945832370833e-06,0.0,24.826591219889277,0.8712323360050952,-0.0010617183019702551,0.0
7054,6.8965517241379315,5.172413793103448,1.4285714285714286,0,390998.25316456746,523988.18617576273,318053.0196423774,73065.62828391352,2286.773074447058,2.6066550210971163e-06,0.0,0.0,0.0,2.6066550210971163e-06,0.0,24.600826268272208,1.1899718145390408,8.051204472718622e-05,0.0
7055,6.8965517241379315,5.172413793103448,1.7857142857142858,0,334792.73634975444,695532.4142816846,580273.8651230567,318336.5950720819,194515.22374616127,2.2319515756650295e-06,0.0,0.0,0.0,2.2319515756650295e-06,0.0,24.32133875191499,1.516461107347633,0.007682864739505573,0.0
7056,6.8965517241379315,5.172413793103448,2.142857142857143,0,476678.28374684363,576256.3596892046,882995.8849618646,333829.03552162217,405796.5917136615,3.1778552249789574e-06,0.0,0.0,0.0,3.1778552249789574e-06,0.0,25.02075010179099,1.8426902106059078,0.0217527650195113,0.0
7057,6.8965517241379315,5.172413793103448,2.5,0,828366.2763731855,1685817.1480373,1045924.9392075954,750164.8160742297,787672.895701369,5.522441842487903e-06,0.0,0.0,0.0,5.522441842487903e-06,0.0,24.03376943196769,2.155956274108298,0.0787672895701369,0.0
7058,6.8965517241379315,5.172413793103448,2.857142857142857,0,901625.8494521106,1326391.6757604615,416652.8540891796,433103.93768661,506088.3362356415,6.010838996347404e-06,0.0,0.0,0.0,6.010838996347404e-06,0.0,25.385764723183435,2.4498330677487647,0.02712891355434889,0.0
7059,6.8965517241379315,5.172413793103448,3.2142857142857144,0,433790.8000397254,801002.3355231985,513825.42939863715,301996.4846866267,51077.112197521834,2.8919386669315025e-06,0.0,0.0,0.0,2.8919386669315025e-06,0.0,24.85430332266268,2.730746821633348,0.0020174181575124905,0.0
7060,6.8965517241379315,5.172413793103448,3.5714285714285716,0,417810.55999027885,709261.2408124428,339174.48847790627,256183.33170352742,-14835.845278436067,2.785403733268526e-06,0.0,0.0,0.0,2.785403733268526e-06,0.0,25.094159085228572,3.0114003859676126,-0.0005223361478103291,0.0
7061,6.8965517241379315,5.172413793103448,3.928571428571429,0,194344.0163821678,355427.58262348134,173870.23516994034,150424.1572323804,46740.26902073126,1.2956267758811188e-06,0.0,0.0,0.0,1.2956267758811188e-06,0.0,24.741888695469488,3.2998037645765246,0.001584648769025843,0.0
7062,6.8965517241379315,5.172413793103448,4.285714285714286,0,282487.88655080664,590695.6224505492,301537.34897540876,315387.66062609025,24369.659858183106,1.8832525770053777e-06,0.0,0.0,0.0,1.8832525770053777e-06,0.0,24.451543592629427,3.5961943479992406,0.0008165454904894655,0.0
7063,6.8965517241379315,5.172413793103448,4.642857142857143,0,112924.37295536128,344929.6059774319,277802.56023640995,214555.01036767484,-24107.351385951326,7.528291530357418e-07,0.0,0.0,0.0,7.528291530357418e-07,0.0,24.99162313446167,3.897249000718343,-0.0008048488213974873,0.0
7064,6.8965517241379315,5.172413793103448,5.0,0,170891.95547594075,447765.561320906,342873.2396895368,250570.44163685176,-17622.00757843059,1.1392797031729383e-06,0.0,0.0,0.0,1.1392797031729383e-06,0.0,23.818505265325875,4.2001562823742065,-0.000587682638796692,0.0
7065,7.241379310344828,5.172413793103448,0.0,0,165251.02951146246,327796.71963406913,315048.25371930096,156540.67986582665,3752.7263597477463,1.1016735300764164e-06,0.0,0.0,0.0,1.1016735300764164e-06,0.0,24.06340098446212,-0.049850351211370436,0.0001251510147162741,0.0
7066,7.241379310344828,5.172413793103448,0.35714285714285715,0,243022.35698485977,441238.2949390602,259627.5571996132,165168.19400255347,14501.574270609208,1.6201490465657318e-06,0.0,0.0,0.0,1.6201490465657318e-06,0.0,24.266910952958213,0.25435703379399005,0.00048415003262903503,0.0
7067,7.241379310344828,5.172413793103448,0.7142857142857143,0,198912.05426845638,475436.8087602587,390661.9627444122,248182.0699673664,54909.106058108504,1.3260803617897093e-06,0.0,0.0,0.0,1.3260803617897093e-06,0.0,23.676719010802724,0.560338410764695,0.0018398198087077875,0.0
7068,7.241379310344828,5.172413793103448,1.0714285714285714,0,282697.06091984856,440636.7545870504,116292.15852059933,246557.31778224913,24481.469803566757,1.8846470727989905e-06,0.0,0.0,0.0,1.8846470727989905e-06,0.0,24.69043641646813,0.8707858852325415,0.0008300023042434438,0.0
7069,7.241379310344828,5.172413793103448,1.4285714285714286,0,454699.45551391575,603859.1039753455,363098.4040774633,79402.88381987634,-45327.74664609724,3.031329703426105e-06,0.0,0.0,0.0,3.031329703426105e-06,0.0,25.009595497733194,1.1888815383961318,-0.0015958861883291933,0.0
7070,7.241379310344828,5.172413793103448,1.7857142857142858,0,482153.2345805739,771934.2598334238,262924.55524694704,322099.9881121312,20217.123973542257,3.214354897203826e-06,0.0,0.0,0.0,3.214354897203826e-06,0.0,23.526968993937643,1.5143980560314678,0.000798525821882391,0.0
7071,7.241379310344828,5.172413793103448,2.142857142857143,0,437214.8179211745,1004311.0054600745,580438.4774540702,554875.5688033658,457716.27946541295,2.91476545280783e-06,0.0,0.0,0.0,2.91476545280783e-06,0.0,24.178375118366287,1.839665428161964,0.024535924835568046,0.0
7072,7.241379310344828,5.172413793103448,2.5,0,629606.8959922623,1169975.6675736012,1062200.723003026,493438.0009792471,780229.930313979,4.197379306615082e-06,0.0,0.0,0.0,4.197379306615082e-06,0.0,24.30606699409472,2.152519991706198,0.0780229930313979,0.0
7073,7.241379310344828,5.172413793103448,2.857142857142857,0,787520.4785110063,1303373.202204311,499241.8526435006,533587.4116234012,328330.90810224635,5.250136523406709e-06,0.0,0.0,0.0,5.250136523406709e-06,0.0,24.557060252564035,2.446808285304821,0.017600209657824186,0.0
7074,7.241379310344828,5.172413793103448,3.2142857142857144,0,356734.7444713386,657975.273947978,314326.1045250171,289456.4743261118,159432.5227172688,2.378231629808924e-06,0.0,0.0,0.0,2.378231629808924e-06,0.0,24.827806376076534,2.7286837703171822,0.006297185811602052,0.0
7075,7.241379310344828,5.172413793103448,3.5714285714285716,0,649473.5092726666,625156.9048098368,621620.9679105616,-26077.353842483895,-112141.79398509968,4.329823395151111e-06,0.0,0.0,0.0,4.329823395151111e-06,0.0,24.265634025373956,3.0103101098247036,-0.003948255834391614,0.0
7076,7.241379310344828,5.172413793103448,3.928571428571429,0,451925.1730264047,565898.9242200635,194678.15049106188,62668.143049754886,15552.399260442684,3.012834486842698e-06,0.0,0.0,0.0,3.012834486842698e-06,0.0,24.8802269389502,3.299357313803971,0.0005272774603100337,0.0
7077,7.241379310344828,5.172413793103448,4.285714285714286,0,178400.64990821542,294052.56056269753,454636.3768233226,262601.81634372135,-68268.92229595676,1.1893376660547694e-06,0.0,0.0,0.0,1.1893376660547694e-06,0.0,24.458723481212786,3.596052696478981,-0.002287462400613715,0.0
7078,7.241379310344828,5.172413793103448,4.642857142857143,0,337935.920695742,539630.5199401643,292809.8533682435,154475.3578395292,38745.97846448622,2.2529061379716135e-06,0.0,0.0,0.0,2.2529061379716135e-06,0.0,24.11784431720506,3.8972141766511332,0.00129357450355194,0.0
7079,7.241379310344828,5.172413793103448,5.0,0,398455.73216967745,621117.11208729,261730.72392182678,192630.75391054447,-11655.80622863347,2.6563715477978495e-06,0.0,0.0,0.0,2.6563715477978495e-06,0.0,24.539303556258066,4.20014964878863,-0.00038871365429047727,0.0
7080,7.586206896551724,5.172413793103448,0.0,0,256515.4476778796,472043.83684777404,365517.9125412964,179428.9465941522,33602.38755494921,1.7101029845191973e-06,0.0,0.0,0.0,1.7101029845191973e-06,0.0,23.62781094200767,-0.04985699094702338,0.001120618051051842,0.0
7081,7.586206896551724,5.172413793103448,0.35714285714285715,0,368279.97754525195,503338.6279283755,434793.35999712086,105601.68822708775,-17574.46593962661,2.4551998503016796e-06,0.0,0.0,0.0,2.4551998503016796e-06,0.0,24.136893494653982,0.25432217744097074,-0.000586741694338172,0.0
7082,7.586206896551724,5.172413793103448,0.7142857142857143,0,374700.93800323305,544438.8376615602,212286.05321244182,138244.37286118293,59786.45596368035,2.498006253354887e-06,0.0,0.0,0.0,2.498006253354887e-06,0.0,24.181166258341012,0.5601966279176162,0.0020032434302975077,0.0
7083,7.586206896551724,5.172413793103448,1.0714285714285714,0,199110.4650978413,438966.2914284298,277784.87660586764,216388.2925142591,-86380.24406996214,1.3274031006522755e-06,0.0,0.0,0.0,1.3274031006522755e-06,0.0,23.971239446713238,0.8703390205501345,-0.002928574231631066,0.0
7084,7.586206896551724,5.172413793103448,1.4285714285714286,0,263797.6018678129,559551.5480598845,469348.93219586206,262484.38764052757,54267.16666952097,1.7586506791187529e-06,0.0,0.0,0.0,1.7586506791187529e-06,0.0,25.544683341683125,1.1877902514451644,0.0019106227018920994,0.0
7085,7.586206896551724,5.172413793103448,1.7857142857142858,0,71164.72089008635,570086.0394562451,585892.4519680995,647825.020870702,34454.39837519196,4.744314726005757e-07,0.0,0.0,0.0,4.744314726005757e-07,0.0,24.933892952348607,1.5123330920357407,0.0013608625448416319,0.0
7086,7.586206896551724,5.172413793103448,2.142857142857143,0,774590.6467419874,1177569.7501305777,1054575.6217093265,348840.6458560657,475130.1033959184,5.163937644946583e-06,0.0,0.0,0.0,5.163937644946583e-06,0.0,24.387756567352994,1.8366378414060216,0.02546939452897226,0.0
7087,7.586206896551724,5.172413793103448,2.5,0,453499.41845318215,1482480.2053009071,1082612.3584291162,989730.6379592209,834126.1828746842,3.0233294563545477e-06,0.0,0.0,0.0,3.0233294563545477e-06,0.0,24.50641697558349,2.1490805234855643,0.08341261828746842,0.0
7088,7.586206896551724,5.172413793103448,2.857142857142857,0,979980.3360608972,1264084.076125696,1216432.7657803136,261147.35803276332,272607.5066191821,6.533202240405981e-06,0.0,0.0,0.0,6.533202240405981e-06,0.0,24.555789944566623,2.4437806985488786,0.014613151404253902,0.0
7089,7.586206896551724,5.172413793103448,3.2142857142857144,0,487970.51445255656,938144.6407873936,568970.5728654198,384914.00705075735,158598.14725672093,3.253136763017044e-06,0.0,0.0,0.0,3.253136763017044e-06,0.0,24.61434024392335,2.726618806321455,0.0062642300681805645,0.0
7090,7.586206896551724,5.172413793103448,3.5714285714285716,0,199513.7099605399,456211.52853627416,401858.8535942584,235153.6279727326,28040.973256965164,1.3300913997369327e-06,0.0,0.0,0.0,1.3300913997369327e-06,0.0,25.087833030076396,3.009218822873736,0.0009872584727736958,0.0
7091,7.586206896551724,5.172413793103448,3.928571428571429,0,217253.93681678467,415076.24168196286,355085.3165258314,174130.33531063312,5730.376013005849,1.4483595787785644e-06,0.0,0.0,0.0,1.4483595787785644e-06,0.0,24.775252271824826,3.2989104491215637,0.0001942785842982054,0.0
7092,7.586206896551724,5.172413793103448,4.285714285714286,0,395149.6579783279,621861.6355006411,302792.4225315698,179856.88864395462,17374.670927910793,2.6343310531888526e-06,0.0,0.0,0.0,2.6343310531888526e-06,0.0,23.32341278361298,3.595910913631902,0.0005821668943056683,0.0
7093,7.586206896551724,5.172413793103448,4.642857142857143,0,292222.25468225713,435968.9873325979,390878.2494058188,123822.22827155044,5629.002965152458,1.9481483645483807e-06,0.0,0.0,0.0,1.9481483645483807e-06,0.0,24.737786500228246,3.897179320298114,0.00018793007699659971,0.0
7094,7.586206896551724,5.172413793103448,5.0,0,180952.1067188532,467372.8375509054,335880.81006379536,260999.47953715498,37509.974467627704,1.206347378125688e-06,0.0,0.0,0.0,1.206347378125688e-06,0.0,23.907379159734617,4.200143009052977,0.0012509335657824763,0.0
7095,7.931034482758621,5.172413793103448,0.0,0,318955.74630741606,449793.7125730233,390999.45931561873,105531.22592444066,-21492.313502513454,2.1263716420494404e-06,0.0,0.0,0.0,2.1263716420494404e-06,0.0,23.88400628841912,-0.04986363467145917,-0.0007167548564933579,0.0
7096,7.931034482758621,5.172413793103448,0.35714285714285715,0,183051.02327001138,381057.68177319446,405333.0395450925,211355.57575500594,38129.53442867523,1.2203401551334092e-06,0.0,0.0,0.0,1.2203401551334092e-06,0.0,24.656509321308114,0.2542873001481987,0.0012729938828219035,0.0
7097,7.931034482758621,5.172413793103448,0.7142857142857143,0,314260.2298142421,605986.34890325,359414.1179895384,252133.33805684192,26186.134525662284,2.095068198761614e-06,0.0,0.0,0.0,2.095068198761614e-06,0.0,23.238998296698465,0.5600547598953108,0.0008774094585115885,0.0
7098,7.931034482758621,5.172413793103448,1.0714285714285714,0,89090.83732242174,421551.19954358594,377194.92191564915,318989.1831728882,-7804.9933759237865,5.939389154828116e-07,0.0,0.0,0.0,5.939389154828116e-07,0.0,25.031605055801084,0.8698918874163507,-0.000264614932787971,0.0
7099,7.931034482758621,5.172413793103448,1.4285714285714286,0,133189.74917328262,424209.6396857388,272713.65090434486,325521.86931089667,108001.48166432747,8.879316611552175e-07,0.0,0.0,0.0,8.879316611552175e-07,0.0,24.588718185241156,1.1866983089098648,0.00380248491620152,0.0
7100,7.931034482758621,5.172413793103448,1.7857142857142858,0,285236.08091553685,713830.6022208406,462833.07682788064,403643.44373022177,118073.35855557988,1.9015738727702456e-06,0.0,0.0,0.0,1.9015738727702456e-06,0.0,24.351645019774033,1.5102668875248213,0.004663602291126921,0.0
7101,7.931034482758621,5.172413793103448,2.142857142857143,0,601149.4367593256,697041.9707317132,1009747.7310292209,316699.4289476704,461077.83774773945,4.007662911728837e-06,0.0,0.0,0.0,4.007662911728837e-06,0.0,24.606450489637,1.8336084358448246,0.024716121488048647,0.0
7102,7.931034482758621,5.172413793103448,2.5,0,945896.3279179186,1189547.7147827093,1346811.07882024,332139.31276804936,867664.168706109,6.30597551945279e-06,0.0,0.0,0.0,6.30597551945279e-06,0.0,24.76850308689856,2.145638989024265,0.0867664168706109,0.0
7103,7.931034482758621,5.172413793103448,2.857142857142857,0,670803.9928388238,937327.5567730317,362568.04360442614,200262.77339202815,426232.95003755693,4.472026618925492e-06,0.0,0.0,0.0,4.472026618925492e-06,0.0,24.310437449133858,2.440751292987682,0.022848257957480363,0.0
7104,7.931034482758621,5.172413793103448,3.2142857142857144,0,660548.6990788013,881438.4552592624,460085.6277668131,120152.4430425919,176875.8068781491,4.403657993858676e-06,0.0,0.0,0.0,4.403657993858676e-06,0.0,24.590749097345423,2.724552601810536,0.006986151899910337,0.0
7105,7.931034482758621,5.172413793103448,3.5714285714285716,0,224352.4260984718,473925.8206978801,385970.57317025086,218922.32903978255,5714.723301317002,1.4956828406564786e-06,0.0,0.0,0.0,1.4956828406564786e-06,0.0,23.71852551042004,3.0081268803384367,0.0002012023244371901,0.0
7106,7.931034482758621,5.172413793103448,3.928571428571429,0,387443.6960111317,554974.3074705116,247025.09736918908,119951.52047012685,38921.004241012204,2.5829579734075444e-06,0.0,0.0,0.0,2.5829579734075444e-06,0.0,24.619163624875277,3.29846331598778,0.0013195499887348457,0.0
7107,7.931034482758621,5.172413793103448,4.285714285714286,0,319254.96152769466,585396.9734292007,244962.54087842352,292696.98975193413,-48862.05465423136,2.128366410184631e-06,0.0,0.0,0.0,2.128366410184631e-06,0.0,24.52178108970222,3.5957690456095968,-0.0016372034167134674,0.0
7108,7.931034482758621,5.172413793103448,4.642857142857143,0,346049.0451830395,527236.235431482,362507.9103285945,129596.9932215099,-81888.27067577084,2.3069936345535967e-06,0.0,0.0,0.0,2.3069936345535967e-06,0.0,24.94227999701169,3.897144443005342,-0.002733924481562109,0.0
7109,7.931034482758621,5.172413793103448,5.0,0,259896.8856463235,436264.47306344094,463323.6599882111,190955.8130336385,18356.21332918198,1.7326459043088234e-06,0.0,0.0,0.0,1.7326459043088234e-06,0.0,24.314473415723473,4.200136365328541,0.0006121679291985313,0.0
7110,8.275862068965518,5.172413793103448,0.0,0,325951.5904828584,472455.61230829085,134921.75696902274,159474.91375264683,-17635.43001086584,2.173010603219056e-06,0.0,0.0,0.0,2.173010603219056e-06,0.0,24.215956637619964,-0.04987028112927476,-0.0005881302683007375,0.0
7111,8.275862068965518,5.172413793103448,0.35714285714285715,0,258186.99352717216,319408.43992307386,306035.51369486976,54794.86063141421,-8854.317396862767,1.721246623514481e-06,0.0,0.0,0.0,1.721246623514481e-06,0.0,23.605819061393177,0.25425240850611275,-0.00029561053004342904,0.0
7112,8.275862068965518,5.172413793103448,0.7142857142857143,0,141891.9074244121,448710.01984287205,365450.6724922208,284874.6826261392,-107942.95916946199,9.459460494960806e-07,0.0,0.0,0.0,9.459460494960806e-07,0.0,24.071939830143894,0.5599128335052644,-0.0036168061865794144,0.0
7113,8.275862068965518,5.172413793103448,1.0714285714285714,0,144332.01118177734,393255.1947655883,406617.0695353669,256068.7464136322,81083.4918670007,9.622134078785156e-07,0.0,0.0,0.0,9.622134078785156e-07,0.0,24.382636206025687,0.8694445703217947,0.0027489969199443296,0.0
7114,8.275862068965518,5.172413793103448,1.4285714285714286,0,279834.92979904986,628648.6647911449,421628.32689669717,310279.18673865864,12710.07547182192,1.8655661986603325e-06,0.0,0.0,0.0,1.8655661986603325e-06,0.0,24.43472713735711,1.1856059171244944,0.00044749265955069733,0.0
7115,8.275862068965518,5.172413793103448,1.7857142857142858,0,682325.5616124445,1197591.6918278255,832063.6483657527,410377.41646806453,188820.3207748531,4.5488370774162965e-06,0.0,0.0,0.0,4.5488370774162965e-06,0.0,24.942991468820846,1.5081998329302273,0.0074579303184842865,0.0
7116,8.275862068965518,5.172413793103448,2.142857142857143,0,865080.6787845595,1288646.8187671392,826847.5881964626,290661.3648759755,278711.8497947367,5.767204525230396e-06,0.0,0.0,0.0,5.767204525230396e-06,0.0,24.321895874654782,1.8305777839170656,0.014940375302649758,0.0
7117,8.275862068965518,5.172413793103448,2.5,0,848100.4926941458,829513.9870921448,1326620.5549687012,347356.49319931306,808965.2920891538,5.654003284627639e-06,0.0,0.0,0.0,5.654003284627639e-06,0.0,24.04950744287233,2.142196038637172,0.08089652920891538,0.0
7118,8.275862068965518,5.172413793103448,2.857142857142857,0,472407.6533091911,1086896.3305635492,668626.0877055902,574517.9176015913,489599.69749602035,3.149384355394607e-06,0.0,0.0,0.0,3.149384355394607e-06,0.0,24.378955965357914,2.4377206410599226,0.026245038501382267,0.0
7119,8.275862068965518,5.172413793103448,3.2142857142857144,0,248618.5168729919,810095.492149575,562676.6329441555,560294.4370745813,93885.38940088933,1.6574567791532793e-06,0.0,0.0,0.0,1.6574567791532793e-06,0.0,23.826646787034306,2.7224855472159417,0.0037082380180388204,0.0
7120,8.275862068965518,5.172413793103448,3.5714285714285716,0,303824.2606631492,561639.8215761719,252514.26022154928,263409.98881174735,19827.547425382625,2.025495071087661e-06,0.0,0.0,0.0,2.025495071087661e-06,0.0,24.77262233879126,3.007034488553066,0.0006980825526506651,0.0
7121,8.275862068965518,5.172413793103448,3.928571428571429,0,129326.60955606184,405569.5036366302,418078.7721971197,282952.06728352467,-65716.0091589911,8.621773970404123e-07,0.0,0.0,0.0,8.621773970404123e-07,0.0,23.76806399903313,3.298015998893224,-0.0022279887386377098,0.0
7122,8.275862068965518,5.172413793103448,4.285714285714286,0,301153.5946294111,483663.8414275319,311626.05772564025,135928.04471100136,14622.1138149939,2.0076906308627407e-06,0.0,0.0,0.0,2.0076906308627407e-06,0.0,23.916981343251127,3.59562711921955,0.0004899379460582734,0.0
7123,8.275862068965518,5.172413793103448,4.642857142857143,0,65729.5244771413,345373.1638623714,354594.32142229,284741.13326829905,-38727.71773592136,4.3819682984760864e-07,0.0,0.0,0.0,4.3819682984760864e-07,0.0,23.586548155845083,3.897109551363256,-0.0012929648502711631,0.0
7124,8.275862068965518,5.172413793103448,5.0,0,199834.55620700886,372652.7844531581,292843.48276463454,145246.9166063263,-28383.210411867545,1.3322303747133925e-06,0.0,0.0,0.0,1.3322303747133925e-06,0.0,24.170460228792297,4.200129718870725,-0.0009465618442239717,0.0
7125,8.620689655172415,5.172413793103448,0.0,0,271904.3277569742,519875.30377991195,376285.7604069949,206277.93548117566,760.0325753212655,1.812695518379828e-06,0.0,0.0,0.0,1.812695518379828e-06,0.0,24.286937510116328,-0.049876929541597524,2.5346598419521633e-05,0.0
7126,8.620689655172415,5.172413793103448,0.35714285714285715,0,212592.1101413089,366957.593207733,358953.84190829186,150476.63560360702,-16205.485899939105,1.4172807342753926e-06,0.0,0.0,0.0,1.4172807342753926e-06,0.0,24.795717207945657,0.2542175066035291,-0.0005410368819836607,0.0
7127,8.620689655172415,5.172413793103448,0.7142857142857143,0,264278.23274755175,511697.9304685291,231479.36007260508,266940.90803694335,-13594.793024748025,1.7618548849836783e-06,0.0,0.0,0.0,1.7618548849836783e-06,0.0,23.94512088675854,0.5597708653792806,-0.0004555158751946267,0.0
7128,8.620689655172415,5.172413793103448,1.0714285714285714,0,89904.5228349692,345589.9012169401,243993.51357133515,276313.2404878578,53800.53418770084,5.993634855664614e-07,0.0,0.0,0.0,5.993634855664614e-07,0.0,23.86634219799471,0.8689971216858228,0.0018240149673862335,0.0
7129,8.620689655172415,5.172413793103448,1.4285714285714286,0,598249.1011773925,748328.7099317955,384100.1071194001,57878.76081873504,-1678.6694245697663,3.9883273411826165e-06,0.0,0.0,0.0,3.9883273411826165e-06,0.0,22.64900559643726,1.1845132041022122,-5.910210737713929e-05,0.0
7130,8.620689655172415,5.172413793103448,1.7857142857142858,0,137742.20819303693,669617.6822378478,659134.4504522053,526933.3789935698,52012.940920154135,9.182813879535795e-07,0.0,0.0,0.0,9.182813879535795e-07,0.0,24.099586270730295,1.5061321704820738,0.0020543810509912595,0.0
7131,8.620689655172415,5.172413793103448,2.142857142857143,0,201768.20232118387,1121372.961653741,1259084.2242991487,1027479.9721731402,428302.3342344036,1.3451213488078924e-06,0.0,0.0,0.0,1.3451213488078924e-06,0.0,24.006554046950935,1.8275462407730971,0.02295918749481088,0.0
7132,8.620689655172415,5.172413793103448,2.5,0,886095.3687746552,1472546.684901876,1050551.0912922123,454328.47718413064,643441.6342792481,5.907302458497701e-06,0.0,0.0,0.0,5.907302458497701e-06,0.0,24.005388191179623,2.1387520757902956,0.0643441634279248,0.0
7133,8.620689655172415,5.172413793103448,2.857142857142857,0,610105.1961925976,1041153.5820143558,1058264.4437501794,439783.8008855825,461826.4949271555,4.067367974617317e-06,0.0,0.0,0.0,4.067367974617317e-06,0.0,24.755127102158696,2.434689097915954,0.02475625332758736,0.0
7134,8.620689655172415,5.172413793103448,3.2142857142857144,0,448995.85441585915,815034.447354073,299041.43423648336,513326.5567746304,140651.48562717717,2.9933056961057276e-06,0.0,0.0,0.0,2.9933056961057276e-06,0.0,24.280023831170244,2.7204178847677882,0.005555381829107038,0.0
7135,8.620689655172415,5.172413793103448,3.5714285714285716,0,384717.0876330951,616748.9861145037,609846.1674530936,228626.93735600667,24319.013792473936,2.564780584220634e-06,0.0,0.0,0.0,2.564780584220634e-06,0.0,23.80364475764228,3.0059417755307836,0.0008562168008971148,0.0
7136,8.620689655172415,5.172413793103448,3.928571428571429,0,327052.54014107503,567389.3910859176,390819.3181566371,190001.22246591497,2049.7133265059415,2.180350267607167e-06,0.0,0.0,0.0,2.180350267607167e-06,0.0,23.563550489821974,3.2975685502572523,6.949201978839377e-05,0.0
7137,8.620689655172415,5.172413793103448,4.285714285714286,0,198909.49490099197,535100.0401216609,318796.09460698307,360056.8158596954,27792.925798314223,1.3260632993399464e-06,0.0,0.0,0.0,1.3260632993399464e-06,0.0,23.44250214763125,3.5954851510935666,0.0009312476399009446,0.0
7138,8.620689655172415,5.172413793103448,4.642857142857143,0,338120.42749083764,444676.4704944781,307181.64200546354,59469.26008200715,-25516.82424244468,2.254136183272251e-06,0.0,0.0,0.0,2.254136183272251e-06,0.0,23.803112732910908,3.8970746494606723,-0.0008519055282575163,0.0
7139,8.620689655172415,5.172413793103448,5.0,0,296365.7046918812,446906.96354964375,220333.38970670878,111514.47511525835,1807.004898624407,1.9757713646125413e-06,0.0,0.0,0.0,1.9757713646125413e-06,0.0,24.217638674802085,4.200123070458402,6.026245320890488e-05,0.0
7140,8.965517241379311,5.172413793103448,0.0,0,441295.25683136674,674786.2646864328,245956.20856741932,222001.5847654008,64195.47797719292,2.941968378875778e-06,0.0,0.0,0.0,2.941968378875778e-06,0.0,22.811076806627245,-0.04988357939967609,0.0021408779748017556,0.0
7141,8.965517241379311,5.172413793103448,0.35714285714285715,0,488596.40936855925,546419.7649937674,496877.9976757001,34939.870511941765,-13503.452546628585,3.257309395790395e-06,0.0,0.0,0.0,3.257309395790395e-06,0.0,23.80313600396844,0.2541825971112195,-0.00045082670812540747,0.0
7142,8.965517241379311,5.172413793103448,0.7142857142857143,0,198088.73230033583,375723.0233393327,231338.4131858186,149894.91798325462,28008.750386228887,1.3205915486689055e-06,0.0,0.0,0.0,1.3205915486689055e-06,0.0,24.27630885239031,0.5596288663810778,0.0009384791972974788,0.0
7143,8.965517241379311,5.172413793103448,1.0714285714285714,0,297837.1622098039,484079.9876903251,236509.90440908307,153561.3842091598,30340.853995680383,1.9855810813986925e-06,0.0,0.0,0.0,1.9855810813986925e-06,0.0,23.362472850352336,0.8685495757482053,0.0010286546899018153,0.0
7144,8.965517241379311,5.172413793103448,1.4285714285714286,0,197524.7026383089,514554.9953128893,308607.8453212857,326697.1655338575,-34855.02629490814,1.3168313509220594e-06,0.0,0.0,0.0,1.3168313509220594e-06,0.0,23.795781289249827,1.183420253459862,-0.0012271656804868785,0.0
7145,8.965517241379311,5.172413793103448,1.7857142857142858,0,377868.11558749876,768662.792914374,363709.0185210648,425496.02253094973,137571.5544354348,2.5191207705833252e-06,0.0,0.0,0.0,2.5191207705833252e-06,0.0,23.39380878239829,1.5040640584025158,0.005433732251776166,0.0
7146,8.965517241379311,5.172413793103448,2.142857142857143,0,780385.7871373573,882699.0082596315,822955.4813298031,74158.50264021085,370445.380498167,5.202571914249048e-06,0.0,0.0,0.0,5.202571914249048e-06,0.0,22.540246865591932,1.8245140383933798,0.019857759969127888,0.0
7147,8.965517241379311,5.172413793103448,2.5,0,903935.5983117066,1263805.569043995,1264035.2282716627,359984.8222268411,853779.3288863458,6.0262373220780436e-06,0.0,0.0,0.0,6.0262373220780436e-06,0.0,23.498888519812514,2.135307364023375,0.08537793288863459,0.0
7148,8.965517241379311,5.172413793103448,2.857142857142857,0,1148615.6264896977,1594628.246664361,676452.0043443048,306666.1010316229,368559.39377562975,7.657437509931319e-06,0.0,0.0,0.0,7.657437509931319e-06,0.0,23.372034542884904,2.4316568955362365,0.019756661470907332,0.0
7149,8.965517241379311,5.172413793103448,3.2142857142857144,0,574553.3167635091,881546.3543699448,336034.69947341015,281797.72947350395,105426.01998260051,3.830355445090061e-06,0.0,0.0,0.0,3.830355445090061e-06,0.0,24.296090185713158,2.71834977268823,0.004164064056023358,0.0
7150,8.965517241379311,5.172413793103448,3.5714285714285716,0,276590.79738064035,276736.34331650264,418259.6032827357,99544.66244845113,14059.621254866428,1.843938649204269e-06,0.0,0.0,0.0,1.843938649204269e-06,0.0,24.153541512642384,3.0048488248884335,0.0004950070769889636,0.0
7151,8.965517241379311,5.172413793103448,3.928571428571429,0,320815.0023356621,590078.1207893217,326918.54621631687,232705.18822035685,5616.630626473975,2.138766682237747e-06,0.0,0.0,0.0,2.138766682237747e-06,0.0,23.39710693972167,3.2971210043196346,0.00019042224177971977,0.0
7152,8.965517241379311,5.172413793103448,4.285714285714286,0,388825.3478518448,561038.5188246632,414836.7158871786,120304.74920417398,12534.345001547177,2.5921689856789655e-06,0.0,0.0,0.0,2.5921689856789655e-06,0.0,24.5690676360108,3.5953431520953636,0.00041998382196605617,0.0
7153,8.965517241379311,5.172413793103448,4.642857142857143,0,171375.64315450602,426189.161568712,279688.7202932971,237731.1868681719,-24366.827813863954,1.1425042876967069e-06,0.0,0.0,0.0,1.1425042876967069e-06,0.0,24.290080324553518,3.8970397399683625,-0.0008135117099015978,0.0
7154,8.965517241379311,5.172413793103448,5.0,0,301196.3203046257,524952.2279439776,297478.4883886501,183375.50931501432,-53546.37918777487,2.007975468697505e-06,0.0,0.0,0.0,2.007975468697505e-06,0.0,23.8039912890766,4.200116420600324,-0.0017857373672677975,0.0
7155,9.310344827586208,5.172413793103448,0.0,0,255743.16863389994,377730.2359741781,305649.77172676596,93682.19488406967,3722.313852831616,1.704954457559333e-06,0.0,0.0,0.0,1.704954457559333e-06,0.0,23.932515892519824,-0.04989023035716538,0.00012413677713651213,0.0
7156,9.310344827586208,5.172413793103448,0.35714285714285715,0,96309.55566720717,413312.01958529465,327475.11654457205,309159.99826781906,50311.69865529013,6.420637044480478e-07,0.0,0.0,0.0,6.420637044480478e-07,0.0,23.29953699032937,0.25414768184737757,0.0016797080159047866,0.0
7157,9.310344827586208,5.172413793103448,0.7142857142857143,0,297224.4663865768,594846.4127567002,284440.3096473411,312842.64439359016,26700.095454870123,1.981496442577179e-06,0.0,0.0,0.0,1.981496442577179e-06,0.0,22.545981649035618,0.5594868439064007,0.0008946305638316743,0.0
7158,9.310344827586208,5.172413793103448,1.0714285714285714,0,206087.1810082527,445899.5596068685,277761.825399578,215991.04450701742,21391.05061609917,1.3739145400550179e-06,0.0,0.0,0.0,1.3739145400550179e-06,0.0,23.827130721065444,0.8681019558185117,0.000725226934657483,0.0
7159,9.310344827586208,5.172413793103448,1.4285714285714286,0,156531.742162663,343053.5067367922,180786.00901863413,192969.55343498455,-21106.783362257374,1.0435449477510867e-06,0.0,0.0,0.0,1.0435449477510867e-06,0.0,23.104374278979016,1.1823271221216762,-0.0007431215213691452,0.0
7160,9.310344827586208,5.172413793103448,1.7857142857142858,0,542874.0069014014,775007.8895338479,460702.4024959908,148151.80029274503,97322.15972886117,3.619160046009343e-06,0.0,0.0,0.0,3.619160046009343e-06,0.0,23.677745090041523,1.501995604405193,0.0038439818485834724,0.0
7161,9.310344827586208,5.172413793103448,2.142857142857143,0,376174.6092106012,1144694.6237812953,980438.906199994,714324.9222345833,342043.92574183666,2.5078307280706748e-06,0.0,0.0,0.0,2.5078307280706748e-06,0.0,24.001401478809832,1.8214813347043433,0.018335297276876703,0.0
7162,9.310344827586208,5.172413793103448,2.5,0,801283.4432399885,1696343.5195934887,1190556.9526608435,772488.1522927674,731591.8257110309,5.341889621599924e-06,0.0,0.0,0.0,5.341889621599924e-06,0.0,22.828804214728535,2.1318620827475976,0.07315918257110308,0.0
7163,9.310344827586208,5.172413793103448,2.857142857142857,0,771330.6303777245,1166308.4502079205,704503.2837619925,275858.3459208679,480158.04410278593,5.142204202518163e-06,0.0,0.0,0.0,5.142204202518163e-06,0.0,23.908693372849914,2.4286241918472,0.02573891777032491,0.0
7164,9.310344827586208,5.172413793103448,3.2142857142857144,0,530810.0464147681,718761.9556845082,753467.2843313146,206156.1683369468,-59914.616807813494,3.5387336427651206e-06,0.0,0.0,0.0,3.5387336427651206e-06,0.0,24.223324747696818,2.716281318690908,-0.002366477481754548,0.0
7165,9.310344827586208,5.172413793103448,3.5714285714285716,0,351105.5846060462,662491.9927272197,380427.52650019573,269259.7215276648,101660.04679010392,2.3407038973736414e-06,0.0,0.0,0.0,2.3407038973736414e-06,0.0,22.775356506863368,3.003755693550248,0.0035792175120444732,0.0
7166,9.310344827586208,5.172413793103448,3.928571428571429,0,359104.79470470303,482916.1889581446,203901.9258077842,77759.78804667763,-62607.27191409585,2.39403196469802e-06,0.0,0.0,0.0,2.39403196469802e-06,0.0,24.17229048643135,3.296673384389941,-0.0021225923266880256,0.0
7167,9.310344827586208,5.172413793103448,4.285714285714286,0,244459.22431531147,389022.9632688786,169122.08595169344,125798.2101633018,86448.45452266886,1.6297281621020765e-06,0.0,0.0,0.0,1.6297281621020765e-06,0.0,24.773796919021468,3.5952011296206865,0.0028965974950432363,0.0
7168,9.310344827586208,5.172413793103448,4.642857142857143,0,423999.2905401834,561606.6411133432,430512.75939022657,87542.63327703411,-38272.364165045416,2.8266619369345564e-06,0.0,0.0,0.0,2.8266619369345564e-06,0.0,23.701502792152937,3.8970048247045206,-0.0012777624010692065,0.0
7169,9.310344827586208,5.172413793103448,5.0,0,331989.202952199,473796.722689652,285263.2023433072,90465.67095455535,-38715.44112472753,2.21326135301466e-06,0.0,0.0,0.0,2.21326135301466e-06,0.0,24.20398549888737,4.200109769642835,-0.0012911351048450841,0.0
7170,9.655172413793103,5.172413793103448,0.0,0,301734.4855611278,452535.70032665454,206772.48051293794,115775.55101732476,-17982.300716636477,2.011563237074185e-06,0.0,0.0,0.0,2.011563237074185e-06,0.0,23.16669902700306,-0.049896882170131655,-0.0005996981836350876,0.0
7171,9.655172413793103,5.172413793103448,0.35714285714285715,0,309701.0507427721,468456.3095080861,112250.90556103738,262912.33423380274,-19877.710894314754,2.064673671618481e-06,0.0,0.0,0.0,2.064673671618481e-06,0.0,24.133889892434482,0.25411276209257255,-0.0006636379056843406,0.0
7172,9.655172413793103,5.172413793103448,0.7142857142857143,0,303910.7742395357,356629.849202482,281747.73725052446,22277.593233837215,-27449.36329347076,2.026071828263571e-06,0.0,0.0,0.0,2.026071828263571e-06,0.0,23.93357776116523,0.5593448031641346,-0.0009197360137369465,0.0
7173,9.655172413793103,5.172413793103448,1.0714285714285714,0,170426.34608344635,418196.67565564724,365122.4093067724,227548.35721950638,-17025.823646929715,1.136175640556309e-06,0.0,0.0,0.0,1.136175640556309e-06,0.0,23.792120338263754,0.8676542783138678,-0.0005772313905979344,0.0
7174,9.655172413793103,5.172413793103448,1.4285714285714286,0,273616.94298978575,543715.5439213767,304513.5865834414,245360.40671238763,11812.725784275635,1.8241129532652383e-06,0.0,0.0,0.0,1.8241129532652383e-06,0.0,23.768408396186288,1.1812338501798707,0.00041589903139976133,0.0
7175,9.655172413793103,5.172413793103448,1.7857142857142858,0,334028.2155795649,748003.8598756029,380864.5115003197,462055.6090266419,12137.429403579023,2.2268547705304326e-06,0.0,0.0,0.0,2.2268547705304326e-06,0.0,23.889937504092142,1.4999268843537292,0.0004793980984988879,0.0
7176,9.655172413793103,5.172413793103448,2.142857142857143,0,857342.1021135029,1446591.9559171596,680493.9040453554,520536.65815277305,531863.4583314437,5.7156140140900195e-06,0.0,0.0,0.0,5.7156140140900195e-06,0.0,23.665447992960022,1.8184482409349,0.02851059143373046,0.0
7177,9.655172413793103,5.172413793103448,2.5,0,918324.8757811047,1415798.372544573,1287115.4230529575,439919.13041828794,974485.5449526551,6.122165838540698e-06,0.0,0.0,0.0,6.122165838540698e-06,0.0,23.215717805402452,2.1284163583237716,0.09744855449526552,0.0
7178,9.655172413793103,5.172413793103448,2.857142857142857,0,988045.7688851659,1350299.501283488,485935.5351414904,273221.68015929224,210666.7388765236,6.586971792567773e-06,0.0,0.0,0.0,6.586971792567773e-06,0.0,23.63299208778613,2.425591098077757,0.011292810639083262,0.0
7179,9.655172413793103,5.172413793103448,3.2142857142857144,0,325047.86184067104,779767.912806863,444925.9169870724,465490.72379915765,226389.96681431594,2.1669857456044737e-06,0.0,0.0,0.0,2.1669857456044737e-06,0.0,23.687810439025416,2.7142125986394436,0.008941837352974127,0.0
7180,9.655172413793103,5.172413793103448,3.5714285714285716,0,338264.2023913923,658108.0895673877,511895.65767132904,271331.48262147483,48803.716445402744,2.255094682609282e-06,0.0,0.0,0.0,2.255094682609282e-06,0.0,23.129434275456646,3.0026624216084423,0.0017182671272510418,0.0
7181,9.655172413793103,5.172413793103448,3.928571428571429,0,319114.396688919,504707.8315482366,373484.3329710485,140902.69997223365,12341.536374269059,2.12742931125946e-06,0.0,0.0,0.0,2.12742931125946e-06,0.0,23.665880644077887,3.296225706885297,0.00041841865340353055,0.0
7182,9.655172413793103,5.172413793103448,4.285714285714286,0,167386.00395737882,455022.7775855367,333921.11469544703,264015.57506279805,-26052.561770422213,1.115906693049192e-06,0.0,0.0,0.0,1.115906693049192e-06,0.0,23.69498146514214,3.59505908887842,-0.0008729338839004432,0.0
7183,9.655172413793103,5.172413793103448,4.642857142857143,0,271604.45777475846,451158.8124236668,257986.10148879784,140604.68065410847,7537.12031537222,1.8106963851650564e-06,0.0,0.0,0.0,1.8106963851650564e-06,0.0,23.47028164625531,3.896969904949716,0.0002516345452239735,0.0
7184,9.655172413793103,5.172413793103448,5.0,0,166774.4481085069,365938.0453876677,319349.01283318305,180823.21803630545,40589.2005655993,1.1118296540567128e-06,0.0,0.0,0.0,1.1118296540567128e-06,0.0,23.91147228989687,4.200103117829869,0.0013536237791791925,0.0
7185,10.0,5.172413793103448,0.0,0,322348.53783498163,493918.7425280827,265678.978218786,125164.73592154926,117042.39861952065,2.148990252233211e-06,0.0,0.0,0.0,2.148990252233211e-06,0.0,23.865343203339723,-0.04990353466181586,0.003903288848655692,0.0
7186,10.0,5.172413793103448,0.35714285714285715,0,213000.77003491286,444935.22169154586,236885.20478959344,227306.8643207917,98317.46912192187,1.4200051335660857e-06,0.0,0.0,0.0,1.4200051335660857e-06,0.0,23.243472378270997,0.2540778387747294,0.0032824302379263638,0.0
7187,10.0,5.172413793103448,0.7142857142857143,0,273808.92864035873,404797.2373325213,217782.1915455725,90517.52667491722,-68777.60599143119,1.8253928576023916e-06,0.0,0.0,0.0,1.8253928576023916e-06,0.0,23.654614282414062,0.5592027479287373,-0.00230450668354759,0.0
7188,10.0,5.172413793103448,1.0714285714285714,0,355459.98004675016,566178.1545881367,397212.23678614455,157751.2400700712,-9337.245866264131,2.3697332003116676e-06,0.0,0.0,0.0,2.3697332003116676e-06,0.0,24.039380174531058,0.867206555130437,-0.00031656332918204513,0.0
7189,10.0,5.172413793103448,1.4285714285714286,0,244073.61303178748,404031.5042517991,370609.15882430266,144969.0602437072,10948.489547292147,1.6271574202119166e-06,0.0,0.0,0.0,1.6271574202119166e-06,0.0,23.084334426692422,1.1801404666860311,0.0003854712520348611,0.0
7190,10.0,5.172413793103448,1.7857142857142858,0,315200.24844422686,706524.2951140715,588758.977049074,349397.2832178683,184978.9859513532,2.101334989628179e-06,0.0,0.0,0.0,2.101334989628179e-06,0.0,22.762643993251142,1.4978579532203558,0.007306207202423122,0.0
7191,10.0,5.172413793103448,2.142857142857143,0,731870.2125055358,1378420.1755352302,835065.503809187,546199.9925249,421658.35538235883,4.879134750036906e-06,0.0,0.0,0.0,4.879134750036906e-06,0.0,23.12841407952328,1.8154148376836474,0.022603036374485273,0.0
7192,10.0,5.172413793103448,2.5,0,1054116.3087459728,1430247.1504453353,1060382.5787709716,241043.3170029554,674659.2182178192,7.027442058306485e-06,0.0,0.0,0.0,7.027442058306485e-06,0.0,23.8671696923468,2.124970282315356,0.06746592182178193,0.0
7193,10.0,5.172413793103448,2.857142857142857,0,513835.8355187459,1132456.8133843727,742131.6888872059,550303.3097005264,437396.5917117111,3.425572236791639e-06,0.0,0.0,0.0,3.425572236791639e-06,0.0,23.380101827083624,2.422557694826504,0.023446686034646797,0.0
7194,10.0,5.172413793103448,3.2142857142857144,0,632272.426231369,810476.9525523179,465872.29483389715,80766.20665800435,51554.40599142194,4.215149508209127e-06,0.0,0.0,0.0,4.215149508209127e-06,0.0,22.99392245584575,2.71214366750607,0.0020362700683753915,0.0
7195,10.0,5.172413793103448,3.5714285714285716,0,234464.49078138117,558071.2150681457,289273.0179928141,451676.48001477966,59919.35272088019,1.5630966052092078e-06,0.0,0.0,0.0,1.5630966052092078e-06,0.0,24.252627186408866,3.001569038114603,0.0021096232329279336,0.0
7196,10.0,5.172413793103448,3.928571428571429,0,164410.85352507417,322967.6440092251,193412.34757364035,138013.05278255435,110983.32874855351,1.0960723568338278e-06,0.0,0.0,0.0,1.0960723568338278e-06,0.0,23.032491303294073,3.2957779837018664,0.0037626996799222582,0.0
7197,10.0,5.172413793103448,4.285714285714286,0,182012.6847171912,418542.14659074857,214004.59814184703,274417.5381989491,40979.06150823022,1.213417898114608e-06,0.0,0.0,0.0,1.213417898114608e-06,0.0,23.54210928222117,3.594917033643023,0.0013730707803785711,0.0
7198,10.0,5.172413793103448,4.642857142857143,0,361573.36494271836,593557.4699377845,281198.3129392931,197463.0815259491,42649.784407253246,2.4104890996181223e-06,0.0,0.0,0.0,2.4104890996181223e-06,0.0,24.00041957994405,3.8969349816318726,0.0014239070963655807,0.0
7199,10.0,5.172413793103448,5.0,0,205467.4597726053,389317.9547370648,170139.58449501384,201068.05172625638,55410.34544587447,1.369783065150702e-06,0.0,0.0,0.0,1.369783065150702e-06,0.0,23.971935305989703,4.200096465338184,0.0018478994452440188,0.0
7200,0.0,5.517241379310345,0.0,0,304337.41513731045,419904.53341300634,189939.1122763064,74795.35530229648,20384.0211438447,2.028916100915403e-06,0.0,0.0,0.0,2.028916100915403e-06,0.0,23.772462453406906,-0.0499039923898561,0.0006797940178941347,0.0
7201,0.0,5.517241379310345,0.35714285714285715,0,148772.9139094946,399953.99968925625,407468.03283516906,255080.48644907674,-17885.25121035013,9.918194260632972e-07,0.0,0.0,0.0,9.918194260632972e-07,0.0,23.23456385560652,0.2540754358582593,-0.000597117581545561,0.0
7202,0.0,5.517241379310345,0.7142857142857143,0,224311.8440269849,442142.9768581895,335156.7079146438,184367.54490584473,-13502.753457956991,1.4954122935132326e-06,0.0,0.0,0.0,1.4954122935132326e-06,0.0,23.852224453473713,0.5591929737467328,-0.00045243193829738737,0.0
7203,0.0,5.517241379310345,1.0714285714285714,0,160555.60789400234,409523.46190987795,282619.218932662,229026.10103923688,51106.6270364119,1.070370719293349e-06,0.0,0.0,0.0,1.070370719293349e-06,0.0,23.58539328942724,0.8671757493113467,0.0017326826592802083,0.0
7204,0.0,5.517241379310345,1.4285714285714286,0,401688.8536043562,591185.1023595806,621875.2671182685,205721.60143475517,22338.161929686466,2.677925690695708e-06,0.0,0.0,0.0,2.677925690695708e-06,0.0,23.786023934104847,1.1800652358841561,0.0007864755416717159,0.0
7205,0.0,5.517241379310345,1.7857142857142858,0,496297.0445526922,802190.0387683398,285812.2095200515,328765.88184555125,5486.286040404128,3.3086469636846146e-06,0.0,0.0,0.0,3.3086469636846146e-06,0.0,24.272799823810974,1.4977155993718982,0.00021669457412581752,0.0
7206,0.0,5.517241379310345,2.142857142857143,0,952738.6803682644,1320296.2594577263,1023483.8648663041,254481.86790901993,580931.5337294734,6.351591202455096e-06,0.0,0.0,0.0,6.351591202455096e-06,0.0,22.99534039312021,1.8152061228454521,0.031140890297467978,0.0
7207,0.0,5.517241379310345,2.5,0,507265.3400203082,1062572.8092561637,911752.4339859338,497001.3869355331,672121.065143244,3.3817689334687216e-06,0.0,0.0,0.0,3.3817689334687216e-06,0.0,23.789565405428267,2.1247331733202994,0.06721210651432441,0.0
7208,0.0,5.517241379310345,2.857142857142857,0,665546.6234280029,1065572.060876173,979905.5854582026,361340.11648678256,302341.38144994975,4.43697748952002e-06,0.0,0.0,0.0,4.43697748952002e-06,0.0,23.672754633830575,2.422348979988309,0.016207038601733472,0.0
7209,0.0,5.517241379310345,3.2142857142857144,0,473525.4924481859,736895.6696321646,557031.3915502088,199791.27843231265,13618.946573898138,3.1568366163212396e-06,0.0,0.0,0.0,3.1568366163212396e-06,0.0,24.078595411528823,2.7120013136576127,0.0005379143205693541,0.0
7210,0.0,5.517241379310345,3.5714285714285716,0,388037.86794367334,587834.7240725433,175387.24379749867,229990.75451510932,23278.197513268537,2.5869191196244888e-06,0.0,0.0,0.0,2.5869191196244888e-06,0.0,24.50031166155892,3.0014938073127277,0.0008195720424991128,0.0
7211,0.0,5.517241379310345,3.928571428571429,0,150788.58066908084,390043.5880415032,333363.451507589,219128.21457736785,45391.574038141676,1.005257204460539e-06,0.0,0.0,0.0,1.005257204460539e-06,0.0,24.48946826412484,3.295747177882776,0.0015389235755528662,0.0
7212,0.0,5.517241379310345,4.285714285714286,0,286500.931408161,532377.9539255485,345179.9996460733,202557.72851858064,11467.130910775162,1.9100062093877402e-06,0.0,0.0,0.0,1.9100062093877402e-06,0.0,24.03812601678714,3.5949072594610185,0.00038422506052753386,0.0
7213,0.0,5.517241379310345,4.642857142857143,0,413726.4502042137,554973.3496883949,117339.88602903343,170243.1186709976,-24977.318305831857,2.7581763346947576e-06,0.0,0.0,0.0,2.7581763346947576e-06,0.0,23.326015108967052,3.8969325787154023,-0.0008338935654222784,0.0
7214,0.0,5.517241379310345,5.0,0,235700.7779922505,359760.56777684146,488280.12342818826,216253.8911216785,-36231.68482691542,1.5713385199483368e-06,0.0,0.0,0.0,1.5713385199483368e-06,0.0,23.41894083366288,4.200096007610144,-0.0012083034269712901,0.0
7215,0.3448275862068966,5.517241379310345,0.0,0,160495.10749480114,359870.09722693835,304169.6575627196,178945.46641873763,30771.281863206565,1.0699673832986743e-06,0.0,0.0,0.0,1.0699673832986743e-06,0.0,24.022460388397658,-0.04989737358135164,0.0010262024939009,0.0
7216,0.3448275862068966,5.517241379310345,0.35714285714285715,0,178588.0869351915,356663.8274332172,333029.16420440946,167435.23119416457,-3700.193735038642,1.1905872462346101e-06,0.0,0.0,0.0,1.1905872462346101e-06,0.0,23.02322449432997,0.25411018235086946,-0.00012353478899070254,0.0
7217,0.3448275862068966,5.517241379310345,0.7142857142857143,0,431154.1065625649,611200.7204875578,186944.17195156554,173465.15605807558,13659.388123069843,2.8743607104170993e-06,0.0,0.0,0.0,2.8743607104170993e-06,0.0,23.554489349625246,0.559334309722001,0.0004576802400872574,0.0
7218,0.3448275862068966,5.517241379310345,1.0714285714285714,0,102438.87542561739,377046.8928573843,345738.4635463401,262607.2547375592,-5521.990839039502,6.829258361707826e-07,0.0,0.0,0.0,6.829258361707826e-07,0.0,23.306872647665916,0.867621205563652,-0.00018721364187644605,0.0
7219,0.3448275862068966,5.517241379310345,1.4285714285714286,0,495255.53707407403,640231.803777647,440028.6814593855,76215.29420335258,20380.651436778207,3.301703580493827e-06,0.0,0.0,0.0,3.301703580493827e-06,0.0,23.092331611516308,1.1811530833120378,0.0007175560786431972,0.0
7220,0.3448275862068966,5.517241379310345,1.7857142857142858,0,283219.0058092367,512749.64269989927,515523.9894124325,230928.00174804538,99134.76195968603,1.8881267053949115e-06,0.0,0.0,0.0,1.8881267053949115e-06,0.0,23.809340915470216,1.4997740550048815,0.003915575102302917,0.0
7221,0.3448275862068966,5.517241379310345,2.142857142857143,0,301627.5174929404,816050.4723683888,710294.5315977227,475786.14174176386,630500.2745665363,2.010850116619603e-06,0.0,0.0,0.0,2.010850116619603e-06,0.0,24.084966921296363,1.8182241672399355,0.03379802737983787,0.0
7222,0.3448275862068966,5.517241379310345,2.5,0,809918.3831214078,1032739.0030849806,624042.7573580728,99903.87185106592,738927.0222117011,5.399455887476052e-06,0.0,0.0,0.0,5.399455887476052e-06,0.0,23.995059556481564,2.128161801009634,0.07389270222117011,0.0
7223,0.3448275862068966,5.517241379310345,2.857142857142857,0,167991.46237359557,845344.6747792616,668206.4013116503,688309.0828640717,344321.0147574282,1.1199430824906371e-06,0.0,0.0,0.0,1.1199430824906371e-06,0.0,23.75873236872441,2.4253670243827923,0.01845736085083502,0.0
7224,0.3448275862068966,5.517241379310345,3.2142857142857144,0,302721.3890589762,649918.0445377114,410374.97427343694,309682.0507958706,84395.5053513191,2.018142593726508e-06,0.0,0.0,0.0,2.018142593726508e-06,0.0,23.528247417625536,2.714059769290596,0.003333411337934928,0.0
7225,0.3448275862068966,5.517241379310345,3.5714285714285716,0,118823.96480850225,411430.1850980237,390411.40214969096,283499.361656178,-39498.2166400416,7.92159765390015e-07,0.0,0.0,0.0,7.92159765390015e-07,0.0,23.44680430282577,3.0025816547406095,-0.001390641782650893,0.0
7226,0.3448275862068966,5.517241379310345,3.928571428571429,0,112043.13382947598,344916.80681943457,218643.15247456665,257389.67415230704,-39272.15004231091,7.469542255298398e-07,0.0,0.0,0.0,7.469542255298398e-07,0.0,24.149573377010487,3.2961926341350813,-0.001331454985719989,0.0
7227,0.3448275862068966,5.517241379310345,4.285714285714286,0,260392.1038522173,493169.8187704581,325496.8214253538,193188.9881815557,50042.58880927715,1.735947359014782e-06,0.0,0.0,0.0,1.735947359014782e-06,0.0,23.46283376831127,3.5950485954362867,0.001676759153079141,0.0
7228,0.3448275862068966,5.517241379310345,4.642857142857143,0,447131.8566544213,496814.688199079,212415.63235059162,-18566.806076161738,12139.858494901071,2.9808790443628087e-06,0.0,0.0,0.0,2.9808790443628087e-06,0.0,23.45326976843186,3.8969673252080126,0.0004053017125409867,0.0
7229,0.3448275862068966,5.517241379310345,5.0,0,270606.4655273068,474808.95068973064,258394.24659409342,171405.88641036788,44653.62066989447,1.8040431035153784e-06,0.0,0.0,0.0,1.8040431035153784e-06,0.0,23.933632995765326,4.200102626418649,0.0014891695801578595,0.0
7230,0.6896551724137931,5.517241379310345,0.0,0,205553.10234301625,394387.7683605515,293866.37782937847,157918.4121334027,-58005.713052463674,1.3703540156201084e-06,0.0,0.0,0.0,1.3703540156201084e-06,0.0,23.26909608238584,-0.04989076078145035,-0.0019344532886071731,0.0
7231,0.6896551724137931,5.517241379310345,0.35714285714285715,0,258898.4088740406,363670.08304213814,199675.39416593694,65206.361000474426,-34830.94398804821,1.725989392493604e-06,0.0,0.0,0.0,1.725989392493604e-06,0.0,23.806956505634137,0.25414489730035744,-0.0011628670345461194,0.0
7232,0.6896551724137931,5.517241379310345,0.7142857142857143,0,295699.748376059,322581.21422270034,297333.82759564393,15067.256079960487,10687.151446172147,1.9713316558403933e-06,0.0,0.0,0.0,1.9713316558403933e-06,0.0,23.50451033484408,0.5594755173914288,0.0003580905671368878,0.0
7233,0.6896551724137931,5.517241379310345,1.0714285714285714,0,117221.50124450805,298677.5227509615,299131.54667121393,181683.69291780386,-30184.454825443445,7.81476674963387e-07,0.0,0.0,0.0,7.81476674963387e-07,0.0,23.438117834715037,0.8680662574274864,-0.0010233522439000028,0.0
7234,0.6896551724137931,5.517241379310345,1.4285714285714286,0,342903.7022006184,459980.2698075643,276953.22961592407,64396.40274922607,-55675.970676770026,2.286024681337456e-06,0.0,0.0,0.0,2.286024681337456e-06,0.0,23.653598841941875,1.182239943184002,-0.001960223465741788,0.0
7235,0.6896551724137931,5.517241379310345,1.7857142857142858,0,91679.2909592054,470119.2657528183,572760.6897805443,498997.9202417335,-1569.184778431627,6.111952730613694e-07,0.0,0.0,0.0,6.111952730613694e-07,0.0,24.160536832302476,1.5018306419566607,-6.197887328198975e-05,0.0
7236,0.6896551724137931,5.517241379310345,2.142857142857143,0,286365.41197096533,729240.7530873249,651276.7476130676,411966.8899569965,314048.4799855055,1.9091027464731023e-06,0.0,0.0,0.0,1.9091027464731023e-06,0.0,23.87642490133677,1.8212394718314613,0.016834598735811446,0.0
7237,0.6896551724137931,5.517241379310345,2.5,0,520620.9766946135,1317858.1284493878,985735.9071031945,717841.5777360655,662162.0426704101,3.4708065112974236e-06,0.0,0.0,0.0,3.4708065112974236e-06,0.0,23.93934403880029,2.1315873161654686,0.06621620426704102,0.0
7238,0.6896551724137931,5.517241379310345,2.857142857142857,0,782294.748217054,1256149.5704429299,963588.1569018038,369739.8630460587,499388.006869038,5.215298321447026e-06,0.0,0.0,0.0,5.215298321447026e-06,0.0,24.176988765411068,2.428382328974318,0.026769741759313462,0.0
7239,0.6896551724137931,5.517241379310345,3.2142857142857144,0,298339.46509109205,662636.444060267,400373.54676954704,338062.32701068214,47.571853988207295,1.9889297672739468e-06,0.0,0.0,0.0,1.9889297672739468e-06,0.0,24.11409742647281,2.716116356242375,1.878969226983799e-06,0.0
7240,0.6896551724137931,5.517241379310345,3.5714285714285716,0,301116.3642435269,523746.4215537154,355509.796637125,176106.96508085314,-37532.5837250938,2.0074424282901793e-06,0.0,0.0,0.0,2.0074424282901793e-06,0.0,23.717692321443355,3.0036685146125737,-0.0013214363477374294,0.0
7241,0.6896551724137931,5.517241379310345,3.928571428571429,0,134647.44744695822,350880.5319200378,211262.02023232408,221826.54213668063,-53306.78521847454,8.976496496463881e-07,0.0,0.0,0.0,8.976496496463881e-07,0.0,24.089981806173924,3.296637685998916,-0.0018072752542291441,0.0
7242,0.6896551724137931,5.517241379310345,4.285714285714286,0,234336.8318882303,262359.66243031796,176742.8709415943,-2745.9994708615322,20533.2321400911,1.5622455459215354e-06,0.0,0.0,0.0,1.5622455459215354e-06,0.0,23.732236171830028,3.595189803105715,0.0006879996769234663,0.0
7243,0.6896551724137931,5.517241379310345,4.642857142857143,0,181490.01870644724,400762.200689843,235975.474374421,206241.1067392936,4456.350616471268,1.2099334580429815e-06,0.0,0.0,0.0,1.2099334580429815e-06,0.0,24.04030525142404,3.8970020401575005,0.00014877986735162561,0.0
7244,0.6896551724137931,5.517241379310345,5.0,0,228427.48550878273,397621.2894353064,152600.37384907642,190537.31729030152,-34442.29099812291,1.5228499033918848e-06,0.0,0.0,0.0,1.5228499033918848e-06,0.0,24.3467349921621,4.20010923921855,-0.0011486282916343574,0.0
7245,1.0344827586206897,5.517241379310345,0.0,0,188939.90645631604,326607.17019512336,165013.87327038494,118869.61798826975,-26751.813335780873,1.2595993763754402e-06,0.0,0.0,0.0,1.2595993763754402e-06,0.0,24.11771676816741,-0.04988415553420404,-0.0008921557991503486,0.0
7246,1.0344827586206897,5.517241379310345,0.35714285714285715,0,186265.8915855883,306443.89749118657,263533.73222660343,102467.5266322918,-3991.150606614333,1.2417726105705888e-06,0.0,0.0,0.0,1.2417726105705888e-06,0.0,23.238928346747457,0.2541795726009765,-0.0001332486846159873,0.0
7247,1.0344827586206897,5.517241379310345,0.7142857142857143,0,244636.12371391684,385258.64954604325,192968.2845339019,109906.47870415483,-2171.7228219485064,1.6309074914261123e-06,0.0,0.0,0.0,1.6309074914261123e-06,0.0,23.61847555195136,0.5596165637838144,-7.276714107520248e-05,0.0
7248,1.0344827586206897,5.517241379310345,1.0714285714285714,0,122325.96228399331,267237.5566208017,280302.10898520285,151968.23530796397,-34393.43888368856,8.155064152266221e-07,0.0,0.0,0.0,8.155064152266221e-07,0.0,24.195385508060635,0.8685108009857277,-0.0011660506396621068,0.0
7249,1.0344827586206897,5.517241379310345,1.4285714285714286,0,68091.71999796941,326955.61332461797,293936.2434100279,248649.7048571887,11716.240132023304,4.5394479998646277e-07,0.0,0.0,0.0,4.5394479998646277e-07,0.0,22.798796494924797,1.1833255617243443,0.00041250199247339135,0.0
7250,1.0344827586206897,5.517241379310345,1.7857142857142858,0,378458.2775845903,442389.7726493387,593025.7991395135,162444.1394081394,-17891.654997863807,2.5230551838972686e-06,0.0,0.0,0.0,2.5230551838972686e-06,0.0,24.04286455087891,1.5038848800256797,-0.0007066756147265273,0.0
7251,1.0344827586206897,5.517241379310345,2.142857142857143,0,714965.7128625116,834920.383305933,660770.7167205531,48967.956446136064,313661.0777540716,4.766438085750078e-06,0.0,0.0,0.0,4.766438085750078e-06,0.0,24.019484253733527,1.824251332563262,0.0168138320022299,0.0
7252,1.0344827586206897,5.517241379310345,2.5,0,125016.76668405054,755794.2653729181,891437.6747598794,866392.6117011186,540210.3096698347,8.334451112270037e-07,0.0,0.0,0.0,8.334451112270037e-07,0.0,25.25421559209085,2.1350089189491617,0.05402103096698346,0.0
7253,1.0344827586206897,5.517241379310345,2.857142857142857,0,243214.35367596665,708620.1243107476,640664.7709814587,438655.6380582857,342567.05309862504,1.6214290245064443e-06,0.0,0.0,0.0,1.6214290245064443e-06,0.0,24.111416403891546,2.4313941897061193,0.01836333956875363,0.0
7254,1.0344827586206897,5.517241379310345,3.2142857142857144,0,274788.24950144405,475896.92053264024,422386.3956477315,178289.207743186,125486.3575753659,1.8319216633429604e-06,0.0,0.0,0.0,1.8319216633429604e-06,0.0,23.845765808914045,2.718170594311394,0.004956397208081215,0.0
7255,1.0344827586206897,5.517241379310345,3.5714285714285716,0,117174.64649680816,366656.47357244574,360880.61238889233,246700.71071089822,-9476.139759992871,7.81164309978721e-07,0.0,0.0,0.0,7.81164309978721e-07,0.0,24.48658315144744,3.004754133152916,-0.00033363318674814,0.0
7256,1.0344827586206897,5.517241379310345,3.928571428571429,0,71253.81894985953,233842.31245294586,277524.9524014673,195301.70681792148,226.6124430986167,4.750254596657302e-07,0.0,0.0,0.0,4.750254596657302e-07,0.0,23.73728144742758,3.297082229557157,7.68290676382041e-06,0.0
7257,1.0344827586206897,5.517241379310345,4.285714285714286,0,145302.45330491324,328718.6353727525,239732.2399837225,161043.17835013088,-63988.0483191719,9.68683022032755e-07,0.0,0.0,0.0,9.68683022032755e-07,0.0,23.93535046951046,3.5953308494981,-0.002144024684968964,0.0
7258,1.0344827586206897,5.517241379310345,4.642857142857143,0,263785.80773186794,402395.7886256629,238685.34571910993,98094.79732440937,63500.41075004364,1.7585720515457862e-06,0.0,0.0,0.0,1.7585720515457862e-06,0.0,23.963375685044852,3.89703671545812,0.0021200267890155913,0.0
7259,1.0344827586206897,5.517241379310345,5.0,0,137933.0251142981,330717.25544655015,260055.37115134508,171771.21309646475,-59909.57305551887,9.195535007619873e-07,0.0,0.0,0.0,9.195535007619873e-07,0.0,24.22379606701489,4.200115844465796,-0.001997945797364487,0.0
7260,1.3793103448275863,5.517241379310345,0.0,0,210947.96218843307,384436.96037760796,166239.898966997,181575.03305462902,-2435.1204934408174,1.4063197479228872e-06,0.0,0.0,0.0,1.4063197479228872e-06,0.0,23.493371767835967,-0.049877559959333934,-8.12097050238957e-05,0.0
7261,1.3793103448275863,5.517241379310345,0.35714285714285715,0,309710.2255708392,372326.1661296607,163778.91694917975,16454.73259112895,-74906.12790702876,2.0647348371389278e-06,0.0,0.0,0.0,2.0647348371389278e-06,0.0,24.376502577098165,0.25421419712491156,-0.0025008184348511513,0.0
7262,1.3793103448275863,5.517241379310345,0.7142857142857143,0,189470.81672168462,340712.0721038956,290450.36635436636,131178.0980772833,-24340.40239947695,1.263138778144564e-06,0.0,0.0,0.0,1.263138778144564e-06,0.0,23.701615127504155,0.5597574036352913,-0.0008155651712684045,0.0
7263,1.3793103448275863,5.517241379310345,1.0714285714285714,0,178139.07386651417,308308.2986007072,325910.4703190204,139623.74475591857,52912.52464479249,1.1875938257767612e-06,0.0,0.0,0.0,1.1875938257767612e-06,0.0,24.998937607477483,0.8689546935777942,0.0017939085247290726,0.0
7264,1.3793103448275863,5.517241379310345,1.4285714285714286,0,184786.4054961131,354602.29965844715,181527.94872325135,159991.22612825298,44847.20133972521,1.2319093699740873e-06,0.0,0.0,0.0,1.2319093699740873e-06,0.0,23.21739818030497,1.1844095905420704,0.001578967288228264,0.0
7265,1.3793103448275863,5.517241379310345,1.7857142857142858,0,343255.3899385447,582934.5959323033,286319.98885887966,206945.29074664426,103077.9723391436,2.288369266256965e-06,0.0,0.0,0.0,2.288369266256965e-06,0.0,23.600009257102514,1.5059361099766568,0.004071322047972946,0.0
7266,1.3793103448275863,5.517241379310345,2.142857142857143,0,215724.98405925924,690533.4829011051,695657.1851421046,477415.9898463296,268136.3439649471,1.4381665603950615e-06,0.0,0.0,0.0,1.4381665603950615e-06,0.0,22.968779184395082,1.8272587828848277,0.014373474303539815,0.0
7267,1.3793103448275863,5.517241379310345,2.5,0,344688.27456799266,549643.6976356672,711151.1149791185,315363.2458867392,654193.0679861763,2.2979218304532844e-06,0.0,0.0,0.0,2.2979218304532844e-06,0.0,25.47058433740886,2.1384255113179376,0.06541930679861764,0.0
7268,1.3793103448275863,5.517241379310345,2.857142857142857,0,458108.9925527456,822947.3994215832,625815.388023497,299271.90592051495,301859.85309381946,3.0540599503516376e-06,0.0,0.0,0.0,3.0540599503516376e-06,0.0,23.379439206118885,2.4344016400276844,0.01618122622825616,0.0
7269,1.3793103448275863,5.517241379310345,3.2142857142857144,0,189498.91958717778,391292.90294099547,444659.964001449,234199.91669055453,88151.71347068241,1.2633261305811853e-06,0.0,0.0,0.0,1.2633261305811853e-06,0.0,24.377653741697966,2.7202218242623712,0.0034817721621353036,0.0
7270,1.3793103448275863,5.517241379310345,3.5714285714285716,0,137471.36018625493,285083.90154249826,230113.24665165707,128633.28730596839,97876.90291446229,9.164757345750329e-07,0.0,0.0,0.0,9.164757345750329e-07,0.0,24.36588104302188,3.005838161970642,0.003446021677123822,0.0
7271,1.3793103448275863,5.517241379310345,3.928571428571429,0,239000.0288710547,303784.4284027732,232686.62295201988,37302.98066602292,33315.49472498715,1.5933335258070314e-06,0.0,0.0,0.0,1.5933335258070314e-06,0.0,23.554097060728033,3.2975261221492236,0.0011295047891577558,0.0
7272,1.3793103448275863,5.517241379310345,4.285714285714286,0,137883.66551353995,289239.6679172119,221266.1453219936,130566.87939542749,-1925.9041680186588,9.19224436756933e-07,0.0,0.0,0.0,9.19224436756933e-07,0.0,24.39835029920082,3.595471689349577,-6.453058321954547e-05,0.0
7273,1.3793103448275863,5.517241379310345,4.642857142857143,0,71089.03016495385,210905.9861814027,155273.5991419832,130817.15790873746,15002.09698103389,4.7392686776635896e-07,0.0,0.0,0.0,4.7392686776635896e-07,0.0,23.48207291392097,3.897071339982055,0.000500860500200464,0.0
7274,1.3793103448275863,5.517241379310345,5.0,0,181346.08397025015,303578.71625821776,224214.94577431167,96080.12707330668,41260.86415055037,1.208973893135001e-06,0.0,0.0,0.0,1.208973893135001e-06,0.0,23.614526163300745,4.2001224400406665,0.0013760233285058446,0.0
7275,1.7241379310344829,5.517241379310345,0.0,0,198412.9489133926,324937.64558802417,258032.94032541857,101720.9164083253,16951.020381103026,1.3227529927559507e-06,0.0,0.0,0.0,1.3227529927559507e-06,0.0,23.2714939331479,-0.049870977046245824,0.0005653056465630196,0.0
7276,1.7241379310344829,5.517241379310345,0.35714285714285715,0,258111.9239405784,210906.32756857976,172458.73939680602,-64272.74093675951,21328.473374640467,1.7207461596038559e-06,0.0,0.0,0.0,1.7207461596038559e-06,0.0,24.39200837950677,0.25424875517879925,0.0007120731092753205,0.0
7277,1.7241379310344829,5.517241379310345,0.7142857142857143,0,156726.40340338586,342780.703422059,199606.78894491075,175334.0143680426,35195.54977832161,1.0448426893559058e-06,0.0,0.0,0.0,1.0448426893559058e-06,0.0,23.082485087718286,0.5598979731110191,0.001179284718130188,0.0
7278,1.7241379310344829,5.517241379310345,1.0714285714285714,0,40022.833744131305,193668.89691090814,208694.73175532595,163333.49288643218,71406.23453668757,2.6681889162754204e-07,0.0,0.0,0.0,2.6681889162754204e-07,0.0,24.263377746683155,0.8693977340119609,0.002420906084411798,0.0
7279,1.7241379310344829,5.517241379310345,1.4285714285714286,0,368420.15091671975,465677.5103965584,210375.32882738163,43324.8677565159,-26469.360426631745,2.4561343394447984e-06,0.0,0.0,0.0,2.4561343394447984e-06,0.0,24.009581218596463,1.185491538307449,-0.000931925582989597,0.0
7280,1.7241379310344829,5.517241379310345,1.7857142857142858,0,288582.27716118854,430082.0386875252,391482.2736155653,124142.53172074682,82265.07473294772,1.923881847741257e-06,0.0,0.0,0.0,1.923881847741257e-06,0.0,24.947631105496338,1.5079834021015954,0.0032492646579855575,0.0
7281,1.7241379310344829,5.517241379310345,2.142857142857143,0,289357.3114022303,714538.5027834253,391586.0203029354,478873.8243936222,293779.46104316966,1.929048742681535e-06,0.0,0.0,0.0,1.929048742681535e-06,0.0,24.09715916957821,1.8302604596868617,0.01574807604135824,0.0
7282,1.7241379310344829,5.517241379310345,2.5,0,565939.3301072539,507809.6510941292,789604.4220378806,138088.68039006775,439870.22574068455,3.7729288673816922e-06,0.0,0.0,0.0,3.7729288673816922e-06,0.0,24.509571989702078,2.1418355447212565,0.04398702257406846,0.0
7283,1.7241379310344829,5.517241379310345,2.857142857142857,0,301409.5574019583,685689.1805567848,572979.4397840867,344167.5045207288,216920.6393288258,2.0093970493463886e-06,0.0,0.0,0.0,2.0093970493463886e-06,0.0,24.34599114666039,2.4374033168297187,0.01162805156956978,0.0
7284,1.7241379310344829,5.517241379310345,3.2142857142857144,0,311270.5246824716,490042.2523807247,240240.21610941653,141336.52798952252,126783.53246613755,2.075136831216477e-06,0.0,0.0,0.0,2.075136831216477e-06,0.0,24.04346069742718,2.72226911638731,0.00500763237125943,0.0
7285,1.7241379310344829,5.517241379310345,3.5714285714285716,0,173857.4159372215,321506.19410315645,340099.1945813601,157692.5377185605,-29329.762251032324,1.1590494395814766e-06,0.0,0.0,0.0,1.1590494395814766e-06,0.0,24.657253752350176,3.0069201097360208,-0.0010326337827656286,0.0
7286,1.7241379310344829,5.517241379310345,3.928571428571429,0,118806.39493126645,249806.93802123543,206521.05893795137,115426.65337800545,-39485.61657878618,7.920426328751096e-07,0.0,0.0,0.0,7.920426328751096e-07,0.0,24.294477253002412,3.29796916258339,-0.001338692203034757,0.0
7287,1.7241379310344829,5.517241379310345,4.285714285714286,0,110744.60005672926,221513.45684436543,151761.26476103932,93818.50379399426,-15379.29798425399,7.382973337115285e-07,0.0,0.0,0.0,7.382973337115285e-07,0.0,24.558609587910173,3.5956122588253048,-0.0005153086456280389,0.0
7288,1.7241379310344829,5.517241379310345,4.642857142857143,0,177531.4038025454,333956.8504954075,250830.4135243265,130113.33146949919,-48533.995776088435,1.1835426920169693e-06,0.0,0.0,0.0,1.1835426920169693e-06,0.0,23.65011225438161,3.8971058980359423,-0.0016203575694698374,0.0
7289,1.7241379310344829,5.517241379310345,5.0,0,170845.1819977267,273996.0374339851,217564.32671903673,82074.12619837718,-23034.897919954536,1.1389678799848446e-06,0.0,0.0,0.0,1.1389678799848446e-06,0.0,24.38287117435921,4.200129022953754,-0.0007681990564219776,0.0
7290,2.0689655172413794,5.517241379310345,0.0,0,294192.225419269,336359.5711771429,88864.83685691805,11095.870038955694,-27063.969153158232,1.9612815027951265e-06,0.0,0.0,0.0,1.9612815027951265e-06,0.0,24.550498875403743,-0.04986441114716161,-0.0009025659952449529,0.0
7291,2.0689655172413794,5.517241379310345,0.35714285714285715,0,151859.91905501307,230097.12768821052,152986.32352658993,55153.02399851964,2212.944677088752,1.0123994603667538e-06,0.0,0.0,0.0,1.0123994603667538e-06,0.0,23.609854822946346,0.25428322391495545,7.388144332648096e-05,0.0
7292,2.0689655172413794,5.517241379310345,0.7142857142857143,0,169824.1339234518,235562.7587465507,194999.90351698612,49130.11222390264,37296.784437474365,1.1321608928230119e-06,0.0,0.0,0.0,1.1321608928230119e-06,0.0,24.12215396811924,0.560038179275007,0.0012496900375058384,0.0
7293,2.0689655172413794,5.517241379310345,1.0714285714285714,0,266581.0354860659,309162.3287683854,71258.6659366426,21045.388984229492,-15492.39694737628,1.7772069032404393e-06,0.0,0.0,0.0,1.7772069032404393e-06,0.0,23.294656725167464,0.8698396293768288,-0.0005252431846515602,0.0
7294,2.0689655172413794,5.517241379310345,1.4285714285714286,0,69572.18850922318,208627.84318373413,221480.57274122196,146378.19380065845,30605.15612521506,4.6381459006148786e-07,0.0,0.0,0.0,4.6381459006148786e-07,0.0,23.375061323051824,1.1865706897023987,0.0010775374812525495,0.0
7295,2.0689655172413794,5.517241379310345,1.7857142857142858,0,167992.7194822095,335096.218959191,323719.3175222385,161704.2250929961,79851.94093296604,1.11995146321473e-06,0.0,0.0,0.0,1.11995146321473e-06,0.0,24.143357712606832,1.5100254028554159,0.003153951909571673,0.0
7296,2.0689655172413794,5.517241379310345,2.142857142857143,0,493313.0651118541,799481.4390636309,303732.64586657274,308640.7263988664,101690.01094753767,3.288753767412361e-06,0.0,0.0,0.0,3.288753767412361e-06,0.0,25.078148113106376,1.8332543784431614,0.005451102740000781,0.0
7297,2.0689655172413794,5.517241379310345,2.5,0,197405.12179045062,590572.9147177633,581714.2911517974,388887.6126569436,402508.1333756258,1.3160341452696708e-06,0.0,0.0,0.0,1.3160341452696708e-06,0.0,25.121538172317273,2.1452367646523585,0.040250813337562585,0.0
7298,2.0689655172413794,5.517241379310345,2.857142857142857,0,85517.21349450357,417075.18490357895,459886.6993099004,361418.795241093,222609.6147779821,5.701147566300237e-07,0.0,0.0,0.0,5.701147566300237e-07,0.0,24.035045646433495,2.4403972355860186,0.01193300964135809,0.0
7299,2.0689655172413794,5.517241379310345,3.2142857142857144,0,399254.4762474143,607842.3925232769,204312.9881975667,213004.77230353764,63488.675237346375,2.6616965083160952e-06,0.0,0.0,0.0,2.6616965083160952e-06,0.0,23.71649588309367,2.7243111171411303,0.0025076438488715216,0.0
7300,2.0689655172413794,5.517241379310345,3.5714285714285716,0,189923.95207713387,222784.8587991557,273034.2163109803,63038.34151622027,21491.705081420085,1.2661596805142258e-06,0.0,0.0,0.0,1.2661596805142258e-06,0.0,24.660541082798836,3.0079992611309705,0.0007566737338803001,0.0
7301,2.0689655172413794,5.517241379310345,3.928571428571429,0,122338.2367412219,275592.54624576925,230604.28988720113,137129.94493127023,8963.879766441829,8.155882449414793e-07,0.0,0.0,0.0,8.155882449414793e-07,0.0,23.199927533941008,3.298411057948258,0.00030390499103219475,0.0
7302,2.0689655172413794,5.517241379310345,4.285714285714286,0,129201.49772977312,261562.75832454648,165648.27588912932,114644.23144433193,-23087.03802017145,8.613433181984875e-07,0.0,0.0,0.0,8.613433181984875e-07,0.0,24.004852438388387,3.595752464989293,-0.0007735691385860535,0.0
7303,2.0689655172413794,5.517241379310345,4.642857142857143,0,89306.2989477737,112611.18782621616,169809.75935078276,215519.67620439964,-16287.498788526427,5.953753263184913e-07,0.0,0.0,0.0,5.953753263184913e-07,0.0,23.837087862370968,3.8971403667720987,-0.0005437749669628914,0.0
7304,2.0689655172413794,5.517241379310345,5.0,0,129085.78072544567,243379.2207636494,217336.51480749474,103257.62433435443,-38652.2819685026,8.605718715029711e-07,0.0,0.0,0.0,8.605718715029711e-07,0.0,24.17275091262438,4.200135588852839,-0.0012890287875353657,0.0
7305,2.413793103448276,5.517241379310345,0.0,0,135165.8652607622,270212.00735956436,163629.3713844829,118179.0192770583,1646.1796452474932,9.011057684050812e-07,0.0,0.0,0.0,9.011057684050812e-07,0.0,24.934109574580845,-0.04985786884488096,5.489903426421114e-05,0.0
7306,2.413793103448276,5.517241379310345,0.35714285714285715,0,180007.93568397663,265597.52611375035,77833.92226562015,94505.11150154192,-9106.985026668079,1.200052904559844e-06,0.0,0.0,0.0,1.200052904559844e-06,0.0,22.957035807123376,0.2543175687759217,-0.00030404609979136125,0.0
7307,2.413793103448276,5.517241379310345,0.7142857142857143,0,166119.19918125193,293775.7397608058,198401.140482656,101958.80161521233,13256.991435112692,1.1074613278750128e-06,0.0,0.0,0.0,1.1074613278750128e-06,0.0,24.411098045669718,0.560177881560201,0.0004441972779592909,0.0
7308,2.413793103448276,5.517241379310345,1.0714285714285714,0,120937.86804548191,236476.60934805116,137745.28557147016,101582.81053173362,18028.295264062665,8.062524536365461e-07,0.0,0.0,0.0,8.062524536365461e-07,0.0,24.43227289478845,0.8702799366395967,0.0006112184738423308,0.0
7309,2.413793103448276,5.517241379310345,1.4285714285714286,0,216287.487282093,340347.8875782361,185301.44828702672,93264.27042737805,-6198.39845944391,1.44191658188062e-06,0.0,0.0,0.0,1.44191658188062e-06,0.0,24.234895636774056,1.1876459627977942,-0.00021823141945308215,0.0
7310,2.413793103448276,5.517241379310345,1.7857142857142858,0,215076.51717154944,367900.8200230098,423137.065279279,185829.58634964837,56988.68763451675,1.4338434478103296e-06,0.0,0.0,0.0,1.4338434478103296e-06,0.0,24.41581376846528,1.5120600649812643,0.0022509105989014736,0.0
7311,2.413793103448276,5.517241379310345,2.142857142857143,0,110975.4823865197,453893.6091017366,425630.809351631,331519.57297074806,224813.50938319738,7.398365492434646e-07,0.0,0.0,0.0,7.398365492434646e-07,0.0,24.53199111884869,1.836237537528638,0.012051149621964049,0.0
7312,2.413793103448276,5.517241379310345,2.5,0,301873.72805124184,550834.203668824,520997.80096937285,235150.164011251,346404.3790291052,2.012491520341612e-06,0.0,0.0,0.0,2.012491520341612e-06,0.0,24.358760235607235,2.1486257611365893,0.03464043790291052,0.0
7313,2.413793103448276,5.517241379310345,2.857142857142857,0,129396.5182616352,447363.3869315264,507019.3147929325,358556.0414409626,187868.63930868247,8.62643455077568e-07,0.0,0.0,0.0,8.62643455077568e-07,0.0,23.26682627918483,2.443380394671495,0.01007071633637753,0.0
7314,2.413793103448276,5.517241379310345,3.2142857142857144,0,245455.57377961915,512897.3286302826,341841.3666201472,231656.97679732778,-51870.8843196581,1.6363704918641277e-06,0.0,0.0,0.0,1.6363704918641277e-06,0.0,23.84446423275791,2.7263457792669787,-0.0020487701706398617,0.0
7315,2.413793103448276,5.517241379310345,3.5714285714285716,0,123183.58148434323,207659.8023732453,153762.78426288103,66713.36208061427,-8044.583352168601,8.212238765622882e-07,0.0,0.0,0.0,8.212238765622882e-07,0.0,25.09259610737292,3.009074534226366,-0.00028323136296240785,0.0
7316,2.413793103448276,5.517241379310345,3.928571428571429,0,188719.1809434719,270392.2979347418,176348.49053931108,53130.11999528527,-15050.779389217281,1.2581278729564793e-06,0.0,0.0,0.0,1.2581278729564793e-06,0.0,23.71501858384769,3.298851365211026,-0.0005102708977011693,0.0
7317,2.413793103448276,5.517241379310345,4.285714285714286,0,98551.73359857468,235580.8840961105,175968.86340189044,121826.97659339364,-27245.063868139376,6.570115573238312e-07,0.0,0.0,0.0,6.570115573238312e-07,0.0,24.343575794427107,3.595892167274487,-0.0009128906258474674,0.0
7318,2.413793103448276,5.517241379310345,4.642857142857143,0,152803.9445105702,242930.3820004852,187109.2872662787,70064.49842599884,20317.491885008716,1.0186929634038014e-06,0.0,0.0,0.0,1.0186929634038014e-06,0.0,23.947339754132354,3.897174711633065,0.0006783204482153017,0.0
7319,2.413793103448276,5.517241379310345,5.0,0,232421.12875160223,315600.712087739,187925.03800695966,47327.62178563129,13050.35518656302,1.5494741916773481e-06,0.0,0.0,0.0,1.5494741916773481e-06,0.0,24.61014163607468,4.200142131155119,0.00043522096668831945,0.0
7320,2.7586206896551726,5.517241379310345,0.0,0,101760.33966088721,223058.2960468349,297672.3987725729,181754.16192237078,13538.966122136757,6.784022644059148e-07,0.0,0.0,0.0,6.784022644059148e-07,0.0,24.241454649339527,-0.04985136057013025,0.0004515158276844278,0.0
7321,2.7586206896551726,5.517241379310345,0.35714285714285715,0,199960.3431371298,274458.4292470042,113671.6264898611,50555.99724014656,16913.394153050805,1.3330689542475319e-06,0.0,0.0,0.0,1.3330689542475319e-06,0.0,24.674878957511968,0.2543517350039336,0.0005646711300623001,0.0
7322,2.7586206896551726,5.517241379310345,0.7142857142857143,0,211449.18529087954,247169.3085240585,219816.8183006902,23374.908749070404,-40.542495072761085,1.4096612352725302e-06,0.0,0.0,0.0,1.4096612352725302e-06,0.0,24.543763295943773,0.5603168572321192,-1.3584429047227e-06,0.0
7323,2.7586206896551726,5.517241379310345,1.0714285714285714,0,179564.98767442346,245064.88871169506,236744.11024107167,61484.159819063694,-143.24510290206115,1.1970999178294898e-06,0.0,0.0,0.0,1.1970999178294898e-06,0.0,24.16209138004761,0.8707179537959276,-4.856479877812651e-06,0.0
7324,2.7586206896551726,5.517241379310345,1.4285714285714286,0,261814.26452353664,428831.53477877827,234553.2769252144,131096.59831345745,28077.069769344565,1.745428430156911e-06,0.0,0.0,0.0,1.745428430156911e-06,0.0,23.247167419614218,1.1887156432308708,0.0009885293483370215,0.0
7325,2.7586206896551726,5.517241379310345,1.7857142857142858,0,108265.7714008705,299461.7451284352,239801.48245184374,174489.78781414914,72396.0913808887,7.217718093391367e-07,0.0,0.0,0.0,7.217718093391367e-07,0.0,23.933249982843172,1.5140841445134887,0.0028594645037865827,0.0
7326,2.7586206896551726,5.517241379310345,2.142857142857143,0,259518.12531740504,784108.2964776083,643913.8432854677,484645.00037936016,299163.3865104084,1.730120835449367e-06,0.0,0.0,0.0,1.730120835449367e-06,0.0,23.768038992814823,1.8392051807405374,0.016036681879758295,0.0
7327,2.7586206896551726,5.517241379310345,2.5,0,643574.3109258377,829778.9652733501,191882.44205739352,180673.29736435795,420022.81802701217,4.290495406172251e-06,0.0,0.0,0.0,4.290495406172251e-06,0.0,23.769004212277736,2.1519971309239203,0.042002281802701213,0.0
7328,2.7586206896551726,5.517241379310345,2.857142857142857,0,256390.5750219239,563597.9732141099,351181.0547890438,278796.6347057553,173626.6950916521,1.7092705001461594e-06,0.0,0.0,0.0,1.7092705001461594e-06,0.0,24.63241690450746,2.446348037883394,0.0093072755576717,0.0
7329,2.7586206896551726,5.517241379310345,3.2142857142857144,0,255722.38118549218,557858.3697535716,393122.91417176643,263262.9140502459,54296.65757916025,1.7048158745699479e-06,0.0,0.0,0.0,1.7048158745699479e-06,0.0,25.397695140452118,2.728369858799203,0.002144582146085986,0.0
7330,2.7586206896551726,5.517241379310345,3.5714285714285716,0,105740.07285000896,185155.54722592502,183863.08516111915,78775.16767619831,-13292.445918035046,7.049338190000597e-07,0.0,0.0,0.0,7.049338190000597e-07,0.0,23.1575352441925,3.010144214659442,-0.0004679965897120406,0.0
7331,2.7586206896551726,5.517241379310345,3.928571428571429,0,108748.64579671959,226374.18224033553,257625.69764234166,136672.94885439542,16680.0621483486,7.249909719781306e-07,0.0,0.0,0.0,7.249909719781306e-07,0.0,23.64173007314968,3.299289382367357,0.0005655089391747285,0.0
7332,2.7586206896551726,5.517241379310345,4.285714285714286,0,153977.46311218187,186031.77100900264,97551.29855268706,8234.567003443919,7063.925287228647,1.0265164207478792e-06,0.0,0.0,0.0,1.0265164207478792e-06,0.0,24.51563942835258,3.596031142946405,0.00023668842207923583,0.0
7333,2.7586206896551726,5.517241379310345,4.642857142857143,0,128280.12098958729,264700.17702256533,116789.96739175804,183837.33333462622,1257.998421016439,8.552008065972486e-07,0.0,0.0,0.0,8.552008065972486e-07,0.0,24.277621525569806,3.8972088778610767,4.1999576405768875e-05,0.0
7334,2.7586206896551726,5.517241379310345,5.0,0,44286.48374064692,190068.94512675353,145151.19787048866,146441.94384931502,-9584.940277467655,2.9524322493764613e-07,0.0,0.0,0.0,2.9524322493764613e-07,0.0,24.635722269466264,4.2001486394298695,-0.00031965160438732226,0.0
7335,3.1034482758620694,5.517241379310345,0.0,0,177480.5748572424,267592.5505430088,192942.1178265491,64980.192751782946,24642.960355479656,1.183203832381616e-06,0.0,0.0,0.0,1.183203832381616e-06,0.0,24.41494478079251,-0.049844903834056674,0.0008218269062145267,0.0
7336,3.1034482758620694,5.517241379310345,0.35714285714285715,0,88768.75344359246,237127.47428856164,161481.00444005034,139403.48571693516,22756.780646765757,5.917916896239497e-07,0.0,0.0,0.0,5.917916896239497e-07,0.0,25.101844396153897,0.2543856306714265,0.0007597586225513007,0.0
7337,3.1034482758620694,5.517241379310345,0.7142857142857143,0,68418.85343388714,223408.62915113365,148733.33783452734,163736.25369162814,-13846.115027557014,4.561256895592476e-07,0.0,0.0,0.0,4.561256895592476e-07,0.0,24.732974890571242,0.5604547323631786,-0.0004639368317959373,0.0
7338,3.1034482758620694,5.517241379310345,1.0714285714285714,0,227165.1961623407,274362.8757789034,250521.89411770954,36217.426019041355,-31108.389896688037,1.5144346410822713e-06,0.0,0.0,0.0,1.5144346410822713e-06,0.0,24.89102061182927,0.871152502317995,-0.0010546766800657028,0.0
7339,3.1034482758620694,5.517241379310345,1.4285714285714286,0,205958.20244739222,279948.91476662457,296638.39341265295,82843.22909067746,9027.503794219574,1.3730546829826147e-06,0.0,0.0,0.0,1.3730546829826147e-06,0.0,24.966249313429977,1.1897768529222248,0.00031783774147804125,0.0
7340,3.1034482758620694,5.517241379310345,1.7857142857142858,0,61973.057214101216,331519.32275692094,261530.8694823359,283607.1966527769,94897.96093834747,4.1315371476067475e-07,0.0,0.0,0.0,4.1315371476067475e-07,0.0,23.865703878688638,1.516092195468941,0.003748232060723707,0.0
7341,3.1034482758620694,5.517241379310345,2.142857142857143,0,738070.7248930486,979674.5119130093,224812.3313544236,259627.43949642187,157588.1592724023,4.920471499286991e-06,0.0,0.0,0.0,4.920471499286991e-06,0.0,24.760335681563014,1.8421493233457185,0.008447528314699942,0.0
7342,3.1034482758620694,5.517241379310345,2.5,0,412126.32119165576,666801.3417232586,198365.77606344942,359959.9040851667,461027.7026494129,2.7475088079443717e-06,0.0,0.0,0.0,2.7475088079443717e-06,0.0,24.792910585968833,2.1553418030155322,0.04610277026494129,0.0
7343,3.1034482758620694,5.517241379310345,2.857142857142857,0,182168.03687619301,349404.8380938654,469569.5517911635,259969.55435833186,185266.2667356158,1.2144535791746201e-06,0.0,0.0,0.0,1.2144535791746201e-06,0.0,24.305371570367175,2.4492921804885754,0.009931215906282532,0.0
7344,3.1034482758620694,5.517241379310345,3.2142857142857144,0,107256.17316502481,352415.22362788813,352250.31108149985,245076.68927566474,1545.2597186194325,7.150411544334988e-07,0.0,0.0,0.0,7.150411544334988e-07,0.0,24.306917559982725,2.7303779097546554,6.103389327023732e-05,0.0
7345,3.1034482758620694,5.517241379310345,3.5714285714285716,0,67712.96491345773,220859.91801059365,210817.50054807772,148686.58343061386,31267.170289042624,4.514197660897182e-07,0.0,0.0,0.0,4.514197660897182e-07,0.0,24.3256525598445,3.0112054243507966,0.0011008454843787468,0.0
7346,3.1034482758620694,5.517241379310345,3.928571428571429,0,166289.18280885808,296638.09727018175,174592.15088610584,107238.01339384278,16719.22447874503,1.1085945520590539e-06,0.0,0.0,0.0,1.1085945520590539e-06,0.0,24.050700675108722,3.2997239308894244,0.0005668366709134432,0.0
7347,3.1034482758620694,5.517241379310345,4.285714285714286,0,232150.29348909514,262994.0743904147,133208.49094306378,-5025.612435795264,-3759.6178183978577,1.5476686232606344e-06,0.0,0.0,0.0,1.5476686232606344e-06,0.0,23.804944113764186,3.596169018077464,-0.0001259721716856778,0.0
7348,3.1034482758620694,5.517241379310345,4.642857142857143,0,117882.46180226732,265953.3023113402,204684.08633662123,130053.13879442749,19446.342566083735,7.858830786817822e-07,0.0,0.0,0.0,7.858830786817822e-07,0.0,25.57270014477669,3.8972427735285695,0.0006492362285773621,0.0
7349,3.1034482758620694,5.517241379310345,5.0,0,109639.10782787603,228038.45297395164,255039.11721031123,134422.22678582123,16832.5623364633,7.309273855191735e-07,0.0,0.0,0.0,7.309273855191735e-07,0.0,25.044694752148995,4.200155096165943,0.0005613551468284843,0.0
7350,3.4482758620689657,5.517241379310345,0.0,0,188375.5473535064,238633.26011362288,64863.033482008104,38442.02122187381,-37565.611645070174,1.2558369823567093e-06,0.0,0.0,0.0,1.2558369823567093e-06,0.0,24.54564909460574,-0.049838530269078814,-0.0012527890299291727,0.0
7351,3.4482758620689657,5.517241379310345,0.35714285714285715,0,170076.63025753936,234050.08328780066,173044.76337367157,41884.739428758214,2130.453990816279,1.133844201716929e-06,0.0,0.0,0.0,1.133844201716929e-06,0.0,23.803692479666083,0.2544190897189657,7.112740657811548e-05,0.0
7352,3.4482758620689657,5.517241379310345,0.7142857142857143,0,121490.41588767768,249493.4780211816,128309.89549157476,127698.5361305455,35833.947588649884,8.099361059178512e-07,0.0,0.0,0.0,8.099361059178512e-07,0.0,24.81503414989407,0.560590831484565,0.0012006752855897027,0.0
7353,3.4482758620689657,5.517241379310345,1.0714285714285714,0,195276.14374779948,304937.79921221826,105012.48711883056,114669.13835254208,12547.54028248563,1.3018409583186632e-06,0.0,0.0,0.0,1.3018409583186632e-06,0.0,24.364798064527665,0.8715814532941336,0.0004254028630884408,0.0
7354,3.4482758620689657,5.517241379310345,1.4285714285714286,0,279946.7767216653,324050.7709751865,143927.52855445808,1530.7428363299261,-75609.11283950339,1.8663118448111018e-06,0.0,0.0,0.0,1.8663118448111018e-06,0.0,24.473298240981617,1.1908243928628246,-0.0026620237673512536,0.0
7355,3.4482758620689657,5.517241379310345,1.7857142857142858,0,328997.5972090699,478467.0943634114,337501.4033062798,102474.96185991517,-751.7038188503284,2.1933173147271326e-06,0.0,0.0,0.0,2.1933173147271326e-06,0.0,25.680270049968072,1.5180743801358676,-2.9690420385467887e-05,0.0
7356,3.4482758620689657,5.517241379310345,2.142857142857143,0,355589.15603199037,708824.3331635299,503300.7686461037,298225.4247998232,307228.0834957797,2.3705943735466023e-06,0.0,0.0,0.0,2.3705943735466023e-06,0.0,25.510045563944796,1.8450555415935117,0.01646899073118436,0.0
7357,3.4482758620689657,5.517241379310345,2.5,0,433717.17058450443,892385.5551092051,752235.9500260352,405922.53202565794,395267.57395522133,2.8914478038966964e-06,0.0,0.0,0.0,2.8914478038966964e-06,0.0,23.383286206833716,2.158643391412922,0.03952675739552214,0.0
7358,3.4482758620689657,5.517241379310345,2.857142857142857,0,432716.9836429714,681576.3753782149,452238.03978920507,182463.53966210329,315319.9732912493,2.8847798909531425e-06,0.0,0.0,0.0,2.8847798909531425e-06,0.0,24.753204354320946,2.452198398736369,0.016902757255790445,0.0
7359,3.4482758620689657,5.517241379310345,3.2142857142857144,0,309951.4679547914,466178.15777542745,151521.18903691432,161156.89597427388,134814.89000834458,2.0663431196986093e-06,0.0,0.0,0.0,2.0663431196986093e-06,0.0,24.6580692827421,2.732360094421582,0.0053248509029662685,0.0
7360,3.4482758620689657,5.517241379310345,3.5714285714285716,0,267611.62376260955,375835.66176271293,198085.40788353272,68055.03784491598,-3408.3145098931977,1.7840774917507304e-06,0.0,0.0,0.0,1.7840774917507304e-06,0.0,24.75759412678164,3.012252964291396,-0.00011999895106828268,0.0
7361,3.4482758620689657,5.517241379310345,3.928571428571429,0,100663.41045152674,226532.2748206428,110451.77130432629,173698.723676248,-15975.803051353058,6.710894030101783e-07,0.0,0.0,0.0,6.710894030101783e-07,0.0,24.305842062702418,3.300152881865563,-0.0005416322406766039,0.0
7362,3.4482758620689657,5.517241379310345,4.285714285714286,0,97038.0118323544,210206.50662842864,116316.71897821734,110300.24413119722,-25513.649237924914,6.469200788823627e-07,0.0,0.0,0.0,6.469200788823627e-07,0.0,24.590934053137403,3.5963051171988507,-0.0008548767341191275,0.0
7363,3.4482758620689657,5.517241379310345,4.642857142857143,0,132731.09758530775,192843.3962329299,206316.90926552264,67362.93525800499,19168.782303069704,8.848739839020517e-07,0.0,0.0,0.0,8.848739839020517e-07,0.0,24.047275902425884,3.897276232576109,0.0006399695925634281,0.0
7364,3.4482758620689657,5.517241379310345,5.0,0,193056.8376360543,262001.1786377472,186744.29985022484,42649.75169314271,-15233.020742056551,1.287045584240362e-06,0.0,0.0,0.0,1.287045584240362e-06,0.0,25.11770774573988,4.200161469730921,-0.0005080114616165554,0.0
7365,3.793103448275862,5.517241379310345,0.0,0,157856.1085571584,165728.87488307903,215311.50527530807,38616.52626113389,-10593.854830465452,1.0523740570477228e-06,0.0,0.0,0.0,1.0523740570477228e-06,0.0,25.128310268793594,-0.049832302691019965,-0.00035329825697143924,0.0
7366,3.793103448275862,5.517241379310345,0.35714285714285715,0,108950.51068743167,287774.5678704731,165563.55276732726,200812.44376440565,-29202.602286823123,7.263367379162111e-07,0.0,0.0,0.0,7.263367379162111e-07,0.0,25.450064552542138,0.2544517823848519,-0.0009749590345286144,0.0
7367,3.793103448275862,5.517241379310345,0.7142857142857143,0,148657.4967987971,258495.6593190547,226768.97488601098,96536.0663783992,-11427.557766241034,9.910499786586473e-07,0.0,0.0,0.0,9.910499786586473e-07,0.0,24.247444345994506,0.5607238132467527,-0.00038289909730515506,0.0
7368,3.793103448275862,5.517241379310345,1.0714285714285714,0,218006.90202607057,334047.2896038157,168073.34193648843,87150.29212059849,-19066.78491061175,1.4533793468404705e-06,0.0,0.0,0.0,1.4533793468404705e-06,0.0,24.77388579420192,0.8720005791203549,-0.0006464266866859535,0.0
7369,3.793103448275862,5.517241379310345,1.4285714285714286,0,170679.99698068344,273879.7715041026,292142.3018085182,113065.39428944554,-58732.52890434932,1.1378666465378897e-06,0.0,0.0,0.0,1.1378666465378897e-06,0.0,25.665496196420268,1.1918479388331729,-0.002067837883403067,0.0
7370,3.793103448275862,5.517241379310345,1.7857142857142858,0,277732.68275867397,434805.15587692376,348505.26527231093,124167.47303595161,9730.591975949923,1.8515512183911599e-06,0.0,0.0,0.0,1.8515512183911599e-06,0.0,24.310851711071837,1.5200111627344928,0.00038433404104195153,0.0
7371,3.793103448275862,5.517241379310345,2.142857142857143,0,501172.0311685644,822227.1556016043,442258.52183711994,254233.20545324028,303375.8825338944,3.341146874457096e-06,0.0,0.0,0.0,3.341146874457096e-06,0.0,24.148547428790597,1.847895192723929,0.016262493131049372,0.0
7372,3.793103448275862,5.517241379310345,2.5,0,600220.0002870063,1008682.7493731168,586596.3728372734,321565.65213552106,562482.8066561227,4.001466668580042e-06,0.0,0.0,0.0,4.001466668580042e-06,0.0,24.80813302553486,2.161869356714028,0.05624828066561227,0.0
7373,3.793103448275862,5.517241379310345,2.857142857142857,0,271386.5708764253,580166.2962784183,467659.98046421964,270619.99292813515,246105.31328751752,1.8092438058428354e-06,0.0,0.0,0.0,1.8092438058428354e-06,0.0,25.245276267738006,2.455038049866786,0.01319249880189753,0.0
7374,3.793103448275862,5.517241379310345,3.2142857142857144,0,399043.55103568104,469713.29986427625,461947.1375429602,66843.35091814163,49269.50667954291,2.6602903402378734e-06,0.0,0.0,0.0,2.6602903402378734e-06,0.0,24.333897929619738,2.734296877020207,0.0019460222614507043,0.0
7375,3.793103448275862,5.517241379310345,3.5714285714285716,0,133462.49607934995,335029.24132229947,237010.16681937646,183032.16290724225,13025.565801201292,8.89749973862333e-07,0.0,0.0,0.0,8.89749973862333e-07,0.0,25.638613532180294,3.0132765102617443,0.00045860035178033786,0.0
7376,3.793103448275862,5.517241379310345,3.928571428571429,0,185230.76034209348,292609.5815326233,190496.40434548064,78795.17020702332,53609.1585717982,1.2348717356139565e-06,0.0,0.0,0.0,1.2348717356139565e-06,0.0,24.219045840237335,3.300572007691784,0.0018175267048983312,0.0
7377,3.793103448275862,5.517241379310345,4.285714285714286,0,155889.68653480013,250388.87285497735,172381.77105985806,70894.17127502538,-26683.311483846595,1.0392645768986676e-06,0.0,0.0,0.0,1.0392645768986676e-06,0.0,25.010744095320952,3.5964380989610385,-0.0008940681893081265,0.0
7378,3.793103448275862,5.517241379310345,4.642857142857143,0,229326.42851687272,330935.8105308282,228821.43928834255,68289.15871238026,-33248.07274213818,1.5288428567791514e-06,0.0,0.0,0.0,1.5288428567791514e-06,0.0,24.348061433929168,3.8973089252419952,-0.0011100212433889428,0.0
7379,3.793103448275862,5.517241379310345,5.0,0,151353.72883991114,163834.0985993816,221650.79286101743,49910.81886752689,-1358.8729239584075,1.009024858932741e-06,0.0,0.0,0.0,1.009024858932741e-06,0.0,24.45816528890324,4.20016769730898,-4.531753957016374e-05,0.0
7380,4.137931034482759,5.517241379310345,0.0,0,111596.18505122673,254077.47036847734,179016.70054218045,125838.10495835496,10937.167625494585,7.439745670081782e-07,0.0,0.0,0.0,7.439745670081782e-07,0.0,25.124075500272298,-0.049826362147073006,0.000364747518266863,0.0
7381,4.137931034482759,5.517241379310345,0.35714285714285715,0,159184.20827156064,302360.7423863119,130112.1484152026,160671.81124128896,-925.9094081699135,1.0612280551437376e-06,0.0,0.0,0.0,1.0612280551437376e-06,0.0,24.612886690788812,0.25448296821931354,-3.091244176748005e-05,0.0
7382,4.137931034482759,5.517241379310345,0.7142857142857143,0,206059.65699377266,303843.49756233225,144651.3777268272,71100.50173954802,-37983.10754772049,1.373731046625151e-06,0.0,0.0,0.0,1.373731046625151e-06,0.0,23.962661811772634,0.5608506657719168,-0.001272686420875629,0.0
7383,4.137931034482759,5.517241379310345,1.0714285714285714,0,307812.53625874413,364406.9382526582,190203.05522149926,8998.618075127426,25560.977725629036,2.052083575058294e-06,0.0,0.0,0.0,2.052083575058294e-06,0.0,24.327637771212974,0.8724003870981027,0.0008666011714662854,0.0
7384,4.137931034482759,5.517241379310345,1.4285714285714286,0,313193.45406617067,413177.94929795666,323232.8281366317,64853.20716200273,-414.5643218396963,2.087956360441138e-06,0.0,0.0,0.0,2.087956360441138e-06,0.0,25.092547311528097,1.1928243087415278,-1.459586068911709e-05,0.0
7385,4.137931034482759,5.517241379310345,1.7857142857142858,0,261786.92267446674,450184.9298557698,310326.5295669217,148173.60247003814,76761.97701997467,1.7452461511631115e-06,0.0,0.0,0.0,1.7452461511631115e-06,0.0,24.935175195181316,1.5218586774559664,0.003031906064849277,0.0
7386,4.137931034482759,5.517241379310345,2.142857142857143,0,683521.5385957652,891294.2475437069,411118.07057492656,108735.12478370026,376643.31024370436,4.556810257305102e-06,0.0,0.0,0.0,4.556810257305102e-06,0.0,25.1039536423909,1.8506039620359924,0.020190000584537605,0.0
7387,4.137931034482759,5.517241379310345,2.5,0,454688.07381878595,713466.8846381612,289531.32506276463,233263.71294876153,358460.86023176066,3.031253825458573e-06,0.0,0.0,0.0,3.031253825458573e-06,0.0,24.44456758566491,2.16494663466406,0.035846086023176064,0.0
7388,4.137931034482759,5.517241379310345,2.857142857142857,0,580261.222059481,839091.0865901153,709306.6617771165,204927.33253329628,145245.05741775263,3.8684081470632066e-06,0.0,0.0,0.0,3.8684081470632066e-06,0.0,24.22066087796174,2.4577468191788494,0.007785875162015149,0.0
7389,4.137931034482759,5.517241379310345,3.2142857142857144,0,400327.556957146,650338.6689523791,388552.61938741547,189501.40486701936,77296.11765146018,2.6688503797143063e-06,0.0,0.0,0.0,2.6688503797143063e-06,0.0,24.345972489850084,2.736144391741681,0.003053003283588991,0.0
7390,4.137931034482759,5.517241379310345,3.5714285714285716,0,332969.26066942373,414292.4301992006,286374.9665376121,36333.108530533085,-63620.2117548839,2.2197950711294914e-06,0.0,0.0,0.0,2.2197950711294914e-06,0.0,24.3849345515458,3.0142528801700994,-0.002239922006953321,0.0
7391,4.137931034482759,5.517241379310345,3.928571428571429,0,130390.44545454979,292877.18043684016,255931.33229306716,148000.45304187768,-11285.079769574088,8.692696363636653e-07,0.0,0.0,0.0,8.692696363636653e-07,0.0,24.741427355770107,3.300971815669532,-0.0003826013016160051,0.0
7392,4.137931034482759,5.517241379310345,4.285714285714286,0,67014.71302095322,259913.91490298955,185698.78785070716,203831.1583938797,-15900.243243334637,4.4676475347302147e-07,0.0,0.0,0.0,4.4676475347302147e-07,0.0,24.17759305720329,3.5965649514862026,-0.0005327637723950763,0.0
7393,4.137931034482759,5.517241379310345,4.642857142857143,0,7727.351865849915,192663.55691257128,198945.16621713003,190316.3742045049,9985.957194049535,5.15156791056661e-08,0.0,0.0,0.0,5.15156791056661e-08,0.0,25.307022571880243,3.8973401110764567,0.00033339149330358363,0.0
7394,4.137931034482759,5.517241379310345,5.0,0,207751.85240962473,294677.1903730166,276813.1497689308,78570.14932860188,-18480.883765113023,1.3850123493974983e-06,0.0,0.0,0.0,1.3850123493974983e-06,0.0,25.036921448573292,4.200173637852927,-0.00061632560819406,0.0
7395,4.482758620689656,5.517241379310345,0.0,0,66356.30843414513,228605.6347862655,216530.23458782877,157040.85477695885,14475.229173094649,4.4237538956096755e-07,0.0,0.0,0.0,4.4237538956096755e-07,0.0,24.358686563493585,-0.04982107566096857,0.00048273959932031423,0.0
7396,4.482758620689656,5.517241379310345,0.35714285714285715,0,94189.56191142576,247608.05135801734,240583.924376057,150103.06364839038,-31400.433734047063,6.279304127428384e-07,0.0,0.0,0.0,6.279304127428384e-07,0.0,24.6964440603906,0.254510720472644,-0.0010483359070688045,0.0
7397,4.482758620689656,5.517241379310345,0.7142857142857143,0,129198.83514304445,224921.19526782184,258063.5053133191,115521.99875515689,-36665.77719029147,8.613255676202963e-07,0.0,0.0,0.0,8.613255676202963e-07,0.0,24.357115079176896,0.5609635517496284,-0.0012285471030064733,0.0
7398,4.482758620689656,5.517241379310345,1.0714285714285714,0,133306.09809837287,276156.26617574645,252025.40211011056,132432.97513026887,781.454870554494,8.887073206558191e-07,0.0,0.0,0.0,8.887073206558191e-07,0.0,24.730551631674103,0.8727561759513922,2.6493888987335025e-05,0.0
7399,4.482758620689656,5.517241379310345,1.4285714285714286,0,143793.31539807137,351492.35913405835,238367.95702689598,189674.89793120004,8164.487554047377,9.586221026538092e-07,0.0,0.0,0.0,9.586221026538092e-07,0.0,24.39253037696703,1.1936931796731105,0.00028745291540786675,0.0
7400,4.482758620689656,5.517241379310345,1.7857142857142858,0,218605.75739289066,534047.4673209029,351006.03707298555,291993.19024175435,68283.58681856247,1.4573717159526044e-06,0.0,0.0,0.0,1.4573717159526044e-06,0.0,25.88584507416899,1.5235027795769178,0.0026970308613988594,0.0
7401,4.482758620689656,5.517241379310345,2.142857142857143,0,472921.2352563487,660091.9300868466,641809.3400594931,178294.5180781504,393939.22037678864,3.1528082350423246e-06,0.0,0.0,0.0,3.1528082350423246e-06,0.0,24.024023876646307,1.8530144940438675,0.021117149497579847,0.0
7402,4.482758620689656,5.517241379310345,2.5,0,508364.5861909125,1071459.2253714714,754877.005858909,485071.95094020444,622350.302673257,3.38909724127275e-06,0.0,0.0,0.0,3.38909724127275e-06,0.0,24.189368750691333,2.1676851022635875,0.0622350302673257,0.0
7403,4.482758620689656,5.517241379310345,2.857142857142857,0,160378.9246907887,718952.1105530809,700413.0728291342,550109.3246781889,316822.65180816705,1.0691928312719247e-06,0.0,0.0,0.0,1.0691928312719247e-06,0.0,24.70998534249,2.4601573511867247,0.016983308481073888,0.0
7404,4.482758620689656,5.517241379310345,3.2142857142857144,0,127321.83573149385,426568.17853191524,410245.7717586451,291872.2600198118,94318.84221517896,8.48812238209959e-07,0.0,0.0,0.0,8.48812238209959e-07,0.0,24.880483581656716,2.7377884938626327,0.0037253583198795185,0.0
7405,4.482758620689656,5.517241379310345,3.5714285714285716,0,105396.4992901304,369467.1154859637,289605.1315047824,250006.44539620925,13708.926093123788,7.026433286008694e-07,0.0,0.0,0.0,7.026433286008694e-07,0.0,24.888419331835426,3.0151217511016823,0.0004826599032079978,0.0
7406,4.482758620689656,5.517241379310345,3.928571428571429,0,397685.779201153,423611.22166189045,185768.65072888785,-35497.01618199551,36071.05336490212,2.651238528007687e-06,0.0,0.0,0.0,2.651238528007687e-06,0.0,25.30197349656187,3.3013276045228213,0.0012229272853950587,0.0
7407,4.482758620689656,5.517241379310345,4.285714285714286,0,153107.8033564556,315019.85134068877,172346.42437481246,153266.21810818906,10747.026194581542,1.0207186890430375e-06,0.0,0.0,0.0,1.0207186890430375e-06,0.0,25.069075826699958,3.5966778374639143,0.00036009676895063463,0.0
7408,4.482758620689656,5.517241379310345,4.642857142857143,0,130444.11513740948,272933.45285879326,251949.7381321123,133269.50113609165,-16251.930255885096,8.696274342493966e-07,0.0,0.0,0.0,8.696274342493966e-07,0.0,24.39170430721826,3.8973678633297872,-0.0005425874747694564,0.0
7409,4.482758620689656,5.517241379310345,5.0,0,29645.747662674257,204346.53559526714,172173.79170055786,178133.15682491483,-22139.944214655327,1.976383177511617e-07,0.0,0.0,0.0,1.976383177511617e-07,0.0,25.388352634858855,4.200178924339031,-0.0007383529249417665,0.0
7410,4.827586206896552,5.517241379310345,0.0,0,215629.93707769294,299218.1334154007,217770.16160764915,54727.269240220485,36020.0972983836,1.4375329138512864e-06,0.0,0.0,0.0,1.4375329138512864e-06,0.0,25.158353646813193,-0.049817479813944424,0.0012012471187413329,0.0
7411,4.827586206896552,5.517241379310345,0.35714285714285715,0,223893.49515744494,327720.27078684745,305439.6888552352,93519.49715903244,-5730.768689206635,1.492623301049633e-06,0.0,0.0,0.0,1.492623301049633e-06,0.0,25.542380615646856,0.25452959744604,-0.0001913276307864116,0.0
7412,4.827586206896552,5.517241379310345,0.7142857142857143,0,111062.43433149027,289671.40126891434,296463.5648091054,182160.92685106822,60194.20211767463,7.404162288766017e-07,0.0,0.0,0.0,7.404162288766017e-07,0.0,24.87937367144434,0.5610403363469968,0.0020169056350736914,0.0
7413,4.827586206896552,5.517241379310345,1.0714285714285714,0,172033.90883026412,215758.9189894378,245986.34606128273,60842.068282098844,-35522.834920796624,1.1468927255350942e-06,0.0,0.0,0.0,1.1468927255350942e-06,0.0,25.40348003460389,0.8729981821279057,-0.0012043408779821333,0.0
7414,4.827586206896552,5.517241379310345,1.4285714285714286,0,124188.77302391165,312002.053113985,240902.9477061437,168602.88635030913,51774.57362569525,8.279251534927443e-07,0.0,0.0,0.0,8.279251534927443e-07,0.0,23.501827949865465,1.1942841822581887,0.0018228642072370515,0.0
7415,4.827586206896552,5.517241379310345,1.7857142857142858,0,426849.459884093,695221.3425989448,363697.42958755646,213596.46846986926,33760.81945497002,2.8456630658939534e-06,0.0,0.0,0.0,2.8456630658939534e-06,0.0,24.625067129578515,1.524621091363278,0.0013334679125469827,0.0
7416,4.827586206896552,5.517241379310345,2.142857142857143,0,641101.3574149492,1026760.8725569813,697006.813468393,287899.8311576178,333439.98280778795,4.274009049432995e-06,0.0,0.0,0.0,4.274009049432995e-06,0.0,24.416312915631046,1.8546541284202556,0.01787408209491749,0.0
7417,4.827586206896552,5.517241379310345,2.5,0,251550.85793085358,772362.9765340812,650339.1842680476,483073.8811092595,419501.9345830645,1.677005719539024e-06,0.0,0.0,0.0,1.677005719539024e-06,0.0,25.2283061327427,2.169547797137641,0.04195019345830645,0.0
7418,4.827586206896552,5.517241379310345,2.857142857142857,0,663934.1539121863,905278.8001200667,469449.80817033624,141151.54517379845,154246.72663411172,4.426227692747908e-06,0.0,0.0,0.0,4.426227692747908e-06,0.0,24.51231368832917,2.4617969855631125,0.008268410499288253,0.0
7419,4.827586206896552,5.517241379310345,3.2142857142857144,0,338810.1678679611,411607.70445712353,507938.2944901123,131394.18937979016,136434.30231785055,2.2587344524530742e-06,0.0,0.0,0.0,2.2587344524530742e-06,0.0,25.374649619980936,2.7389068056489925,0.005388813638076714,0.0
7420,4.827586206896552,5.517241379310345,3.5714285714285716,0,297803.07934900693,481549.9016948302,276824.8954321047,139912.6027161067,-11766.880146361193,1.9853538623267127e-06,0.0,0.0,0.0,1.9853538623267127e-06,0.0,25.285266382921623,3.0157127536867603,-0.0004142849114455081,0.0
7421,4.827586206896552,5.517241379310345,3.928571428571429,0,249234.55437803944,339381.39593687217,189109.70415875743,51685.73003559482,32085.47407070644,1.6615636958535962e-06,0.0,0.0,0.0,1.6615636958535962e-06,0.0,24.592607767614133,3.301569610699335,0.0010878030455324086,0.0
7422,4.827586206896552,5.517241379310345,4.285714285714286,0,152770.40771822547,373652.29596862925,249887.34824816583,202909.93160135145,-20608.81600777937,1.0184693847881699e-06,0.0,0.0,0.0,1.0184693847881699e-06,0.0,25.02041956111562,3.5967546220612827,-0.0006905322385871814,0.0
7423,4.827586206896552,5.517241379310345,4.642857142857143,0,179495.16744000546,205643.7972112052,279910.0339307759,75200.33696601329,30885.931024322643,1.1966344496000365e-06,0.0,0.0,0.0,1.1966344496000365e-06,0.0,24.79854718449316,3.897386740303183,0.0010311587027837734,0.0
7424,4.827586206896552,5.517241379310345,5.0,0,190835.05467927945,355364.6726951005,155995.34272463567,174397.04027640438,-13413.815198979617,1.272233697861863e-06,0.0,0.0,0.0,1.272233697861863e-06,0.0,24.96869083325247,4.200182520186056,-0.0004473421247483983,0.0
7425,5.172413793103448,5.517241379310345,0.0,0,223529.00851674017,332289.3937876508,219617.9061408702,74846.54031352508,-40284.72175167545,1.4901933901116011e-06,0.0,0.0,0.0,1.4901933901116011e-06,0.0,25.219044386897018,-0.049817479813944424,-0.0013434696062208588,0.0
7426,5.172413793103448,5.517241379310345,0.35714285714285715,0,193878.60402782055,389581.71189252124,216583.73634594225,180027.0926253201,21519.330957759452,1.292524026852137e-06,0.0,0.0,0.0,1.292524026852137e-06,0.0,24.68598468063283,0.25452959744604,0.0007184450867841234,0.0
7427,5.172413793103448,5.517241379310345,0.7142857142857143,0,323910.3702856208,395028.8605472197,263956.4482162952,26123.333218786058,31547.587751252417,2.1594024685708054e-06,0.0,0.0,0.0,2.1594024685708054e-06,0.0,24.025649924635093,0.5610403363469968,0.0010570537571723995,0.0
7428,5.172413793103448,5.517241379310345,1.0714285714285714,0,99012.7046135279,348559.29165499954,284309.33851591084,234535.1495457233,22253.454156724016,6.600846974235193e-07,0.0,0.0,0.0,6.600846974235193e-07,0.0,25.156228854796787,0.8729981821279057,0.0007544652496626564,0.0
7429,5.172413793103448,5.517241379310345,1.4285714285714286,0,109300.19137633493,351759.82272797026,235765.59423444822,250686.77492141403,-761.7472584914649,7.286679425088995e-07,0.0,0.0,0.0,7.286679425088995e-07,0.0,25.399397049243035,1.1942841822581887,-2.6819377065346047e-05,0.0
7430,5.172413793103448,5.517241379310345,1.7857142857142858,0,467476.12202367256,662018.0627752839,229914.33046807017,165790.00552592488,-39831.41015543732,3.1165074801578172e-06,0.0,0.0,0.0,3.1165074801578172e-06,0.0,24.018023413302306,1.524621091363278,-0.0015732410590512088,0.0
7431,5.172413793103448,5.517241379310345,2.142857142857143,0,607366.6218723686,838317.3961559134,769069.7475054397,199294.8741716409,229327.98497295985,4.049110812482458e-06,0.0,0.0,0.0,4.049110812482458e-06,0.0,24.854360103206986,1.8546541284202556,0.012293148516719962,0.0
7432,5.172413793103448,5.517241379310345,2.5,0,341373.13116036274,824116.6031873226,475246.0428947912,490770.61289503926,505984.57291865494,2.275820874402418e-06,0.0,0.0,0.0,2.275820874402418e-06,0.0,24.411502302938114,2.169547797137641,0.050598457291865497,0.0
7433,5.172413793103448,5.517241379310345,2.857142857142857,0,587512.1645088857,692371.321658751,639989.5144121369,80422.23145321613,298116.7518696619,3.916747763392572e-06,0.0,0.0,0.0,3.916747763392572e-06,0.0,25.445570575842112,2.4617969855631125,0.01598057692997226,0.0
7434,5.172413793103448,5.517241379310345,3.2142857142857144,0,162309.7487892667,403512.6960097855,385779.7037303197,233064.60967287954,125089.40447312445,1.0820649919284448e-06,0.0,0.0,0.0,1.0820649919284448e-06,0.0,25.47806593619467,2.7389068056489925,0.004940718553558894,0.0
7435,5.172413793103448,5.517241379310345,3.5714285714285716,0,237588.95517527618,358999.32401975256,292850.8134840584,95345.81440166857,333.2465611862117,1.5839263678351745e-06,0.0,0.0,0.0,1.5839263678351745e-06,0.0,24.48673044354267,3.0157127536867603,1.1732848501328823e-05,0.0
7436,5.172413793103448,5.517241379310345,3.928571428571429,0,273008.9798284023,419905.33494009194,354438.764059173,120114.9411131205,-72254.27883131833,1.820059865522682e-06,0.0,0.0,0.0,1.820059865522682e-06,0.0,24.238498151431934,3.301569610699335,-0.002449657573774642,0.0
7437,5.172413793103448,5.517241379310345,4.285714285714286,0,310788.9312111745,345805.22772509814,436664.0175113412,90571.572007875,-86513.74967737905,2.0719262080744968e-06,0.0,0.0,0.0,2.0719262080744968e-06,0.0,25.02338947598651,3.5967546220612827,-0.0028987853164752827,0.0
7438,5.172413793103448,5.517241379310345,4.642857142857143,0,199191.7964362855,297597.7201050356,124263.0660462864,79996.45918430905,-23126.020993799702,1.3279453095752368e-06,0.0,0.0,0.0,1.3279453095752368e-06,0.0,24.35120654630742,3.897386740303183,-0.0007720860928471813,0.0
7439,5.172413793103448,5.517241379310345,5.0,0,122388.8967507875,386371.41992096987,298448.95488853625,246591.23231318317,-17083.439997390888,8.159259783385834e-07,0.0,0.0,0.0,8.159259783385834e-07,0.0,25.33939102349826,4.200182520186056,-0.0005697217557482041,0.0
7440,5.517241379310345,5.517241379310345,0.0,0,85295.36645890487,294213.79724211816,236058.19345016367,196297.46071579176,12553.792250754437,5.686357763926991e-07,0.0,0.0,0.0,5.686357763926991e-07,0.0,24.72541529093122,-0.04982107566096857,0.00041866091158984073,0.0
7441,5.517241379310345,5.517241379310345,0.35714285714285715,0,305569.429830288,359786.6090197684,321127.5114973622,36727.275612949634,-51280.93314557188,2.03712953220192e-06,0.0,0.0,0.0,2.03712953220192e-06,0.0,25.598488553896207,0.254510720472644,-0.0017120669102798718,0.0
7442,5.517241379310345,5.517241379310345,0.7142857142857143,0,249957.50829616637,341456.64418414916,315735.5576274753,79633.10117816969,-48966.762579869355,1.6663833886411092e-06,0.0,0.0,0.0,1.6663833886411092e-06,0.0,25.625445902736395,0.5609635517496284,-0.001640711827786735,0.0
7443,5.517241379310345,5.517241379310345,1.0714285714285714,0,189634.4178381213,421758.5455129907,358311.13066648203,208535.43976904094,16785.26816728923,1.264229452254142e-06,0.0,0.0,0.0,1.264229452254142e-06,0.0,25.5812313250188,0.8727561759513922,0.0005690757690604195,0.0
7444,5.517241379310345,5.517241379310345,1.4285714285714286,0,60080.151184118884,290285.14992830605,321002.75067622436,251774.23413886596,61907.287314617955,4.0053434122745923e-07,0.0,0.0,0.0,4.0053434122745923e-07,0.0,25.011411156970453,1.1936931796731105,0.0021796138588952418,0.0
7445,5.517241379310345,5.517241379310345,1.7857142857142858,0,372944.35965497827,504154.5305119191,317137.241982421,74705.57050378142,-55287.7822218221,2.4862957310331885e-06,0.0,0.0,0.0,2.4862957310331885e-06,0.0,24.341798438181456,1.5235027795769178,-0.0021837290900778806,0.0
7446,5.517241379310345,5.517241379310345,2.142857142857143,0,271954.02872141695,605107.4909594273,796965.9889661194,485742.21775012766,270236.69967760146,1.8130268581427798e-06,0.0,0.0,0.0,1.8130268581427798e-06,0.0,24.077850461588714,1.8530144940438675,0.01448606407193047,0.0
7447,5.517241379310345,5.517241379310345,2.5,0,454675.49040073383,1003964.3649384403,766251.3979757113,479707.81908105663,728684.7734091611,3.031169936004892e-06,0.0,0.0,0.0,3.031169936004892e-06,0.0,25.12145362329531,2.1676851022635875,0.07286847734091612,0.0
7448,5.517241379310345,5.517241379310345,2.857142857142857,0,959450.8533745791,1118041.6326872506,587900.1666248972,10499.262440819082,423415.93928291876,6.396339022497194e-06,0.0,0.0,0.0,6.396339022497194e-06,0.0,25.163565115403127,2.4601573511867247,0.022697251827181665,0.0
7449,5.517241379310345,5.517241379310345,3.2142857142857144,0,304890.87948095676,546037.8623084521,367354.95727750286,193993.6062716849,7755.581958905488,2.0326058632063783e-06,0.0,0.0,0.0,2.0326058632063783e-06,0.0,24.964629158076026,2.7377884938626327,0.0003063260860454704,0.0
7450,5.517241379310345,5.517241379310345,3.5714285714285716,0,223392.02960581332,380738.7483886903,382182.17224628484,158071.92818774714,54514.91040907704,1.4892801973720888e-06,0.0,0.0,0.0,1.4892801973720888e-06,0.0,24.173918550541238,3.0151217511016823,0.0019193451917897215,0.0
7451,5.517241379310345,5.517241379310345,3.928571428571429,0,255635.69200255594,428516.0023606294,372441.7795012678,149498.0785693965,1872.5123896008872,1.7042379466837063e-06,0.0,0.0,0.0,1.7042379466837063e-06,0.0,24.444264726860794,3.3013276045228213,6.348432551491253e-05,0.0
7452,5.517241379310345,5.517241379310345,4.285714285714286,0,339168.1112564786,429872.96151954477,163252.45617709108,48127.33034620524,23382.71121208009,2.2611207417098572e-06,0.0,0.0,0.0,2.2611207417098572e-06,0.0,24.8894820820087,3.5966778374639143,0.0007834761546427654,0.0
7453,5.517241379310345,5.517241379310345,4.642857142857143,0,236561.1212462714,346799.7813713277,291054.2239526648,87344.42839019353,-24856.129279037435,1.5770741416418092e-06,0.0,0.0,0.0,1.5770741416418092e-06,0.0,24.545990193719724,3.8973678633297872,-0.0008298475446122676,0.0
7454,5.517241379310345,5.517241379310345,5.0,0,264898.62181163795,401322.6541611693,220799.4434479779,97215.75979156842,10321.837858233022,1.7659908120775863e-06,0.0,0.0,0.0,1.7659908120775863e-06,0.0,24.469350533748937,4.200178924339031,0.00034422666559187875,0.0
7455,5.862068965517242,5.517241379310345,0.0,0,166209.41300365631,292458.1737501104,151537.3217951998,109163.55931788472,-43454.77857583806,1.1080627533577087e-06,0.0,0.0,0.0,1.1080627533577087e-06,0.0,24.229492047116224,-0.049826362147073006,-0.0014491889660195486,0.0
7456,5.862068965517242,5.517241379310345,0.35714285714285715,0,316913.8139985729,475564.1963144185,271985.7742003376,110428.7587032885,-20405.996589080743,2.112758759990486e-06,0.0,0.0,0.0,2.112758759990486e-06,0.0,24.649838186078888,0.25448296821931354,-0.0006812752691585105,0.0
7457,5.862068965517242,5.517241379310345,0.7142857142857143,0,368805.3098199922,534734.3874415644,199485.45609026568,139681.97257699136,-11098.25098200229,2.458702065466615e-06,0.0,0.0,0.0,2.458702065466615e-06,0.0,24.618504064352518,0.5608506657719168,-0.0003718651324807572,0.0
7458,5.862068965517242,5.517241379310345,1.0714285714285714,0,263697.74732427415,425492.13222807215,148137.82121631727,177991.99401039444,5646.403646149712,1.7579849821618276e-06,0.0,0.0,0.0,1.7579849821618276e-06,0.0,24.3136429286588,0.8724003870981027,0.0001914316450195345,0.0
7459,5.862068965517242,5.517241379310345,1.4285714285714286,0,87086.52466718914,261120.19123984408,243440.7331533191,338010.50564655336,113390.18837848968,5.805768311145943e-07,0.0,0.0,0.0,5.805768311145943e-07,0.0,24.73682678376586,1.1928243087415278,0.003992208942971086,0.0
7460,5.862068965517242,5.517241379310345,1.7857142857142858,0,231378.9059389158,569833.1956246265,317161.0803540173,368305.38487106666,231769.84936792473,1.542526039592772e-06,0.0,0.0,0.0,1.542526039592772e-06,0.0,24.861153665883723,1.5218586774559664,0.009154329255550046,0.0
7461,5.862068965517242,5.517241379310345,2.142857142857143,0,486477.7516399886,1066850.3750270805,542339.7355921422,630448.436966439,321576.6481565046,3.2431850109332577e-06,0.0,0.0,0.0,3.2431850109332577e-06,0.0,24.917645978190542,1.8506039620359924,0.017238146908948048,0.0
7462,5.862068965517242,5.517241379310345,2.5,0,623987.5218539429,1023960.6614284439,486229.31337959744,339770.8062832934,810666.9030051271,4.159916812359619e-06,0.0,0.0,0.0,4.159916812359619e-06,0.0,24.267193829906418,2.16494663466406,0.08106669030051271,0.0
7463,5.862068965517242,5.517241379310345,2.857142857142857,0,874302.3714233969,1192179.8731224185,590152.151489637,189327.99433763142,253031.55818533638,5.828682476155979e-06,0.0,0.0,0.0,5.828682476155979e-06,0.0,24.59707506569306,2.4577468191788494,0.013563780820540395,0.0
7464,5.862068965517242,5.517241379310345,3.2142857142857144,0,358453.93582711526,716902.8787533317,357511.3633897777,359393.9378610123,93179.62863639666,2.3896929055141017e-06,0.0,0.0,0.0,2.3896929055141017e-06,0.0,24.763396029223838,2.736144391741681,0.003680362233369528,0.0
7465,5.862068965517242,5.517241379310345,3.5714285714285716,0,190912.3882911246,384517.6449213753,347090.58279053704,177663.3387214524,-25073.985004906954,1.272749255274164e-06,0.0,0.0,0.0,1.272749255274164e-06,0.0,24.822698274079322,3.0142528801700994,-0.0008827976088934844,0.0
7466,5.862068965517242,5.517241379310345,3.928571428571429,0,154500.6657210792,387811.1570441545,315468.31305906177,210411.76189696693,-17129.771404577274,1.030004438140528e-06,0.0,0.0,0.0,1.030004438140528e-06,0.0,24.09734681742654,3.300971815669532,-0.0005807555612895095,0.0
7467,5.862068965517242,5.517241379310345,4.285714285714286,0,211790.149406615,307147.6834006564,281264.9818328926,83605.68754335154,99519.70539834232,1.4119343293774333e-06,0.0,0.0,0.0,1.4119343293774333e-06,0.0,24.59897379886899,3.5965649514862026,0.003334571230405146,0.0
7468,5.862068965517242,5.517241379310345,4.642857142857143,0,144340.2234025759,359203.4132882269,243416.74196729698,197487.22296550687,-14427.371414503323,9.622681560171727e-07,0.0,0.0,0.0,9.622681560171727e-07,0.0,25.070674239701624,3.8973401110764567,-0.00048167269364952556,0.0
7469,5.862068965517242,5.517241379310345,5.0,0,169364.9440835824,331399.56088361086,241357.00761404846,136032.88779466978,-24222.4645568133,1.1290996272238826e-06,0.0,0.0,0.0,1.1290996272238826e-06,0.0,24.482114587454742,4.200173637852927,-0.000807803641301984,0.0
7470,6.206896551724139,5.517241379310345,0.0,0,327856.0040118933,483342.99540651805,208446.2840459618,120476.34426420371,-39151.14586894706,2.185706693412622e-06,0.0,0.0,0.0,2.185706693412622e-06,0.0,24.802666908553213,-0.049832302691019965,-0.0013056655783271513,0.0
7471,6.206896551724139,5.517241379310345,0.35714285714285715,0,394533.2018802158,557131.6820604636,210372.85956694448,127871.0744489923,-30113.927560042586,2.630221345868105e-06,0.0,0.0,0.0,2.630221345868105e-06,0.0,24.636878211871686,0.2544517823848519,-0.0010053845698899096,0.0
7472,6.206896551724139,5.517241379310345,0.7142857142857143,0,117824.60184939858,280303.8651655024,330162.1160960419,195605.1980251568,-55829.66684920726,7.854973456626572e-07,0.0,0.0,0.0,7.854973456626572e-07,0.0,24.404356536736334,0.5607238132467527,-0.0018706647104038893,0.0
7473,6.206896551724139,5.517241379310345,1.0714285714285714,0,98219.73901075298,248970.8935244367,140823.48299955513,224481.311181435,9275.782396918064,6.547982600716865e-07,0.0,0.0,0.0,6.547982600716865e-07,0.0,25.26989702350899,0.8720005791203549,0.0003144795155224339,0.0
7474,6.206896551724139,5.517241379310345,1.4285714285714286,0,255067.6735071069,447128.0325160559,321537.1547833579,153616.93176028086,15542.721240217983,1.700451156714046e-06,0.0,0.0,0.0,1.700451156714046e-06,0.0,24.49244021287538,1.1918479388331729,0.0005472236321381387,0.0
7475,6.206896551724139,5.517241379310345,1.7857142857142858,0,137339.8624014236,468989.8215376846,427889.2623788714,315792.2810288994,93693.6108001056,9.155990826761573e-07,0.0,0.0,0.0,9.155990826761573e-07,0.0,24.543313914171318,1.5200111627344928,0.003700663243060407,0.0
7476,6.206896551724139,5.517241379310345,2.142857142857143,0,474559.6267578305,1007122.3707151841,818104.3452098209,467179.8849566318,375228.55579829606,3.1637308450522033e-06,0.0,0.0,0.0,3.1637308450522033e-06,0.0,24.41086137045185,1.847895192723929,0.020114162537497055,0.0
7477,6.206896551724139,5.517241379310345,2.5,0,796374.9419252359,1350021.6111017491,487269.0546046911,643043.1416069132,610865.2089257222,5.309166279501572e-06,0.0,0.0,0.0,5.309166279501572e-06,0.0,25.398221193671557,2.161869356714028,0.061086520892572216,0.0
7478,6.206896551724139,5.517241379310345,2.857142857142857,0,653866.5206549977,1296100.143437959,701020.5225296048,596128.2139647483,310822.2796429039,4.359110137699985e-06,0.0,0.0,0.0,4.359110137699985e-06,0.0,25.358085250667475,2.455038049866786,0.01666165795860551,0.0
7479,6.206896551724139,5.517241379310345,3.2142857142857144,0,185162.2299234762,700658.3482750278,517672.5262173787,513393.870042523,81656.72596750037,1.234414866156508e-06,0.0,0.0,0.0,1.234414866156508e-06,0.0,25.240838786584963,2.734296877020207,0.0032252364035931067,0.0
7480,6.206896551724139,5.517241379310345,3.5714285714285716,0,304887.312578989,452019.5551990874,150013.72391060967,144330.22734097857,3488.0691045701305,2.0325820838599266e-06,0.0,0.0,0.0,2.0325820838599266e-06,0.0,25.106924304056992,3.0132765102617443,0.0001228069277606707,0.0
7481,6.206896551724139,5.517241379310345,3.928571428571429,0,72764.16252075063,244506.6917885409,196283.45316801025,279981.2520005166,-25463.542042174347,4.850944168050042e-07,0.0,0.0,0.0,4.850944168050042e-07,0.0,24.234824155080176,3.300572007691784,-0.0008632977814969812,0.0
7482,6.206896551724139,5.517241379310345,4.285714285714286,0,198293.31912639664,394769.8158114363,267689.7994174239,166280.59577898012,-11249.641962491416,1.3219554608426443e-06,0.0,0.0,0.0,1.3219554608426443e-06,0.0,24.45675528746147,3.5964380989610385,-0.00037693773600245406,0.0
7483,6.206896551724139,5.517241379310345,4.642857142857143,0,293672.70109952963,397044.6900760254,314278.3346665742,70870.44302348653,60263.838592141365,1.9578180073301975e-06,0.0,0.0,0.0,1.9578180073301975e-06,0.0,24.3010551079384,3.8973089252419952,0.0020119704851541222,0.0
7484,6.206896551724139,5.517241379310345,5.0,0,291154.55832796765,441401.6873406714,288255.6939359955,105636.28071237676,77109.7864550258,1.941030388853118e-06,0.0,0.0,0.0,1.941030388853118e-06,0.0,25.206291125936556,4.20016769730898,0.0025715618711006608,0.0
7485,6.551724137931035,5.517241379310345,0.0,0,140596.21957011058,350452.2105272723,331583.64752481424,201374.52619199082,-8992.231424840726,9.373081304674039e-07,0.0,0.0,0.0,9.373081304674039e-07,0.0,25.700461511727063,-0.049838530269078814,-0.0002998851446919863,0.0
7486,6.551724137931035,5.517241379310345,0.35714285714285715,0,164170.15693587984,372855.2140130312,197711.71512114836,222470.99347031486,-29966.67930933273,1.0944677129058656e-06,0.0,0.0,0.0,1.0944677129058656e-06,0.0,24.877033738424696,0.2544190897189657,-0.0010004685349784288,0.0
7487,6.551724137931035,5.517241379310345,0.7142857142857143,0,182279.76486522064,288587.6835822773,156605.18526739237,80605.66788263619,-1760.0366601350468,1.2151984324348043e-06,0.0,0.0,0.0,1.2151984324348043e-06,0.0,25.38014277170086,0.560590831484565,-5.897291986399354e-05,0.0
7488,6.551724137931035,5.517241379310345,1.0714285714285714,0,173524.45279033107,228663.5455666465,302596.6810778484,104350.37398312427,48214.928389488145,1.1568296852688738e-06,0.0,0.0,0.0,1.1568296852688738e-06,0.0,24.775555295661462,0.8715814532941336,0.001634644569272447,0.0
7489,6.551724137931035,5.517241379310345,1.4285714285714286,0,209856.85801026132,381766.439376352,222756.28453941707,143905.02691570992,4023.5614428867575,1.3990457200684088e-06,0.0,0.0,0.0,1.3990457200684088e-06,0.0,24.709994589776414,1.1908243928628246,0.0001416603870633777,0.0
7490,6.551724137931035,5.517241379310345,1.7857142857142858,0,283408.10602220375,481972.9101251269,370251.8656243343,159731.1559516996,98965.43497814816,1.8893873734813583e-06,0.0,0.0,0.0,1.8893873734813583e-06,0.0,24.266289803202312,1.5180743801358676,0.003908887110119838,0.0
7491,6.551724137931035,5.517241379310345,2.142857142857143,0,1005345.1949303981,1111152.9347704605,922841.4104149782,24967.41582338415,324189.78306420124,6.702301299535988e-06,0.0,0.0,0.0,6.702301299535988e-06,0.0,24.867591073660904,1.8450555415935117,0.017378224255017814,0.0
7492,6.551724137931035,5.517241379310345,2.5,0,1067931.443451208,1097982.3597951366,903767.8252923541,-53728.199624774956,563867.0872879114,7.119542956341387e-06,0.0,0.0,0.0,7.119542956341387e-06,0.0,25.02230087138295,2.158643391412922,0.056386708728791146,0.0
7493,6.551724137931035,5.517241379310345,2.857142857142857,0,513230.90223444824,928980.3595785802,610439.3889928471,336922.7481461876,471923.3375675872,3.421539348229655e-06,0.0,0.0,0.0,3.421539348229655e-06,0.0,25.097405450996042,2.452198398736369,0.025297495540758216,0.0
7494,6.551724137931035,5.517241379310345,3.2142857142857144,0,219632.32546637856,564311.367545805,393761.2836226261,316485.22578751564,87705.74544341875,1.4642155031091905e-06,0.0,0.0,0.0,1.4642155031091905e-06,0.0,24.62699555204117,2.732360094421582,0.0034641575406901353,0.0
7495,6.551724137931035,5.517241379310345,3.5714285714285716,0,201945.07382841888,173389.87465862258,404272.9984865788,260519.77480312795,38335.330090490585,1.3463004921894593e-06,0.0,0.0,0.0,1.3463004921894593e-06,0.0,24.678969527487,3.012252964291396,0.0013496992094956036,0.0
7496,6.551724137931035,5.517241379310345,3.928571428571429,0,429352.0302839503,549418.3406904822,313357.02778921154,53830.45901107908,-71940.31918039416,2.862346868559669e-06,0.0,0.0,0.0,2.862346868559669e-06,0.0,24.554251602767735,3.300152881865563,-0.0024390133095291773,0.0
7497,6.551724137931035,5.517241379310345,4.285714285714286,0,237393.85862764437,327732.36908682087,187266.10644310902,53642.018348279045,75087.84828993397,1.5826257241842958e-06,0.0,0.0,0.0,1.5826257241842958e-06,0.0,24.307181732517623,3.5963051171988507,0.0025159417188629525,0.0
7498,6.551724137931035,5.517241379310345,4.642857142857143,0,251260.6243373286,374703.7910549368,126778.46281656958,120235.66706603144,10302.909487546365,1.675070828915524e-06,0.0,0.0,0.0,1.675070828915524e-06,0.0,25.03484031148964,3.897276232576109,0.00034397327293487123,0.0
7499,6.551724137931035,5.517241379310345,5.0,0,239231.69827311035,289499.57651861204,439487.1535927657,163596.3752793233,-73790.83963286485,1.5948779884874024e-06,0.0,0.0,0.0,1.5948779884874024e-06,0.0,23.651328439272838,4.200161469730921,-0.002460877125461302,0.0
7500,6.8965517241379315,5.517241379310345,0.0,0,286682.62537916825,505254.97465643496,192689.57189957894,254557.8705426413,41748.66195865527,1.9112175025277885e-06,0.0,0.0,0.0,1.9112175025277885e-06,0.0,23.602146947280705,-0.049844903834056674,0.0013922910722229233,0.0
7501,6.8965517241379315,5.517241379310345,0.35714285714285715,0,177956.7281785126,435245.7798132513,340830.5873162774,229978.30354038705,-15798.34269225075,1.1863781878567507e-06,0.0,0.0,0.0,1.1863781878567507e-06,0.0,24.169587664180288,0.2543856306714265,-0.0005274439855429955,0.0
7502,6.8965517241379315,5.517241379310345,0.7142857142857143,0,258705.13551353037,354307.65591532405,425367.09336368256,138558.1188239541,1300.8639444674309,1.724700903423536e-06,0.0,0.0,0.0,1.724700903423536e-06,0.0,23.811009724050432,0.5604547323631786,4.358758365018941e-05,0.0
7503,6.8965517241379315,5.517241379310345,1.0714285714285714,0,170841.76279543195,402998.1789208905,319020.92632371833,206420.50482226236,-20610.67282061136,1.1389450853028797e-06,0.0,0.0,0.0,1.1389450853028797e-06,0.0,24.99554047581771,0.871152502317995,-0.0006987695620555759,0.0
7504,6.8965517241379315,5.517241379310345,1.4285714285714286,0,496915.7479722215,678759.4444287948,294706.9431368383,117540.80793048591,1412.9544998940164,3.3127716531481434e-06,0.0,0.0,0.0,3.3127716531481434e-06,0.0,24.235914829397778,1.1897768529222248,4.9746893193787156e-05,0.0
7505,6.8965517241379315,5.517241379310345,1.7857142857142858,0,415366.04410865705,717352.1478007113,301957.36636985996,302014.846980108,73223.25338408934,2.76910696072438e-06,0.0,0.0,0.0,2.76910696072438e-06,0.0,24.900539443762145,1.516092195468941,0.0028921353336880105,0.0
7506,6.8965517241379315,5.517241379310345,2.142857142857143,0,608630.5458232481,1039365.3709997514,444367.6434021658,417961.55289431795,226665.3137341285,4.057536972154987e-06,0.0,0.0,0.0,4.057536972154987e-06,0.0,25.119124916690982,1.8421493233457185,0.01215041577089301,0.0
7507,6.8965517241379315,5.517241379310345,2.5,0,148473.09174495883,1030130.1886582862,983955.5952842733,864056.2171817548,842121.3920580735,9.898206116330588e-07,0.0,0.0,0.0,9.898206116330588e-07,0.0,24.502165580935344,2.1553418030155322,0.08421213920580735,0.0
7508,6.8965517241379315,5.517241379310345,2.857142857142857,0,477974.1818155833,669880.9291364754,1067992.6863504557,537893.6231613421,418967.3332020647,3.1864945454372222e-06,0.0,0.0,0.0,3.1864945454372222e-06,0.0,24.639757453100568,2.4492921804885754,0.02245878387373599,0.0
7509,6.8965517241379315,5.517241379310345,3.2142857142857144,0,455389.91036164877,704675.2815471013,452006.34624122386,178967.8337017912,109164.14574939232,3.035932735744325e-06,0.0,0.0,0.0,3.035932735744325e-06,0.0,25.094313727909604,2.7303779097546554,0.004311710672531896,0.0
7510,6.8965517241379315,5.517241379310345,3.5714285714285716,0,361297.82757809595,541273.7240246647,299251.82709343574,125975.20995865199,47853.93378135775,2.408652183853973e-06,0.0,0.0,0.0,2.408652183853973e-06,0.0,24.98530794244451,3.0112054243507966,0.0016848274540350245,0.0
7511,6.8965517241379315,5.517241379310345,3.928571428571429,0,336867.4440929162,533473.073517278,367114.04713575385,145788.74813837075,5565.489571520531,2.2457829606194413e-06,0.0,0.0,0.0,2.2457829606194413e-06,0.0,23.454957629597757,3.2997239308894244,0.00018868839190087732,0.0
7512,6.8965517241379315,5.517241379310345,4.285714285714286,0,199314.9969780544,233580.2746854475,238890.20008656965,36973.295361100776,14059.503015329405,1.3287666465203626e-06,0.0,0.0,0.0,1.3287666465203626e-06,0.0,24.289034687018003,3.596169018077464,0.00047108674690161153,0.0
7513,6.8965517241379315,5.517241379310345,4.642857142857143,0,174029.06874778986,327900.9959098526,319403.218481873,149778.7118666424,-62214.77547539055,1.1601937916519324e-06,0.0,0.0,0.0,1.1601937916519324e-06,0.0,24.756193075442894,3.8972427735285695,-0.00207710452771091,0.0
7514,6.8965517241379315,5.517241379310345,5.0,0,190870.55610991514,373891.25791522575,299653.99778425414,157055.65286993145,-35126.83462499257,1.272470374066101e-06,0.0,0.0,0.0,1.272470374066101e-06,0.0,24.612466085665666,4.200155096165943,-0.0011714573820895578,0.0
7515,7.241379310344828,5.517241379310345,0.0,0,198692.94882075983,434878.5689570597,268988.4832359476,214677.387779594,3699.5898637306345,1.3246196588050656e-06,0.0,0.0,0.0,1.3246196588050656e-06,0.0,23.846488709867685,-0.04985136057013025,0.00012337894668958862,0.0
7516,7.241379310344828,5.517241379310345,0.35714285714285715,0,170473.72764318588,422641.9779950232,303334.7198043483,227394.74498036053,8083.183779045479,1.1364915176212392e-06,0.0,0.0,0.0,1.1364915176212392e-06,0.0,23.49373725014064,0.2543517350039336,0.00026986543787200503,0.0
7517,7.241379310344828,5.517241379310345,0.7142857142857143,0,261159.93214747918,426030.01487813337,459638.72111472767,183301.41959083275,17503.279268172948,1.741066214316528e-06,0.0,0.0,0.0,1.741066214316528e-06,0.0,24.657854440332134,0.5603168572321192,0.0005864761280369359,0.0
7518,7.241379310344828,5.517241379310345,1.0714285714285714,0,407514.98662334774,486587.82248688955,369301.0859951158,33291.02348819747,63542.09491427652,2.716766577488985e-06,0.0,0.0,0.0,2.716766577488985e-06,0.0,23.93528096320325,0.8707179537959276,0.0021542858994365328,0.0
7519,7.241379310344828,5.517241379310345,1.4285714285714286,0,375514.98058493494,428348.4966369537,480188.324061712,81446.77087124076,1646.33193394914,2.5034332038995662e-06,0.0,0.0,0.0,2.5034332038995662e-06,0.0,24.294546441326336,1.1887156432308708,5.79635783642234e-05,0.0
7520,7.241379310344828,5.517241379310345,1.7857142857142858,0,610741.7446737865,888811.4172678015,386626.0933963185,208926.37660635213,106063.21338713689,4.071611631158576e-06,0.0,0.0,0.0,4.071611631158576e-06,0.0,24.43881572474081,1.5140841445134887,0.004189231601502198,0.0
7521,7.241379310344828,5.517241379310345,2.142857142857143,0,548399.1452993702,1205751.7034355986,1019896.2627021322,588576.9621642098,425029.36683589924,3.655994301995801e-06,0.0,0.0,0.0,3.655994301995801e-06,0.0,24.289801810426177,1.8392051807405374,0.02278373976511081,0.0
7522,7.241379310344828,5.517241379310345,2.5,0,483405.0225521334,1222024.4230853065,1080727.1008484375,683714.8635852066,720691.7064641686,3.2227001503475562e-06,0.0,0.0,0.0,3.2227001503475562e-06,0.0,23.910042994489828,2.1519971309239203,0.07206917064641685,0.0
7523,7.241379310344828,5.517241379310345,2.857142857142857,0,1049730.2065052371,1464824.8311440588,443914.88469131384,388471.75103366637,395090.86562352977,6.998201376701581e-06,0.0,0.0,0.0,6.998201376701581e-06,0.0,24.33929566010617,2.446348037883394,0.02117888355092023,0.0
7524,7.241379310344828,5.517241379310345,3.2142857142857144,0,355409.40465875115,982015.256208716,605076.9369328244,652997.2704782429,20151.41792810723,2.369396031058341e-06,0.0,0.0,0.0,2.369396031058341e-06,0.0,24.113159915255817,2.728369858799203,0.0007959305974576749,0.0
7525,7.241379310344828,5.517241379310345,3.5714285714285716,0,282827.901037019,620338.939255902,312289.74099585024,372394.7458256966,454.2808244979624,1.8855193402467933e-06,0.0,0.0,0.0,1.8855193402467933e-06,0.0,25.218017774154553,3.010144214659442,1.5994187822736557e-05,0.0
7526,7.241379310344828,5.517241379310345,3.928571428571429,0,114475.53040822531,178278.29534628414,175826.78331716705,291508.3807240409,-9558.38793607082,7.631702027215021e-07,0.0,0.0,0.0,7.631702027215021e-07,0.0,24.501541171433797,3.299289382367357,-0.00032406077230851845,0.0
7527,7.241379310344828,5.517241379310345,4.285714285714286,0,306295.5031691052,574548.8336321831,316993.5884802553,235852.40048255216,-6617.605261812498,2.041970021127368e-06,0.0,0.0,0.0,2.041970021127368e-06,0.0,25.68281277769595,3.596031142946405,-0.00022173373636800607,0.0
7528,7.241379310344828,5.517241379310345,4.642857142857143,0,251634.89148378937,504454.2121059694,351612.9343501578,214024.74987599568,-75819.29567712545,1.6775659432252625e-06,0.0,0.0,0.0,1.6775659432252625e-06,0.0,23.74512339434403,3.8972088778610767,-0.0025313054838734176,0.0
7529,7.241379310344828,5.517241379310345,5.0,0,359964.4096716419,609811.9249731897,317822.47663970856,207631.72546351393,-4305.738491918682,2.3997627311442792e-06,0.0,0.0,0.0,2.3997627311442792e-06,0.0,24.258621851128705,4.2001486394298695,-0.00014359361427108283,0.0
7530,7.586206896551724,5.517241379310345,0.0,0,465544.13729990856,554600.6688384418,301496.54256559926,17335.72579433877,-38991.356690574554,3.1036275819993903e-06,0.0,0.0,0.0,3.1036275819993903e-06,0.0,24.094287986918538,-0.04985786884488096,-0.0013003367118186585,0.0
7531,7.586206896551724,5.517241379310345,0.35714285714285715,0,436786.6846332128,585025.4358827126,281862.5123017908,84371.21778309077,-2750.260460435518,2.9119112308880856e-06,0.0,0.0,0.0,2.9119112308880856e-06,0.0,23.862756693003654,0.2543175687759217,-9.182028563318618e-05,0.0
7532,7.586206896551724,5.517241379310345,0.7142857142857143,0,369840.97351006523,524469.8101815713,532314.8510062614,158613.7655205511,-48829.231843058595,2.4656064900671017e-06,0.0,0.0,0.0,2.4656064900671017e-06,0.0,24.0802987367851,0.560177881560201,-0.0016361036345004913,0.0
7533,7.586206896551724,5.517241379310345,1.0714285714285714,0,379547.1746624571,583543.2171874067,213007.75959926518,195584.43334473833,2589.071076449517,2.530314497749714e-06,0.0,0.0,0.0,2.530314497749714e-06,0.0,24.02067059742206,0.8702799366395967,8.777802054148195e-05,0.0
7534,7.586206896551724,5.517241379310345,1.4285714285714286,0,473540.0379275483,747080.6923464751,467095.7654251461,200337.07886522682,-9147.038304834825,3.1569335861836552e-06,0.0,0.0,0.0,3.1569335861836552e-06,0.0,23.776037452580137,1.1876459627977942,-0.00032204627794046414,0.0
7535,7.586206896551724,5.517241379310345,1.7857142857142858,0,391721.4614211921,798191.9548262695,537899.5283096391,347684.0820930448,32674.474450909744,2.611476409474614e-06,0.0,0.0,0.0,2.611476409474614e-06,0.0,25.167441770546112,1.5120600649812643,0.001290560002482707,0.0
7536,7.586206896551724,5.517241379310345,2.142857142857143,0,728209.3003883593,777079.5227599185,599745.6746117445,-23418.36081075022,460310.85662315425,4.854728669255729e-06,0.0,0.0,0.0,4.854728669255729e-06,0.0,24.233139754566583,1.836237537528638,0.024675007391680697,0.0
7537,7.586206896551724,5.517241379310345,2.5,0,506708.3154545462,1251694.1241840646,920684.6304957346,668364.230577608,819626.2294115004,3.3780554363636414e-06,0.0,0.0,0.0,3.3780554363636414e-06,0.0,24.743081650019057,2.1486257611365893,0.08196262294115003,0.0
7538,7.586206896551724,5.517241379310345,2.857142857142857,0,749377.2460142439,1221907.2513277775,477674.74489187397,467489.102852959,421925.05121772306,4.995848306761626e-06,0.0,0.0,0.0,4.995848306761626e-06,0.0,24.779447048522634,2.443380394671495,0.02261733263018782,0.0
7539,7.586206896551724,5.517241379310345,3.2142857142857144,0,440100.6124014683,776515.2758183161,444422.8626503882,277340.6842633712,124104.06451311964,2.9340040826764553e-06,0.0,0.0,0.0,2.9340040826764553e-06,0.0,25.003119835092992,2.7263457792669787,0.004901800090061014,0.0
7540,7.586206896551724,5.517241379310345,3.5714285714285716,0,77362.89989996416,400925.2894211379,368840.8713085895,312682.24334259465,-15359.9145038065,5.157526659997611e-07,0.0,0.0,0.0,5.157526659997611e-07,0.0,23.80264304382551,3.009074534226366,-0.0005407874254577049,0.0
7541,7.586206896551724,5.517241379310345,3.928571428571429,0,193187.1214725923,309657.05460455373,179132.5216013514,87730.26239247754,18675.437980674273,1.2879141431506153e-06,0.0,0.0,0.0,1.2879141431506153e-06,0.0,24.931722531135463,3.298851365211026,0.0006331587392868403,0.0
7542,7.586206896551724,5.517241379310345,4.285714285714286,0,212295.60437932622,379956.2423207657,357433.2467249918,157297.110570112,-1877.288744541809,1.415304029195508e-06,0.0,0.0,0.0,1.415304029195508e-06,0.0,24.266253954169525,3.595892167274487,-6.29016435856208e-05,0.0
7543,7.586206896551724,5.517241379310345,4.642857142857143,0,302760.5181250408,516494.1280507352,225552.90523538712,203157.99014826337,-44436.24360893907,2.018403454166939e-06,0.0,0.0,0.0,2.018403454166939e-06,0.0,25.32584679311097,3.897174711633065,-0.0014835498816692136,0.0
7544,7.586206896551724,5.517241379310345,5.0,0,448437.4120083127,585087.2232476026,182121.5832084959,101983.85674818381,-35625.89428825859,2.9895827467220846e-06,0.0,0.0,0.0,2.9895827467220846e-06,0.0,24.575156015194082,4.200142131155119,-0.001188100701445756,0.0
7545,7.931034482758621,5.517241379310345,0.0,0,465116.58999174874,533846.1850223498,218316.57227542927,-301.7239146903111,52576.538864766146,3.100777266611658e-06,0.0,0.0,0.0,3.100777266611658e-06,0.0,23.573228979046768,-0.04986441114716161,0.0017533938151667965,0.0
7546,7.931034482758621,5.517241379310345,0.35714285714285715,0,453995.15963664185,546664.0083013983,512237.2429702309,76435.5007833164,71129.91473285214,3.026634397577612e-06,0.0,0.0,0.0,3.026634397577612e-06,0.0,24.7832824869884,0.25428322391495545,0.002374745658380449,0.0
7547,7.931034482758621,5.517241379310345,0.7142857142857143,0,290671.24163329136,445358.4047442138,137788.4761145683,175210.5384171718,32293.535868691648,1.9378082775552756e-06,0.0,0.0,0.0,1.9378082775552756e-06,0.0,24.738720645016084,0.560038179275007,0.0010820479743661852,0.0
7548,7.931034482758621,5.517241379310345,1.0714285714285714,0,180693.4842987872,303880.4697972476,367139.71973425866,163321.72192632145,-26899.398720048946,1.2046232286585813e-06,0.0,0.0,0.0,1.2046232286585813e-06,0.0,23.517946053687396,0.8698396293768288,-0.0009119780429666429,0.0
7549,7.931034482758621,5.517241379310345,1.4285714285714286,0,246988.22034912245,492630.1935033796,297908.1778821301,214809.54071492312,84191.46084431483,1.6465881356608162e-06,0.0,0.0,0.0,1.6465881356608162e-06,0.0,24.54101034742371,1.1865706897023987,0.0029641885926016713,0.0
7550,7.931034482758621,5.517241379310345,1.7857142857142858,0,457582.36848997494,736188.6688693882,489091.90556283604,208178.89706191642,129336.38760154316,3.0505491232664997e-06,0.0,0.0,0.0,3.0505491232664997e-06,0.0,24.97505589333812,1.5100254028554159,0.005108463762896254,0.0
7551,7.931034482758621,5.517241379310345,2.142857142857143,0,835593.4677971292,1035916.5246836479,944121.5676513106,158215.75943268556,472443.348199648,5.570623118647528e-06,0.0,0.0,0.0,5.570623118647528e-06,0.0,24.417463233666403,1.8332543784431614,0.025325370760308722,0.0
7552,7.931034482758621,5.517241379310345,2.5,0,695156.0996749691,1368230.5186420649,1097578.9559935038,578456.2659755138,1030269.3412080588,4.634373997833128e-06,0.0,0.0,0.0,4.634373997833128e-06,0.0,23.695863309022837,2.1452367646523585,0.10302693412080587,0.0
7553,7.931034482758621,5.517241379310345,2.857142857142857,0,743049.7479789999,1251814.8680467508,648589.2093904819,421796.8612972666,334915.1290223513,4.953664986526666e-06,0.0,0.0,0.0,4.953664986526666e-06,0.0,24.692649068813047,2.440397235586018,0.017953157448506115,0.0
7554,7.931034482758621,5.517241379310345,3.2142857142857144,0,541829.072689727,908818.6782144152,332623.3560276195,409586.0909971038,141792.1948815206,3.612193817931513e-06,0.0,0.0,0.0,3.612193817931513e-06,0.0,24.52498189441007,2.7243111171411303,0.005600436991060119,0.0
7555,7.931034482758621,5.517241379310345,3.5714285714285716,0,348160.36565283354,511826.98001408594,446818.40816748905,135744.3851110672,-37336.624733074656,2.3210691043522237e-06,0.0,0.0,0.0,2.3210691043522237e-06,0.0,24.08159700177406,3.0079992611309705,-0.0013145370802471672,0.0
7556,7.931034482758621,5.517241379310345,3.928571428571429,0,344116.1067612067,288800.14125695516,377983.25747072883,-1944.9579960276394,-27992.639660068922,2.2941073784080446e-06,0.0,0.0,0.0,2.2941073784080446e-06,0.0,23.971584355163365,3.298411057948258,-0.0009490425046427815,0.0
7557,7.931034482758621,5.517241379310345,4.285714285714286,0,417417.2284444035,408957.7048577555,291072.8134035268,-54724.78939103143,117795.15430500002,2.78278152296269e-06,0.0,0.0,0.0,2.78278152296269e-06,0.0,24.536845392597133,3.595752464989293,0.003946920170777863,0.0
7558,7.931034482758621,5.517241379310345,4.642857142857143,0,275029.0854010456,455179.2058976014,355748.2434726037,144262.44099766604,22668.431936700792,1.8335272360069709e-06,0.0,0.0,0.0,1.8335272360069709e-06,0.0,23.755825722680598,3.8971403667720987,0.0007568090096291108,0.0
7559,7.931034482758621,5.517241379310345,5.0,0,335589.05508611776,561477.95245708,275574.8579957326,191999.18980480896,83425.19113184404,2.2372603672407853e-06,0.0,0.0,0.0,2.2372603672407853e-06,0.0,24.316827200147593,4.200135588852839,0.002782176562362305,0.0
7560,8.275862068965518,5.517241379310345,0.0,0,213552.87958269173,403335.57631523244,243243.25430577213,160861.98935271,24733.298457798584,1.4236858638846117e-06,0.0,0.0,0.0,1.4236858638846117e-06,0.0,24.65177289364697,-0.049870977046245824,0.0008248396239266479,0.0
7561,8.275862068965518,5.517241379310345,0.35714285714285715,0,321436.45660272334,501748.34617368155,318928.4925338725,130599.127387751,18314.06536270998,2.1429097106848225e-06,0.0,0.0,0.0,2.1429097106848225e-06,0.0,24.81710713979036,0.25424875517879925,0.0006114339848534132,0.0
7562,8.275862068965518,5.517241379310345,0.7142857142857143,0,400513.82326815475,483037.75144020806,366977.7468830358,37310.8583622288,-28578.103511462075,2.6700921551210318e-06,0.0,0.0,0.0,2.6700921551210318e-06,0.0,23.79925253673053,0.5598979731110191,-0.0009575563091492938,0.0
7563,8.275862068965518,5.517241379310345,1.0714285714285714,0,418286.77750504983,474494.1395044348,358347.0603630363,10408.013625440915,46290.961822160934,2.788578516700332e-06,0.0,0.0,0.0,2.788578516700332e-06,0.0,23.273281440634456,0.8693977340119609,0.0015694157779873636,0.0
7564,8.275862068965518,5.517241379310345,1.4285714285714286,0,337701.2442725603,648341.1772404145,438291.9902463799,258796.5762472736,8254.39704004694,2.251341628483735e-06,0.0,0.0,0.0,2.251341628483735e-06,0.0,23.717763622720994,1.185491538307449,0.0002906184225756235,0.0
7565,8.275862068965518,5.517241379310345,1.7857142857142858,0,351616.64385786507,679523.9620783507,429000.7308399424,277562.4238077859,88781.46774362405,2.3441109590524336e-06,0.0,0.0,0.0,2.3441109590524336e-06,0.0,24.484314544378048,1.5079834021015954,0.003506645880525851,0.0
7566,8.275862068965518,5.517241379310345,2.142857142857143,0,735135.2966468469,1026654.9128073482,1179109.1678011292,379700.0580364514,407254.9111189028,4.9009019776456464e-06,0.0,0.0,0.0,4.9009019776456464e-06,0.0,23.710458515290217,1.8302604596868617,0.021830938370380623,0.0
7567,8.275862068965518,5.517241379310345,2.5,0,1077525.0644874438,1361761.4870263273,862036.617436346,125102.94581743974,773854.7181404321,7.183500429916292e-06,0.0,0.0,0.0,7.183500429916292e-06,0.0,24.626948753666785,2.1418355447212565,0.07738547181404322,0.0
7568,8.275862068965518,5.517241379310345,2.857142857142857,0,686938.6419800894,1011582.7387360147,784486.5817561811,239851.40350129694,440440.57179150934,4.579590946533929e-06,0.0,0.0,0.0,4.579590946533929e-06,0.0,23.718863913176016,2.4374033168297187,0.023609858877277883,0.0
7569,8.275862068965518,5.517241379310345,3.2142857142857144,0,531953.9525460982,862569.568182789,341604.36306574877,320268.8524334439,92101.83619151017,3.5463596836406542e-06,0.0,0.0,0.0,3.5463596836406542e-06,0.0,23.81638299855986,2.72226911638731,0.0036377921279975712,0.0
7570,8.275862068965518,5.517241379310345,3.5714285714285716,0,189572.9221831239,468644.8584538187,361436.2696705431,249760.1003244099,4098.547578097563,1.263819481220826e-06,0.0,0.0,0.0,1.263819481220826e-06,0.0,24.013356116841596,3.0069201097360208,0.0001443004772146364,0.0
7571,8.275862068965518,5.517241379310345,3.928571428571429,0,280221.08609467576,491653.3745178376,379324.128749203,172695.17769978242,-72927.10330430507,1.868140573964505e-06,0.0,0.0,0.0,1.868140573964505e-06,0.0,24.576819003314423,3.29796916258339,-0.002472468535183872,0.0
7572,8.275862068965518,5.517241379310345,4.285714285714286,0,120765.494597271,447403.06269274926,389209.7032994445,308559.15352211543,24748.726772296246,8.0510329731514e-07,0.0,0.0,0.0,8.0510329731514e-07,0.0,23.317455165030303,3.5956122588253048,0.0008292467502162772,0.0
7573,8.275862068965518,5.517241379310345,4.642857142857143,0,338254.4111116362,474659.36863789347,460734.7468831018,129657.67348964188,-5598.55990522324,2.255029407410908e-06,0.0,0.0,0.0,2.255029407410908e-06,0.0,24.253988664919355,3.8971058980359423,-0.00018691370400267376,0.0
7574,8.275862068965518,5.517241379310345,5.0,0,99254.59601363169,413169.7714895215,365846.8994334891,299109.8611098575,-150940.26242679523,6.616973067575446e-07,0.0,0.0,0.0,6.616973067575446e-07,0.0,24.249770245166506,4.200129022953754,-0.005033760843016518,0.0
7575,8.620689655172415,5.517241379310345,0.0,0,195661.34162760316,425468.40623625525,344773.1558661749,202365.29403838646,-72474.53491056428,1.304408944184021e-06,0.0,0.0,0.0,1.304408944184021e-06,0.0,23.459306195824308,-0.049877559959333934,-0.002416979208086156,0.0
7576,8.620689655172415,5.517241379310345,0.35714285714285715,0,241498.97154628727,465278.0984938347,278810.7181826985,192477.7345988418,-21613.79635017694,1.609993143641915e-06,0.0,0.0,0.0,1.609993143641915e-06,0.0,24.137780505274723,0.25421419712491156,-0.000721598911463278,0.0
7577,8.620689655172415,5.517241379310345,0.7142857142857143,0,212325.82273925937,476478.4294391731,259967.3401494087,268601.2698564514,58562.221605652274,1.4155054849283958e-06,0.0,0.0,0.0,1.4155054849283958e-06,0.0,23.874525497127394,0.5597574036352913,0.001962223446835801,0.0
7578,8.620689655172415,5.517241379310345,1.0714285714285714,0,319697.0317366472,471430.53325459594,421836.83274612937,129834.78661082312,28976.054208129517,2.1313135449109812e-06,0.0,0.0,0.0,2.1313135449109812e-06,0.0,23.4036158677454,0.8689546935777942,0.0009823834905993477,0.0
7579,8.620689655172415,5.517241379310345,1.4285714285714286,0,479004.5171445789,735327.1438784915,488115.7311009845,183223.81148776936,-30785.09543942658,3.193363447630526e-06,0.0,0.0,0.0,3.193363447630526e-06,0.0,23.936985775054396,1.1844095905420704,-0.0010838727325618558,0.0
7580,8.620689655172415,5.517241379310345,1.7857142857142858,0,439828.0854026597,629813.9517033023,380626.3582299631,121973.62575443788,67758.09549257197,2.9321872360177313e-06,0.0,0.0,0.0,2.9321872360177313e-06,0.0,23.457558578623136,1.5059361099766568,0.0026762752685891315,0.0
7581,8.620689655172415,5.517241379310345,2.142857142857143,0,408759.2463818374,1148775.6587719598,982899.1227111283,683152.3340813807,567447.079005451,2.7250616425455828e-06,0.0,0.0,0.0,2.7250616425455828e-06,0.0,23.66317415939501,1.8272587828848277,0.03041805481531373,0.0
7582,8.620689655172415,5.517241379310345,2.5,0,433341.32507448364,938315.3935179346,1136587.0572043676,639580.687935257,705668.6757568949,2.8889421671632243e-06,0.0,0.0,0.0,2.8889421671632243e-06,0.0,24.42813852817593,2.1384255113179376,0.07056686757568949,0.0
7583,8.620689655172415,5.517241379310345,2.857142857142857,0,628716.3053011484,1250318.3241889232,555371.0396856538,720992.004275738,312534.65856390167,4.1914420353409896e-06,0.0,0.0,0.0,4.1914420353409896e-06,0.0,23.836856081893938,2.4344016400276844,0.016753450194059064,0.0
7584,8.620689655172415,5.517241379310345,3.2142857142857144,0,276934.4301092271,610254.77269241,634714.1645072201,346361.33991632436,151899.12080834192,1.8462295340615138e-06,0.0,0.0,0.0,1.8462295340615138e-06,0.0,24.42736384570397,2.7202218242623712,0.005999635281726057,0.0
7585,8.620689655172415,5.517241379310345,3.5714285714285716,0,222109.3860498132,517792.544120187,268722.9872679385,340287.52632804355,68087.75332630321,1.480729240332088e-06,0.0,0.0,0.0,1.480729240332088e-06,0.0,23.923897075536573,3.005838161970642,0.0023972139179163922,0.0
7586,8.620689655172415,5.517241379310345,3.928571428571429,0,327429.91037629516,436717.0462110151,101037.70782174326,118212.5750786531,-28238.25373958879,2.182866069175301e-06,0.0,0.0,0.0,2.182866069175301e-06,0.0,23.52578102804509,3.2975261221492236,-0.000957369629345336,0.0
7587,8.620689655172415,5.517241379310345,4.285714285714286,0,195941.01697709167,483697.5531707552,305914.33370030805,273613.00927656743,22337.579705289645,1.3062734465139446e-06,0.0,0.0,0.0,1.3062734465139446e-06,0.0,24.25178562488718,3.595471689349577,0.0007484573064600472,0.0
7588,8.620689655172415,5.517241379310345,4.642857142857143,0,234703.80723341522,406041.0561816678,343097.66497744585,146283.41213409434,-1853.375643178545,1.5646920482227682e-06,0.0,0.0,0.0,1.5646920482227682e-06,0.0,24.29664849259453,3.897071339982055,-6.187685980668742e-05,0.0
7589,8.620689655172415,5.517241379310345,5.0,0,190621.87194080013,402079.76103889797,308991.1418355748,182799.87376625158,-26959.33677332385,1.2708124796053342e-06,0.0,0.0,0.0,1.2708124796053342e-06,0.0,23.406085521036953,4.2001224400406665,-0.0008990765725551163,0.0
7590,8.965517241379311,5.517241379310345,0.0,0,334894.87076922075,586707.9296208844,580440.5488583184,248723.355380359,53272.20223596358,2.232632471794805e-06,0.0,0.0,0.0,2.232632471794805e-06,0.0,24.425262554583522,-0.04988415553420404,0.0017765937419560642,0.0
7591,8.965517241379311,5.517241379310345,0.35714285714285715,0,113389.5845059311,481848.99747127586,353675.26804960106,394614.36420638213,-30270.48601669971,7.55930563372874e-07,0.0,0.0,0.0,7.55930563372874e-07,0.0,24.622562268619806,0.2541795726009765,-0.0010106114356414795,0.0
7592,8.965517241379311,5.517241379310345,0.7142857142857143,0,128253.69194683223,406037.3774622718,333609.56617754244,257954.49215006895,34582.762571636296,8.550246129788816e-07,0.0,0.0,0.0,8.550246129788816e-07,0.0,24.180205232612998,0.5596165637838144,0.0011587522760214191,0.0
7593,8.965517241379311,5.517241379310345,1.0714285714285714,0,150029.88102330355,447558.0548591697,370321.887794042,274645.9056621753,3509.7211064868816,1.0001992068220237e-06,0.0,0.0,0.0,1.0001992068220237e-06,0.0,23.910289607117246,0.8685108009857277,0.00011899108301134555,0.0
7594,8.965517241379311,5.517241379310345,1.4285714285714286,0,504136.1322052317,727772.5931240674,334974.46196555736,159304.3660793165,-2562.4983195599516,3.360907548034878e-06,0.0,0.0,0.0,3.360907548034878e-06,0.0,24.882184900704456,1.1833255617243443,-9.021969937600241e-05,0.0
7595,8.965517241379311,5.517241379310345,1.7857142857142858,0,385513.4081418411,747506.144761488,694895.5698160585,338389.3065094488,39074.133988174144,2.5700893876122743e-06,0.0,0.0,0.0,2.5700893876122743e-06,0.0,24.150599580519216,1.5038848800256792,0.001543330544843197,0.0
7596,8.965517241379311,5.517241379310345,2.142857142857143,0,515122.0082928353,1001952.9480617364,897422.9947627198,442582.6568323837,323661.9024349788,3.4341467219522355e-06,0.0,0.0,0.0,3.4341467219522355e-06,0.0,23.984418632823257,1.824251332563262,0.017349927163518512,0.0
7597,8.965517241379311,5.517241379310345,2.5,0,215268.94936595822,1180089.139740583,1043392.5091726119,931945.8190903576,754832.1670773195,1.4351263291063881e-06,0.0,0.0,0.0,1.4351263291063881e-06,0.0,24.740490850511048,2.1350089189491617,0.07548321670773195,0.0
7598,8.965517241379311,5.517241379310345,2.857142857142857,0,526656.7195806799,1034528.4199339283,668448.41783302,430945.4670630541,378771.362638398,3.5110447972045327e-06,0.0,0.0,0.0,3.5110447972045327e-06,0.0,24.69661098422706,2.4313941897061193,0.020304075036211768,0.0
7599,8.965517241379311,5.517241379310345,3.2142857142857144,0,336469.7580695642,691134.097844298,303667.37531028787,522180.81510734145,89882.96384209671,2.243131720463761e-06,0.0,0.0,0.0,2.243131720463761e-06,0.0,23.18042414879938,2.718170594311394,0.0035501522209175013,0.0
7600,8.965517241379311,5.517241379310345,3.5714285714285716,0,299367.3295126801,407438.03035177017,328396.15602239827,76480.84877601507,-58686.89934247039,1.9957821967512007e-06,0.0,0.0,0.0,1.9957821967512007e-06,0.0,23.652661141519236,3.004754133152916,-0.002066231370991351,0.0
7601,8.965517241379311,5.517241379310345,3.928571428571429,0,41270.798947108044,365252.62451595906,356472.72257103096,320298.3562546425,-6844.8789521048675,2.75138659647387e-07,0.0,0.0,0.0,2.75138659647387e-07,0.0,24.202314360461045,3.297082229557157,-0.00023206389763766447,0.0
7602,8.965517241379311,5.517241379310345,4.285714285714286,0,242971.18354832788,381498.3594036284,279472.94939583744,104149.38284912208,18573.407003123357,1.6198078903221859e-06,0.0,0.0,0.0,1.6198078903221859e-06,0.0,24.527890912447496,3.5953308494981,0.0006223325159104845,0.0
7603,8.965517241379311,5.517241379310345,4.642857142857143,0,219723.20486410087,509841.77064192854,345731.2598317931,260218.34422285543,-30694.64232736299,1.4648213657606725e-06,0.0,0.0,0.0,1.4648213657606725e-06,0.0,23.336187128898107,3.89703671545812,-0.0010247723320941937,0.0
7604,8.965517241379311,5.517241379310345,5.0,0,277280.2494070147,421057.3563466135,297885.6363062484,103530.32682074215,33774.85772402952,1.8485349960467645e-06,0.0,0.0,0.0,1.8485349960467645e-06,0.0,24.377617422848587,4.200115844465796,0.001126369820458802,0.0
7605,9.310344827586208,5.517241379310345,0.0,0,172114.841795285,434955.93042386026,356704.8888234885,237618.21150810982,38549.53702125279,1.1474322786352334e-06,0.0,0.0,0.0,1.1474322786352334e-06,0.0,23.55735196076761,-0.04989076078145035,0.0012856023095104273,0.0
7606,9.310344827586208,5.517241379310345,0.35714285714285715,0,423940.3554403315,569130.7835723768,229026.6191714463,94165.11855092076,-54785.927306206795,2.826269036268877e-06,0.0,0.0,0.0,2.826269036268877e-06,0.0,24.1231053557598,0.25414489730035744,-0.0018290847598988072,0.0
7607,9.310344827586208,5.517241379310345,0.7142857142857143,0,271806.6628055009,573216.8421008338,336270.74607201753,276498.8148359836,-34523.462669788714,1.8120444187033395e-06,0.0,0.0,0.0,1.8120444187033395e-06,0.0,23.485622325003032,0.5594755173914288,-0.0011567653353861415,0.0
7608,9.310344827586208,5.517241379310345,1.0714285714285714,0,175035.61819946897,442603.96819586656,268219.2777102519,266924.60451731604,-62575.01914820051,1.1669041213297931e-06,0.0,0.0,0.0,1.1669041213297931e-06,0.0,22.60739247281985,0.8680662574274864,-0.0021214988518997,0.0
7609,9.310344827586208,5.517241379310345,1.4285714285714286,0,297889.8984398983,476332.26040735445,213870.43475053806,152555.93956514524,29914.52334729291,1.9859326562659885e-06,0.0,0.0,0.0,1.9859326562659885e-06,0.0,22.892996710300576,1.182239943184002,0.0010532218822421082,0.0
7610,9.310344827586208,5.517241379310345,1.7857142857142858,0,210676.44244468666,645861.0634711826,520810.2554128639,402625.15904395416,92238.83271870494,1.404509616297911e-06,0.0,0.0,0.0,1.404509616297911e-06,0.0,23.22027166286394,1.5018306419566607,0.0036432031481118277,0.0
7611,9.310344827586208,5.517241379310345,2.142857142857143,0,574543.926882349,1317219.407871562,1165325.2333839503,681989.8841656989,251107.95231758864,3.830292845882326e-06,0.0,0.0,0.0,3.830292845882326e-06,0.0,23.492269333317964,1.8212394718314613,0.013460665744451249,0.0
7612,9.310344827586208,5.517241379310345,2.5,0,909960.0608739777,1305526.2953067822,555780.9104060851,293128.1478737699,696685.7743586749,6.066400405826518e-06,0.0,0.0,0.0,6.066400405826518e-06,0.0,23.7891898536958,2.1315873161654686,0.06966857743586749,0.0
7613,9.310344827586208,5.517241379310345,2.857142857142857,0,755693.7459378602,1067493.0323301482,837470.841955103,223516.65566421722,472016.2754395554,5.0379583062524015e-06,0.0,0.0,0.0,5.0379583062524015e-06,0.0,23.538721452192625,2.428382328974318,0.025302477484253107,0.0
7614,9.310344827586208,5.517241379310345,3.2142857142857144,0,517657.9802438085,653789.2611236505,671162.1137968859,145036.393916963,91073.3151481915,3.4510532016253897e-06,0.0,0.0,0.0,3.4510532016253897e-06,0.0,23.778564997221153,2.716116356242375,0.003597168119730411,0.0
7615,9.310344827586208,5.517241379310345,3.5714285714285716,0,484204.1310980028,461199.6825001807,632331.2932526431,85800.06680524016,72818.75246627459,3.228027540653352e-06,0.0,0.0,0.0,3.228027540653352e-06,0.0,23.558794181261057,3.0036685146125737,0.002563781566721579,0.0
7616,9.310344827586208,5.517241379310345,3.928571428571429,0,357330.3057737385,499097.3347551662,282105.7740102974,86675.6681070102,-53732.613432021564,2.3822020384915898e-06,0.0,0.0,0.0,2.3822020384915898e-06,0.0,23.809375841458717,3.296637685998916,-0.0018217122304928978,0.0
7617,9.310344827586208,5.517241379310345,4.285714285714286,0,71909.34189640584,335512.3817094214,261157.05946289492,266328.19012461655,-398.70839636521833,4.793956126427056e-07,0.0,0.0,0.0,4.793956126427056e-07,0.0,24.28179062790129,3.595189803105715,-1.3359379858680472e-05,0.0
7618,9.310344827586208,5.517241379310345,4.642857142857143,0,322649.319641871,544149.3489990259,211792.44908394117,232173.94511415347,-45464.410077229164,2.15099546427914e-06,0.0,0.0,0.0,2.15099546427914e-06,0.0,23.813704351109514,3.8970020401575005,-0.0015178762809884658,0.0
7619,9.310344827586208,5.517241379310345,5.0,0,385876.0183103967,405309.05329034466,421132.52505875373,27588.172798572265,4998.283359156352,2.572506788735978e-06,0.0,0.0,0.0,2.572506788735978e-06,0.0,24.09635128513319,4.20010923921855,0.00016668954095548085,0.0
7620,9.655172413793103,5.517241379310345,0.0,0,266947.4383392596,437499.81179014494,237457.58508876906,134382.00844141864,-8165.473157711376,1.7796495889283972e-06,0.0,0.0,0.0,1.7796495889283972e-06,0.0,24.018947227740334,-0.04989737358135164,-0.00027231328729088834,0.0
7621,9.655172413793103,5.517241379310345,0.35714285714285715,0,234160.72750626647,330467.70614532987,282326.12497991964,75977.65111532502,12258.681570818078,1.561071516708443e-06,0.0,0.0,0.0,1.561071516708443e-06,0.0,23.58758189916729,0.25411018235086946,0.00040926874363766535,0.0
7622,9.655172413793103,5.517241379310345,0.7142857142857143,0,264782.0973360055,451407.06485140533,149429.78924170102,258983.5042016947,-18508.88618644871,1.7652139822400366e-06,0.0,0.0,0.0,1.7652139822400366e-06,0.0,22.775810217753556,0.559334309722001,-0.0006201706399464797,0.0
7623,9.655172413793103,5.517241379310345,1.0714285714285714,0,278601.0926454749,435605.0665045141,408778.15506096394,144560.90923830893,35839.966654424694,1.8573406176364991e-06,0.0,0.0,0.0,1.8573406176364991e-06,0.0,23.80231820448517,0.867621205563652,0.0012150926862588432,0.0
7624,9.655172413793103,5.517241379310345,1.4285714285714286,0,471995.5935773539,536368.8727417554,504764.7326184022,49365.44009531689,-31910.689146557852,3.1466372905156928e-06,0.0,0.0,0.0,3.1466372905156928e-06,0.0,23.343657174349243,1.1811530833120378,-0.0011235023101119172,0.0
7625,9.655172413793103,5.517241379310345,1.7857142857142858,0,578255.0744358924,1004555.1613742951,674562.2893205821,336858.55685118097,2956.6144336512225,3.855033829572616e-06,0.0,0.0,0.0,3.855033829572616e-06,0.0,24.116644755038294,1.4997740550048815,0.00011677887387495809,0.0
7626,9.655172413793103,5.517241379310345,2.142857142857143,0,687936.5800178321,1190753.3657173093,435732.3038569011,599434.1931539446,459590.81460110814,4.586243866785548e-06,0.0,0.0,0.0,4.586243866785548e-06,0.0,24.373004422478957,1.8182241672399355,0.024636409470383234,0.0
7627,9.655172413793103,5.517241379310345,2.5,0,841853.3737058843,1137948.8724221555,1111379.101095034,283125.1354518368,1031494.7673559182,5.612355824705896e-06,0.0,0.0,0.0,5.612355824705896e-06,0.0,23.566139242892056,2.128161801009634,0.10314947673559183,0.0
7628,9.655172413793103,5.517241379310345,2.857142857142857,0,576954.6853131674,986299.356555481,420244.45427711646,399030.06968395016,258757.74627669476,3.846364568754449e-06,0.0,0.0,0.0,3.846364568754449e-06,0.0,23.78160893756549,2.4253670243827923,0.013870733679564737,0.0
7629,9.655172413793103,5.517241379310345,3.2142857142857144,0,605479.6738571741,868490.53312621,552288.0905105445,170372.97232751976,-7077.007646667786,4.036531159047827e-06,0.0,0.0,0.0,4.036531159047827e-06,0.0,24.038310707965273,2.714059769290596,-0.00027952409823073427,0.0
7630,9.655172413793103,5.517241379310345,3.5714285714285716,0,309063.41021424445,682520.8142693626,401478.9179269374,351522.09598192753,19355.83347844833,2.0604227347616295e-06,0.0,0.0,0.0,2.0604227347616295e-06,0.0,23.302669661385277,3.0025816547406095,0.0006814745844974653,0.0
7631,9.655172413793103,5.517241379310345,3.928571428571429,0,301992.80812757823,492506.06098479906,355275.9283670323,146266.11433003802,52852.17111188266,2.013285387517188e-06,0.0,0.0,0.0,2.013285387517188e-06,0.0,23.718462912537053,3.2961926341350813,0.0017918623415633422,0.0
7632,9.655172413793103,5.517241379310345,4.285714285714286,0,349279.2151988002,514858.36591173604,365155.78576715395,115680.35277544733,13873.281425888767,2.3285281013253348e-06,0.0,0.0,0.0,2.3285281013253348e-06,0.0,22.94483017465825,3.5950485954362867,0.0004648470866037484,0.0
7633,9.655172413793103,5.517241379310345,4.642857142857143,0,287211.8307518834,506095.00470462634,315035.53944833745,175804.0182975965,-27425.831070985216,1.914745538345889e-06,0.0,0.0,0.0,1.914745538345889e-06,0.0,24.24547740199466,3.8969673252080126,-0.000915639692637183,0.0
7634,9.655172413793103,5.517241379310345,5.0,0,429274.654831924,578995.6053679199,138687.89869455938,161677.93216536782,18955.19590889867,2.8618310322128265e-06,0.0,0.0,0.0,2.8618310322128265e-06,0.0,24.571102293011457,4.200102626418649,0.0006321436136643591,0.0
7635,10.0,5.517241379310345,0.0,0,108263.04718917863,273593.18040283537,361912.54704104696,241132.6673364242,23155.07234942808,7.217536479278575e-07,0.0,0.0,0.0,7.217536479278575e-07,0.0,23.61377605289022,-0.0499039923898561,0.0007722067964887418,0.0
7636,10.0,5.517241379310345,0.35714285714285715,0,204931.3423210096,508397.05676808493,322735.61511260434,288506.40174668445,-30509.299183125324,1.3662089488067307e-06,0.0,0.0,0.0,1.3662089488067307e-06,0.0,23.192638455860294,0.2540754358582593,-0.0010185844598221395,0.0
7637,10.0,5.517241379310345,0.7142857142857143,0,280848.6651619913,538505.0000036844,233750.65661230992,290109.2605133178,37122.1786625676,1.8723244344132754e-06,0.0,0.0,0.0,1.8723244344132754e-06,0.0,23.70402834086785,0.5591929737467328,0.0012438395841575672,0.0
7638,10.0,5.517241379310345,1.0714285714285714,0,176742.4177499299,339465.7550147543,179001.36713680113,150026.10986796828,-1303.0442264984395,1.1782827849995328e-06,0.0,0.0,0.0,1.1782827849995328e-06,0.0,22.940560058906225,0.8671757493113467,-4.4177482773818204e-05,0.0
7639,10.0,5.517241379310345,1.4285714285714286,0,259602.08962826847,443310.78379084467,543052.0156104147,248371.2488782023,-87491.19044163787,1.73068059752179e-06,0.0,0.0,0.0,1.73068059752179e-06,0.0,23.364775349003228,1.1800652358841561,-0.0030803645174872357,0.0
7640,10.0,5.517241379310345,1.7857142857142858,0,166234.06664150802,640419.4790072347,730262.3223107829,538439.7007233925,70886.73675109327,1.1082271109433869e-06,0.0,0.0,0.0,1.1082271109433869e-06,0.0,23.37838372175982,1.4977155993718982,0.002799848771704874,0.0
7641,10.0,5.517241379310345,2.142857142857143,0,163237.70487357676,976741.2868175647,961819.3531090532,806554.9371455321,366179.65745847794,1.088251365823845e-06,0.0,0.0,0.0,1.088251365823845e-06,0.0,23.331351424285504,1.8152061228454521,0.019629095478554376,0.0
7642,10.0,5.517241379310345,2.5,0,790918.8377681103,1215733.8769168076,759772.6602925021,302459.80253532133,951820.1746800954,5.272792251787402e-06,0.0,0.0,0.0,5.272792251787402e-06,0.0,23.70655115498061,2.1247331733202994,0.09518201746800956,0.0
7643,10.0,5.517241379310345,2.857142857142857,0,851941.0092599859,1198879.6742210104,224793.69392390188,592795.2606082304,279293.91318773583,5.679606728399906e-06,0.0,0.0,0.0,5.679606728399906e-06,0.0,23.81865252140257,2.422348979988309,0.01497157686637138,0.0
7644,10.0,5.517241379310345,3.2142857142857144,0,460523.68356554257,905349.6301945981,658240.68738802,374014.65298758936,44007.71931487009,3.0701578904369506e-06,0.0,0.0,0.0,3.0701578904369506e-06,0.0,23.613547658573825,2.7120013136576127,0.0017381948234113278,0.0
7645,10.0,5.517241379310345,3.5714285714285716,0,302293.26930249267,655249.3837636377,416627.5402795705,315312.23392351886,20628.70024305458,2.015288462016618e-06,0.0,0.0,0.0,2.015288462016618e-06,0.0,24.061607942330404,3.0014938073127277,0.0007262893092416366,0.0
7646,10.0,5.517241379310345,3.928571428571429,0,91146.3644837957,385908.1980274053,289774.6670211193,300741.32577494794,112441.15843170765,6.076424298919713e-07,0.0,0.0,0.0,6.076424298919713e-07,0.0,23.811061471713206,3.295747177882776,0.0038121248985027267,0.0
7647,10.0,5.517241379310345,4.285714285714286,0,310935.2817304727,373955.0333237966,416208.4192772453,86307.1516406081,87972.77941694115,2.0729018782031515e-06,0.0,0.0,0.0,2.0729018782031515e-06,0.0,23.373594229729388,3.5949072594610185,0.0029476725049408783,0.0
7648,10.0,5.517241379310345,4.642857142857143,0,391908.2382578091,566582.1753005858,390051.83543744904,117457.1343038161,-2029.0338786382372,2.612721588385394e-06,0.0,0.0,0.0,2.612721588385394e-06,0.0,23.57134418529098,3.8969325787154023,-6.774139139769765e-05,0.0
7649,10.0,5.517241379310345,5.0,0,219484.6160298793,506460.0233052083,329711.32176963775,260785.26232530407,15664.140635380665,1.4632307735325287e-06,0.0,0.0,0.0,1.4632307735325287e-06,0.0,23.589644994949584,4.200096007610144,0.0005223890332648947,0.0
7650,0.0,5.862068965517242,0.0,0,228075.36890868787,455885.35193235066,317061.61801855126,192658.23253254587,26996.200773583823,1.5205024593912526e-06,0.0,0.0,0.0,1.5205024593912526e-06,0.0,23.35872777169331,-0.04990490142894272,0.0009003059632958115,0.0
7651,0.0,5.862068965517242,0.35714285714285715,0,450631.53734835464,491004.19206575415,318551.5780563272,-20385.441666380913,-45411.917973740216,3.004210248989031e-06,0.0,0.0,0.0,3.004210248989031e-06,0.0,23.809910102090072,0.25407066371235354,-0.0015161237779055111,0.0
7652,0.0,5.862068965517242,0.7142857142857143,0,386636.5974472397,447291.7078618946,376172.7630899743,30032.837707906416,462.66347596425436,2.577577316314931e-06,0.0,0.0,0.0,2.577577316314931e-06,0.0,22.494097720153473,0.559173562409212,1.5502299872516936e-05,0.0
7653,0.0,5.862068965517242,1.0714285714285714,0,266293.96557622706,512227.7479349255,245009.17580801083,246868.12170055055,63169.91991242037,1.7752931038415137e-06,0.0,0.0,0.0,1.7752931038415137e-06,0.0,23.58061023453635,0.8671145695469745,0.00214166794342323,0.0
7654,0.0,5.862068965517242,1.4285714285714286,0,171313.1003093648,502529.2127103167,423016.59970705333,305908.35757626954,14401.226247947732,1.1420873353957653e-06,0.0,0.0,0.0,1.1420873353957653e-06,0.0,23.723943724114147,1.1799158289581873,0.000507034206741942,0.0
7655,0.0,5.862068965517242,1.7857142857142858,0,620103.7856213879,813224.5449400607,398124.2011232751,100404.65954750711,231765.3757601453,4.1340252374759195e-06,0.0,0.0,0.0,4.1340252374759195e-06,0.0,23.87355158029172,1.4974328873660738,0.009154152559233917,0.0
7656,0.0,5.862068965517242,2.142857142857143,0,361051.2996574902,797969.1698033647,1106024.6017919143,708718.3846901149,380291.9821461149,2.407008664383268e-06,0.0,0.0,0.0,2.407008664383268e-06,0.0,24.132927620163123,1.8147916191900126,0.02038558799001891,0.0
7657,0.0,5.862068965517242,2.5,0,640844.6766899993,1160287.3871453542,1084924.3741061334,485093.361657569,764339.764184437,4.272297844599995e-06,0.0,0.0,0.0,4.272297844599995e-06,0.0,23.513156415768403,2.124262279415303,0.0764339764184437,0.0
7658,0.0,5.862068965517242,2.857142857142857,0,663573.8982997267,988582.1254901821,642996.6384781011,223540.8514839273,422018.9448072809,4.423825988664844e-06,0.0,0.0,0.0,4.423825988664844e-06,0.0,24.00411287739043,2.42193447633287,0.022622365805015296,0.0
7659,0.0,5.862068965517242,3.2142857142857144,0,434171.8294377435,713949.2934588735,552654.4341351262,222214.0948909954,-19137.250584563415,2.89447886291829e-06,0.0,0.0,0.0,2.89447886291829e-06,0.0,23.89824476968781,2.7117186016517882,-0.0007558735244244667,0.0
7660,0.0,5.862068965517242,3.5714285714285716,0,308498.3723389861,438909.8114948982,285124.07030167605,83747.81740442527,66355.01178939345,2.0566558155932408e-06,0.0,0.0,0.0,2.0566558155932408e-06,0.0,23.729820999200268,3.001344400386759,0.0023362080552537558,0.0
7661,0.0,5.862068965517242,3.928571428571429,0,313700.58935731807,414120.3404510321,463970.7048265796,128329.79139584552,-15175.0400475651,2.0913372623821203e-06,0.0,0.0,0.0,2.0913372623821203e-06,0.0,22.90674278871946,3.2956859981184037,-0.0005144837425010542,0.0
7662,0.0,5.862068965517242,4.285714285714286,0,396646.7576765338,313684.5344729904,461032.08961685334,11798.498073629684,11620.82259818222,2.6443117178435583e-06,0.0,0.0,0.0,2.6443117178435583e-06,0.0,24.152405691220082,3.594887848123498,0.00038937475301434993,0.0
7663,0.0,5.862068965517242,4.642857142857143,0,284427.2137662959,497764.9569037154,376436.4483891437,172793.33480156536,-26839.62440650058,1.8961814251086396e-06,0.0,0.0,0.0,1.8961814251086396e-06,0.0,23.66007087678094,3.8969278065694968,-0.0008960685777746536,0.0
7664,0.0,5.862068965517242,5.0,0,215524.54790851314,441052.4624985563,453534.7152962235,232040.30605368895,77365.49319430621,1.4368303193900876e-06,0.0,0.0,0.0,1.4368303193900876e-06,0.0,23.49061838698785,4.200095098571057,0.0025800895266830104,0.0
7665,0.3448275862068966,5.862068965517242,0.0,0,227880.16936989527,264594.91183707904,293264.798540677,52406.34694005565,49495.45584967149,1.5192011291326352e-06,0.0,0.0,0.0,1.5192011291326352e-06,0.0,23.06884678527671,-0.04989834847740244,0.0016506416747762316,0.0
7666,0.3448275862068966,5.862068965517242,0.35714285714285715,0,176627.72992822345,334558.5515137813,342457.70477575285,162012.92279089533,2343.511451234159,1.1775181995214896e-06,0.0,0.0,0.0,1.1775181995214896e-06,0.0,22.429993732064105,0.2541050644783095,7.824054991609338e-05,0.0
7667,0.3448275862068966,5.862068965517242,0.7142857142857143,0,311982.9101524773,430019.7852229598,380715.1520921068,96320.34265393698,-49316.747607768986,2.079886067683182e-06,0.0,0.0,0.0,2.079886067683182e-06,0.0,24.6079476553297,0.5593134920953795,-0.0016524386511373001,0.0
7668,0.3448275862068966,5.862068965517242,1.0714285714285714,0,128687.72204900507,370007.3225571843,290084.54629993584,221557.26136698035,31146.556726330844,8.579181469933671e-07,0.0,0.0,0.0,8.579181469933671e-07,0.0,23.814969295753414,0.8675555935217135,0.0010559706610563614,0.0
7669,0.3448275862068966,5.862068965517242,1.4285714285714286,0,414696.84077263693,415138.10022350337,344522.6824813601,-30332.46268195392,58303.55967916471,2.764645605150913e-06,0.0,0.0,0.0,2.764645605150913e-06,0.0,23.11278087645918,1.1809928523338182,0.002052734859045042,0.0
7670,0.3448275862068966,5.862068965517242,1.7857142857142858,0,278222.4261952815,680686.0765451998,612726.6475378791,374780.16719312465,8710.20576152367,1.85481617463521e-06,0.0,0.0,0.0,1.85481617463521e-06,0.0,23.04067319280452,1.4994708614216261,0.00034403133816598833,0.0
7671,0.3448275862068966,5.862068965517242,2.142857142857143,0,958070.0154847851,1094129.529267449,849017.1344939566,37315.289358552924,371448.1123712168,6.3871334365652335e-06,0.0,0.0,0.0,6.3871334365652335e-06,0.0,23.53641363496303,1.8177796341250487,0.01991151150686238,0.0
7672,0.3448275862068966,5.862068965517242,2.5,0,370404.3406346975,858551.1929357339,661212.2675781294,431259.77882176905,704308.9708559358,2.4693622708979834e-06,0.0,0.0,0.0,2.4693622708979834e-06,0.0,24.084497849733634,2.1276567923526004,0.07043089708559358,0.0
7673,0.3448275862068966,5.862068965517242,2.857142857142857,0,869809.4812874672,1136417.8201205514,268878.55090132053,264355.76484923344,497410.61163167225,5.798729875249781e-06,0.0,0.0,0.0,5.798729875249781e-06,0.0,24.00080138373988,2.424922491267906,0.026663743298933416,0.0
7674,0.3448275862068966,5.862068965517242,3.2142857142857144,0,311508.31936788355,580395.0214307742,459438.50148028525,226549.1196705102,62329.263147474354,2.0767221291192238e-06,0.0,0.0,0.0,2.0767221291192238e-06,0.0,24.030931745053145,2.713756575707341,0.0024618499717019974,0.0
7675,0.3448275862068966,5.862068965517242,3.5714285714285716,0,397963.98156372586,480646.010106059,135362.87658909865,45402.084440456274,52470.06724111292,2.653093210424839e-06,0.0,0.0,0.0,2.653093210424839e-06,0.0,23.250992728781075,3.00242142376239,0.0018473509452075515,0.0
7676,0.3448275862068966,5.862068965517242,3.928571428571429,0,176660.4993981011,412147.1722021316,208289.55104617926,303855.59728279937,-31815.94155090237,1.1777366626540072e-06,0.0,0.0,0.0,1.1777366626540072e-06,0.0,23.60999898810227,3.2961270220931427,-0.0010786650070771634,0.0
7677,0.3448275862068966,5.862068965517242,4.285714285714286,0,262364.8873655264,360426.0301728569,211578.20647617814,57488.27157142204,-42517.20835216001,1.7490992491035094e-06,0.0,0.0,0.0,1.7490992491035094e-06,0.0,23.76769849719296,3.5950277778096655,-0.001424608917407584,0.0
7678,0.3448275862068966,5.862068965517242,4.642857142857143,0,225800.057273019,319391.19101737626,235455.1582188505,63643.5622528734,73556.59934960068,1.50533371515346e-06,0.0,0.0,0.0,1.50533371515346e-06,0.0,23.680530185924717,3.8969622073354526,0.0024557630303191874,0.0
7679,0.3448275862068966,5.862068965517242,5.0,0,64167.22510954393,378592.3978469247,346961.4512132794,304750.6788342663,-52699.14344481298,4.277815007302928e-07,0.0,0.0,0.0,4.277815007302928e-07,0.0,23.986555020472093,4.200101651522598,-0.0017574825991949381,0.0
7680,0.6896551724137931,5.862068965517242,0.0,0,269526.75077288295,479161.0780539568,328176.75786238565,167983.8088095349,-27165.58388538589,1.796845005152553e-06,0.0,0.0,0.0,1.796845005152553e-06,0.0,24.53093334615312,-0.049891811683883444,-0.0009059547813245404,0.0
7681,0.6896551724137931,5.862068965517242,0.35714285714285715,0,223843.80084991394,263185.1890945538,289979.9202125536,53944.779406019596,28390.581858214533,1.492292005666093e-06,0.0,0.0,0.0,1.492292005666093e-06,0.0,23.854004555408114,0.25413938042015144,0.0009478488939555954,0.0
7682,0.6896551724137931,5.862068965517242,0.7142857142857143,0,303178.4936278058,485646.74268179067,299887.1311465686,135789.84836320006,-19249.114564624655,2.0211899575187053e-06,0.0,0.0,0.0,2.0211899575187053e-06,0.0,23.461107627254,0.5594530767481931,-0.0006449732078792831,0.0
7683,0.6896551724137931,5.862068965517242,1.0714285714285714,0,204193.78394044773,354400.45911397313,310726.6578671978,131903.27165382466,-20593.69547429947,1.3612918929363183e-06,0.0,0.0,0.0,1.3612918929363183e-06,0.0,23.03188728560195,0.8679955300361334,-0.0006981939742059954,0.0
7684,0.6896551724137931,5.862068965517242,1.4285714285714286,0,383876.4763289867,437489.27803303406,87158.63965778727,27137.9007117425,-3120.057949353174,2.559176508859911e-06,0.0,0.0,0.0,2.559176508859911e-06,0.0,23.850948240244154,1.1820672200257434,-0.00010985009749184508,0.0
7685,0.6896551724137931,5.862068965517242,1.7857142857142858,0,310468.7671476765,487042.9068762185,436874.65974367777,154545.0301873294,-68614.56133314053,2.06979178098451e-06,0.0,0.0,0.0,2.06979178098451e-06,0.0,23.43791599149386,1.5015038103174514,-0.0027101035267602354,0.0
7686,0.6896551724137931,5.862068965517242,2.142857142857143,0,442843.53374227404,779768.3065388622,314129.1392152518,363930.91017027246,451056.0758362094,2.9522902249484937e-06,0.0,0.0,0.0,2.9522902249484937e-06,0.0,23.986797028480616,1.8207602813253114,0.024178903984514694,0.0
7687,0.6896551724137931,5.862068965517242,2.5,0,232886.9823968836,975716.4545059269,869847.6237763508,708702.1718488345,645027.8574911183,1.5525798826458906e-06,0.0,0.0,0.0,1.5525798826458906e-06,0.0,23.95954870589715,2.1310429352276485,0.06450278574911182,0.0
7688,0.6896551724137931,5.862068965517242,2.857142857142857,0,437255.61340935563,729164.8581863478,259427.65939604712,333975.65963914496,272924.28025211656,2.9150374227290375e-06,0.0,0.0,0.0,2.9150374227290375e-06,0.0,24.563722003440034,2.4279031384681686,0.014630132085073572,0.0
7689,0.6896551724137931,5.862068965517242,3.2142857142857144,0,313093.36428653967,596291.8692319394,413148.3228994814,234773.27567724587,-41254.10342102121,2.0872890952435976e-06,0.0,0.0,0.0,2.0872890952435976e-06,0.0,23.89361037392337,2.715789524603166,-0.0016294338840382666,0.0
7690,0.6896551724137931,5.862068965517242,3.5714285714285716,0,275497.60129541135,399053.2445514103,351683.2682778784,102942.13371271038,-53852.69331841373,1.8366506753027423e-06,0.0,0.0,0.0,1.8366506753027423e-06,0.0,24.01922900699537,3.003495791454315,-0.0018960300440742082,0.0
7691,0.6896551724137931,5.862068965517242,3.928571428571429,0,310860.03080473567,512189.27615698107,178105.0666652552,231460.03723078233,-59358.35350307765,2.0724002053649044e-06,0.0,0.0,0.0,2.0724002053649044e-06,0.0,23.468534531088466,3.2965669586075625,-0.002012443312389416,0.0
7692,0.6896551724137931,5.862068965517242,4.285714285714286,0,98619.91245790379,278226.99607246276,323777.118136716,210615.23882806563,8250.973501444272,6.57466083052692e-07,0.0,0.0,0.0,6.57466083052692e-07,0.0,23.084817012217503,3.595167362462479,0.0002764624226993498,0.0
7693,0.6896551724137931,5.862068965517242,4.642857142857143,0,144987.86820819328,369112.86918732704,289826.6708604522,201771.86090353626,8580.726083733829,9.665857880546219e-07,0.0,0.0,0.0,9.665857880546219e-07,0.0,24.342871016674792,3.8969965232772945,0.0002864764015200966,0.0
7694,0.6896551724137931,5.862068965517242,5.0,0,196955.29612242832,379537.8591846428,280671.31120224524,152733.666105205,22136.452994637017,1.3130353074828554e-06,0.0,0.0,0.0,1.3130353074828554e-06,0.0,24.413630720720327,4.200108188316117,0.0007382364949956409,0.0
7695,1.0344827586206897,5.862068965517242,0.0,0,241032.9442149812,258103.3704123661,275726.9065193618,26365.895215638157,24058.34386457541,1.6068862947665414e-06,0.0,0.0,0.0,1.6068862947665414e-06,0.0,23.675149820623208,-0.049885295093204184,0.0008023303215870635,0.0
7696,1.0344827586206897,5.862068965517242,0.35714285714285715,0,169063.5510046575,373587.69617635326,206330.19100726448,202774.20007688188,20633.1898262356,1.12709034003105e-06,0.0,0.0,0.0,1.12709034003105e-06,0.0,22.87829789358884,0.25417359030395875,0.0006888603500007024,0.0
7697,1.0344827586206897,5.862068965517242,0.7142857142857143,0,146761.87489663291,303265.1728823463,240673.29614028943,135584.70222262578,50679.01016459834,9.78412499310886e-07,0.0,0.0,0.0,9.78412499310886e-07,0.0,24.530434577495114,0.5595922299958596,0.0016980834961665236,0.0
7698,1.0344827586206897,5.862068965517242,1.0714285714285714,0,107124.49649326182,170260.14257025594,238323.2632194342,114842.18386563833,40794.452317242554,7.141633099550787e-07,0.0,0.0,0.0,7.141633099550787e-07,0.0,24.448837053968123,0.868434106867573,0.0013830660371023785,0.0
7699,1.0344827586206897,5.862068965517242,1.4285714285714286,0,223952.6214451074,446584.1928019397,275173.4800822298,193192.96248179433,42769.619916434254,1.493017476300716e-06,0.0,0.0,0.0,1.493017476300716e-06,0.0,23.80109443221385,1.1831382672397874,0.0015058204026253633,0.0
7700,1.0344827586206897,5.862068965517242,1.7857142857142858,0,164370.21308643723,438896.2131245873,319640.9877490863,251396.74909511412,72911.65144450085,1.0958014205762482e-06,0.0,0.0,0.0,1.0958014205762482e-06,0.0,24.39861574595523,1.5035304761112318,0.0028798278365763704,0.0
7701,1.0344827586206897,5.862068965517242,2.142857142857143,0,439270.384193611,661850.3171023126,378041.6892655145,155874.62624849996,376150.469927359,2.9284692279574067e-06,0.0,0.0,0.0,2.9284692279574067e-06,0.0,23.84842663185798,1.8237317164344309,0.02016358183235359,0.0
7702,1.0344827586206897,5.862068965517242,2.5,0,691694.4052679054,1120744.6621101229,623265.6731547128,330870.1180007675,528007.783076261,4.611296035119369e-06,0.0,0.0,0.0,4.611296035119369e-06,0.0,23.982198251721744,2.1344186127726217,0.0528007783076261,0.0
7703,1.0344827586206897,5.862068965517242,2.857142857142857,0,672201.7091479308,779176.9462315608,520482.8255375912,16060.88086762202,297297.4612553063,4.481344727652873e-06,0.0,0.0,0.0,4.481344727652873e-06,0.0,23.065389104081028,2.430874573577288,0.015936658778413847,0.0
7704,1.0344827586206897,5.862068965517242,3.2142857142857144,0,400349.16197885654,668876.7050642209,312328.05610866874,235780.38939818315,156814.66940009664,2.668994413192377e-06,0.0,0.0,0.0,2.668994413192377e-06,0.0,24.494159528235045,2.717816190396946,0.00619378715438463,0.0
7705,1.0344827586206897,5.862068965517242,3.5714285714285716,0,199546.80918067263,490006.3081063816,343394.00485546875,262760.05950880895,-17020.17112515081,1.3303120612044841e-06,0.0,0.0,0.0,1.3303120612044841e-06,0.0,23.01136318844303,3.004566838668359,-0.0005992412601866282,0.0
7706,1.0344827586206897,5.862068965517242,3.928571428571429,0,244085.7040571358,295697.89489714743,158051.04384267953,13877.194220301468,-21194.498173027012,1.627238027047572e-06,0.0,0.0,0.0,1.627238027047572e-06,0.0,24.753341991985515,3.2970055354390024,-0.000718563160710757,0.0
7707,1.0344827586206897,5.862068965517242,4.285714285714286,0,213267.59586389805,381794.78578915837,219358.34058435843,140283.49285155034,-11926.281504933808,1.421783972425987e-06,0.0,0.0,0.0,1.421783972425987e-06,0.0,24.80878590535496,3.5953065157101456,-0.00039960965552383643,0.0
7708,1.0344827586206897,5.862068965517242,4.642857142857143,0,119819.39314318907,278838.7060809885,306548.26505856233,175301.73871696906,-18042.861946650013,7.987959542879272e-07,0.0,0.0,0.0,7.987959542879272e-07,0.0,22.624811888119485,3.897030733161102,-0.0006023795787396815,0.0
7709,1.0344827586206897,5.862068965517242,5.0,0,254462.5544666192,475074.77897584473,289593.8868753324,184979.777303288,-15255.873300802812,1.6964170297774615e-06,0.0,0.0,0.0,1.6964170297774615e-06,0.0,24.685300334984216,4.200114704906796,-0.0005087735797786027,0.0
7710,1.3793103448275863,5.862068965517242,0.0,0,197700.14127648788,259835.87559652512,284525.21892491775,75640.03462973017,7308.7067212669535,1.3180009418432525e-06,0.0,0.0,0.0,1.3180009418432525e-06,0.0,23.817218376866876,-0.049878804202624645,0.00024374067670942476,0.0
7711,1.3793103448275863,5.862068965517242,0.35714285714285715,0,270052.84382745327,363614.5860858695,175542.52681446672,54171.46777768428,8297.794654373358,1.8003522921830217e-06,0.0,0.0,0.0,1.8003522921830217e-06,0.0,24.152458619145623,0.2542076652709869,0.0002770304435709465,0.0
7712,1.3793103448275863,5.862068965517242,0.7142857142857143,0,235646.47894195808,353740.4676616982,259339.58586469782,85529.5786511138,27579.67725089482,1.5709765262797206e-06,0.0,0.0,0.0,1.5709765262797206e-06,0.0,23.240806125259063,0.5597308344516012,0.0009241023969733838,0.0
7713,1.3793103448275863,5.862068965517242,1.0714285714285714,0,161268.18681312012,331534.28222410637,151983.73074962298,198996.5500922879,68428.83743568319,1.0751212454208009e-06,0.0,0.0,0.0,1.0751212454208009e-06,0.0,23.78951143454284,0.8688709540417638,0.002319962535094292,0.0
7714,1.3793103448275863,5.862068965517242,1.4285714285714286,0,262020.40196527576,313772.7517916101,233665.08518825466,21049.643825265404,-8792.555166529412,1.746802679768505e-06,0.0,0.0,0.0,1.746802679768505e-06,0.0,23.364992754596134,1.1842050904628567,-0.0003095657381767275,0.0
7715,1.3793103448275863,5.862068965517242,1.7857142857142858,0,369136.6990324438,503370.51158309396,344492.30934255396,81396.4630309166,51275.79805557742,2.460911326882959e-06,0.0,0.0,0.0,2.460911326882959e-06,0.0,23.565632996486027,1.5055491491499695,0.002025265751873977,0.0
7716,1.3793103448275863,5.862068965517242,2.142857142857143,0,206996.44459738975,437823.6485279527,449782.51847402134,237065.89006891492,148713.98624802742,1.3799762973159317e-06,0.0,0.0,0.0,1.3799762973159317e-06,0.0,24.576125403431828,1.8266914328117168,0.00797182742296371,0.0
7717,1.3793103448275863,5.862068965517242,2.5,0,658309.9415400935,945531.5204831149,567958.5044092466,185386.15648945092,405193.2348813717,4.388732943600623e-06,0.0,0.0,0.0,4.388732943600623e-06,0.0,24.46931846483423,2.13778097733634,0.04051932348813717,0.0
7718,1.3793103448275863,5.862068965517242,2.857142857142857,0,462592.06860473397,822856.3522740424,462466.8436643014,301222.0374331542,278822.159244152,3.0839471240315597e-06,0.0,0.0,0.0,3.0839471240315597e-06,0.0,24.384717667372563,2.4338342899545737,0.014946288451211284,0.0
7719,1.3793103448275863,5.862068965517242,3.2142857142857144,0,239031.34068980376,532947.8389885805,261371.95473627976,354488.05425631854,78743.06132254773,1.5935422712653585e-06,0.0,0.0,0.0,1.5935422712653585e-06,0.0,23.709661358745464,2.719834863435684,0.003110153938928731,0.0
7720,1.3793103448275863,5.862068965517242,3.5714285714285716,0,226977.6913745061,146882.46664232694,315726.4074190094,57702.40614119198,22361.20072739297,1.513184609163374e-06,0.0,0.0,0.0,1.513184609163374e-06,0.0,23.638779302034887,3.0056336618914283,0.0007872866849950888,0.0
7721,1.3793103448275863,5.862068965517242,3.928571428571429,0,106695.22966762194,232891.10002886664,206896.79964755234,115600.64087454157,19441.746112060166,7.113015311174796e-07,0.0,0.0,0.0,7.113015311174796e-07,0.0,23.164000029803777,3.2974423826131933,0.0006591391040245045,0.0
7722,1.3793103448275863,5.862068965517242,4.285714285714286,0,123569.60279528478,257379.5905603583,224057.99802293145,120565.97352549838,38063.158783749466,8.237973519685652e-07,0.0,0.0,0.0,8.237973519685652e-07,0.0,24.332418047967646,3.595445120165887,0.0012753686690550436,0.0
7723,1.3793103448275863,5.862068965517242,4.642857142857143,0,189822.58377949626,319299.1126581795,221072.5820993964,100491.19562596393,51460.70696548552,1.2654838918633084e-06,0.0,0.0,0.0,1.2654838918633084e-06,0.0,24.96647104485619,3.89706480812813,0.0017180688449079926,0.0
7724,1.3793103448275863,5.862068965517242,5.0,0,257794.77978710362,319095.95685959095,214450.01922346425,25432.835377961976,-7341.825676661106,1.7186318652473574e-06,0.0,0.0,0.0,1.7186318652473574e-06,0.0,24.730778697195312,4.200121195797376,-0.00024484517260829435,0.0
7725,1.7241379310344829,5.862068965517242,0.0,0,171107.10213523806,271501.04049398494,201965.91529940692,76573.27630388585,-22545.359025944468,1.1407140142349205e-06,0.0,0.0,0.0,1.1407140142349205e-06,0.0,24.047516713802132,-0.049872346665654245,-0.0007518732486077993,0.0
7726,1.7241379310344829,5.862068965517242,0.35714285714285715,0,208629.351652702,316842.40010363027,179615.82485810932,76756.50051086501,18410.61050845476,1.3908623443513466e-06,0.0,0.0,0.0,1.3908623443513466e-06,0.0,24.28357794902755,0.2542415651429157,0.0006146572442451363,0.0
7727,1.7241379310344829,5.862068965517242,0.7142857142857143,0,112168.35941572361,224138.31395667026,277420.337523157,148541.80656270447,26339.931577923584,7.477890627714907e-07,0.0,0.0,0.0,7.477890627714907e-07,0.0,24.165357543159192,0.5598687266847618,0.0008825626814209501,0.0
7728,1.7241379310344829,5.862068965517242,1.0714285714285714,0,161206.8552362133,326018.2663274229,247597.58174874826,140604.99196143931,4132.895872179359,1.074712368241422e-06,0.0,0.0,0.0,1.074712368241422e-06,0.0,24.5011060675825,0.8693055564654508,0.00014011875612988386,0.0
7729,1.7241379310344829,5.862068965517242,1.4285714285714286,0,296374.19776869623,369717.545980763,237601.61594259276,30261.152151909027,-1799.569509949085,1.9758279851246417e-06,0.0,0.0,0.0,1.9758279851246417e-06,0.0,24.922162739308135,1.1852664317872006,-6.335872260072635e-05,0.0
7730,1.7241379310344829,5.862068965517242,1.7857142857142858,0,318284.2643560264,520212.2938103369,295334.94192927587,156024.724337227,26564.21962169055,2.1218950957068427e-06,0.0,0.0,0.0,2.1218950957068427e-06,0.0,23.771053200891984,1.5075574491850832,0.0010492202221163993,0.0
7731,1.7241379310344829,5.862068965517242,2.142857142857143,0,413101.79381483595,690540.5815635169,484612.0828196208,214952.9538229416,267258.84255799936,2.754011958765573e-06,0.0,0.0,0.0,2.754011958765573e-06,0.0,23.794381669963187,1.8296359406098435,0.014326435756890086,0.0
7732,1.7241379310344829,5.862068965517242,2.5,0,488175.0663101428,1151941.7174548288,660670.605374187,666922.7530646403,544715.3677348648,3.2545004420676187e-06,0.0,0.0,0.0,3.2545004420676187e-06,0.0,23.921750083032148,2.1411260643027785,0.054471536773486484,0.0
7733,1.7241379310344829,5.862068965517242,2.857142857142857,0,427826.08835737105,787319.7130682361,716623.186620218,328548.891706015,222395.7962946518,2.8521739223824735e-06,0.0,0.0,0.0,2.8521739223824735e-06,0.0,24.053627282743598,2.4367787977527002,0.011921547881156826,0.0
7734,1.7241379310344829,5.862068965517242,3.2142857142857144,0,262665.60170279705,390013.9287551078,205756.49539347534,89246.48842470127,12208.893482705163,1.7511040113519804e-06,0.0,0.0,0.0,1.7511040113519804e-06,0.0,24.43895037574878,2.7218431634707976,0.0004822207508501298,0.0
7735,1.7241379310344829,5.862068965517242,3.5714285714285716,0,243534.24254180654,354425.940781964,280915.8287544095,82604.67098431746,24490.062991805204,1.623561616945377e-06,0.0,0.0,0.0,1.623561616945377e-06,0.0,24.045917768761527,3.006695003215772,0.0008622390516140726,0.0
7736,1.7241379310344829,5.862068965517242,3.928571428571429,0,214950.59643518872,334284.50960924814,268865.1041013009,94224.89741453367,-24454.287875943897,1.4330039762345914e-06,0.0,0.0,0.0,1.4330039762345914e-06,0.0,23.65754668334282,3.29787698503688,-0.0008290807475419151,0.0
7737,1.7241379310344829,5.862068965517242,4.285714285714286,0,126601.3007846797,248851.08589691954,113558.39240697108,133248.4603498001,4267.105144478136,8.440086718978647e-07,0.0,0.0,0.0,8.440086718978647e-07,0.0,23.668883875555252,3.5955830123990475,0.00014297636829748486,0.0
7738,1.7241379310344829,5.862068965517242,4.642857142857143,0,183753.95736349965,342370.10988606873,186602.71588307808,139714.99760493232,2761.024359832458,1.225026382423331e-06,0.0,0.0,0.0,1.225026382423331e-06,0.0,23.50611004836891,3.8970987080000588,9.2179649530305e-05,0.0
7739,1.7241379310344829,5.862068965517242,5.0,0,172622.1044909214,302545.6435531132,136908.1870321741,123697.93161151705,11.54547151262929,1.150814029939476e-06,0.0,0.0,0.0,1.150814029939476e-06,0.0,24.04494615288502,4.200127653334346,3.850340623504768e-07,0.0
7740,2.0689655172413794,5.862068965517242,0.0,0,99354.53947274102,141603.7449501415,209434.8733029463,95391.11163259398,-17121.74037419346,6.623635964849401e-07,0.0,0.0,0.0,6.623635964849401e-07,0.0,24.643991664407128,-0.049865933438872974,-0.000570999048724391,0.0
7741,2.0689655172413794,5.862068965517242,0.35714285714285715,0,160297.85851621706,282444.33983280667,167433.19222238127,99341.27246627785,46204.01889268285,1.0686523901081137e-06,0.0,0.0,0.0,1.0686523901081137e-06,0.0,24.34199479308253,0.2542752324014279,0.0015425688850776893,0.0
7742,2.0689655172413794,5.862068965517242,0.7142857142857143,0,126291.00239175236,245615.85420900237,180169.03012103753,100034.33568740427,10652.080994855254,8.419400159450157e-07,0.0,0.0,0.0,8.419400159450157e-07,0.0,24.418253800102967,0.560005672731945,0.0003569154740482321,0.0
7743,2.0689655172413794,5.862068965517242,1.0714285714285714,0,254051.84129885686,305002.17920386116,170147.0318419033,11957.88409065324,-13990.930550666675,1.693678941992379e-06,0.0,0.0,0.0,1.693678941992379e-06,0.0,23.599191535389675,0.8697371767435181,-0.000474338538034652,0.0
7744,2.0689655172413794,5.862068965517242,1.4285714285714286,0,222764.04925203772,380499.70881119865,270140.1279156945,124100.15338597026,14615.0629197143,1.4850936616802515e-06,0.0,0.0,0.0,1.4850936616802515e-06,0.0,23.559633441171886,1.186320490422335,0.0005145629064078436,0.0
7745,2.0689655172413794,5.862068965517242,1.7857142857142858,0,302037.07053351507,476374.2806413043,341936.47435308935,130459.75651118849,132298.27059398754,2.013580470223434e-06,0.0,0.0,0.0,2.013580470223434e-06,0.0,24.23995254957077,1.5095519687099506,0.005225450731663737,0.0
7746,2.0689655172413794,5.862068965517242,2.142857142857143,0,743980.1750151995,905515.8978663713,506869.56472667464,47165.16994468368,262278.7613158027,4.959867833434663e-06,0.0,0.0,0.0,4.959867833434663e-06,0.0,24.77866280672826,1.8325602438473103,0.014059478026707813,0.0
7747,2.0689655172413794,5.862068965517242,2.5,0,163147.79361427407,770689.5660251819,585154.8491672472,706203.9011724533,583724.8389804,1.0876519574284937e-06,0.0,0.0,0.0,1.0876519574284937e-06,0.0,24.582654141454903,2.144448198022984,0.058372483898040006,0.0
7748,2.0689655172413794,5.862068965517242,2.857142857142857,0,390109.34676223184,764166.4235057753,553273.1705762816,314004.944832906,178233.58030202915,2.600728978414879e-06,0.0,0.0,0.0,2.600728978414879e-06,0.0,23.828187341218065,2.439703100990167,0.009554228078958291,0.0
7749,2.0689655172413794,5.862068965517242,3.2142857142857144,0,307334.9375087808,532288.5633956211,296913.4195126306,184593.01323364684,9271.263121007156,2.048899583391872e-06,0.0,0.0,0.0,2.048899583391872e-06,0.0,25.315318123981644,2.7238376829956654,0.0003661917003268489,0.0
7750,2.0689655172413794,5.862068965517242,3.5714285714285716,0,219724.60169793785,313827.55862157524,332910.79569528374,104266.97922694159,-64482.27913802809,1.4648306779862523e-06,0.0,0.0,0.0,1.4648306779862523e-06,0.0,23.159579139742814,3.0077490618509066,-0.0022702734259398053,0.0
7751,2.0689655172413794,5.862068965517242,3.928571428571429,0,182085.55202596207,318309.82848556415,124773.36123489334,150387.71134220247,54591.59772320459,1.2139036801730805e-06,0.0,0.0,0.0,1.2139036801730805e-06,0.0,24.193681768543712,3.2983086053149475,0.0018508346217018996,0.0
7752,2.0689655172413794,5.862068965517242,4.285714285714286,0,171288.7714728483,235530.0444206092,94850.9623668584,44787.47130125203,-45490.99787707626,1.141925143152322e-06,0.0,0.0,0.0,1.141925143152322e-06,0.0,24.235272886026806,3.5957199584462307,-0.0015242506210819912,0.0
7753,2.0689655172413794,5.862068965517242,4.642857142857143,0,153921.76665900415,243952.76661421082,90138.33352110678,89923.89046016472,4642.094163016226,1.0261451110600276e-06,0.0,0.0,0.0,1.0261451110600276e-06,0.0,24.0840756257028,3.8971323752585714,0.00015498110746819927,0.0
7754,2.0689655172413794,5.862068965517242,5.0,0,131852.55914927885,196485.8531146093,75685.41943818642,55832.66890505887,46294.27760073867,8.790170609951924e-07,0.0,0.0,0.0,8.790170609951924e-07,0.0,24.456211212451866,4.2001340665611275,0.0015438844354424962,0.0
7755,2.413793103448276,5.862068965517242,0.0,0,112771.03374527677,269818.6622124791,214827.5533584208,140101.34145249528,24996.89802411932,7.518068916351785e-07,0.0,0.0,0.0,7.518068916351785e-07,0.0,24.119976647500565,-0.049859580724213204,0.0008336305002233219,0.0
7756,2.413793103448276,5.862068965517242,0.35714285714285715,0,189689.15093197182,274188.9970092318,208598.67544263837,60409.28918148289,9687.397978696426,1.2645943395464788e-06,0.0,0.0,0.0,1.2645943395464788e-06,0.0,23.47816194141367,0.25430858199189144,0.00032342378558043895,0.0
7757,2.413793103448276,5.862068965517242,0.7142857142857143,0,137728.3702292687,319176.45877974335,243170.00114896332,160192.37294628687,33142.092153239435,9.181891348617914e-07,0.0,0.0,0.0,9.181891348617914e-07,0.0,24.18630840776217,0.5601413266221331,0.001110480246774014,0.0
7758,2.413793103448276,5.862068965517242,1.0714285714285714,0,194209.86298399512,308179.9488769391,130025.36797824666,101148.5153936553,-17613.852975682792,1.2947324198933007e-06,0.0,0.0,0.0,1.2947324198933007e-06,0.0,24.317613646756968,0.8701647244603615,-0.0005971675178706797,0.0
7759,2.413793103448276,5.862068965517242,1.4285714285714286,0,108451.65650926791,291599.22000698384,262549.2200065219,171580.92673848817,19894.239105482546,7.230110433951194e-07,0.0,0.0,0.0,7.230110433951194e-07,0.0,24.69583299431703,1.1873646034674605,0.0007004306140263809,0.0
7760,2.413793103448276,5.862068965517242,1.7857142857142858,0,116026.1123757907,338567.6591220229,315092.1545526107,212598.85034676237,41668.24346196959,7.735074158386047e-07,0.0,0.0,0.0,7.735074158386047e-07,0.0,24.95356640853129,1.5115276689084567,0.001645791379644739,0.0
7761,2.413793103448276,5.862068965517242,2.142857142857143,0,280316.5555311898,713071.7579463905,481246.3231829173,401531.5957814243,238771.05041393556,1.8687770368745985e-06,0.0,0.0,0.0,1.8687770368745985e-06,0.0,23.821779146298475,1.8354569547667678,0.012799344940731221,0.0
7762,2.413793103448276,5.862068965517242,2.5,0,679952.2991579483,943705.9313253774,637135.0121501877,164444.56743535693,460257.71757438837,4.533015327719656e-06,0.0,0.0,0.0,4.533015327719656e-06,0.0,25.090355494960928,2.147738985688204,0.046025771757438834,0.0
7763,2.413793103448276,5.862068965517242,2.857142857142857,0,385075.47944519063,755378.7721954382,360118.1424344037,381368.4675467325,324646.9424108425,2.5671698629679375e-06,0.0,0.0,0.0,2.5671698629679375e-06,0.0,24.044937724679073,2.442599811909625,0.017402730325416203,0.0
7764,2.413793103448276,5.862068965517242,3.2142857142857144,0,526961.8827162981,539012.0790725072,539257.6106826285,12173.005062219412,116046.2358060666,3.513079218108654e-06,0.0,0.0,0.0,3.513079218108654e-06,0.0,24.008477612501423,2.7258133831941715,0.004583536013562913,0.0
7765,2.413793103448276,5.862068965517242,3.5714285714285716,0,171125.65390548966,296107.8983496088,298814.72687364626,126351.71546965682,-4369.625598112989,1.1408376927032644e-06,0.0,0.0,0.0,1.1408376927032644e-06,0.0,24.06297144490845,3.008793174896032,-0.00015384451370689583,0.0
7766,2.413793103448276,5.862068965517242,3.928571428571429,0,141919.84228495625,241247.34224633998,157960.04010633082,77379.87757658726,-28797.267954704654,9.461322818997084e-07,0.0,0.0,0.0,9.461322818997084e-07,0.0,23.297556174742937,3.2987361530317907,-0.0009763220488844362,0.0
7767,2.413793103448276,5.862068965517242,4.285714285714286,0,164066.57828268904,220201.12995741423,124445.20896330888,30757.12549035539,-21163.20752707321,1.0937771885512603e-06,0.0,0.0,0.0,1.0937771885512603e-06,0.0,24.066675374076436,3.5958556123364187,-0.0007091080372515595,0.0
7768,2.413793103448276,5.862068965517242,4.642857142857143,0,172275.99644764006,254564.26690134453,175683.5531015633,56970.839544838884,50144.51033378164,1.1485066429842672e-06,0.0,0.0,0.0,1.1485066429842672e-06,0.0,24.938170144423566,3.897165724849035,0.0016741262611378175,0.0
7769,2.413793103448276,5.862068965517242,5.0,0,161233.56475534206,253345.62102481088,189556.28631714068,69976.68857330417,38113.903397596005,1.0748904317022803e-06,0.0,0.0,0.0,1.0748904317022803e-06,0.0,24.526078533932214,4.200140419275787,0.0012710742078534656,0.0
7770,2.7586206896551726,5.862068965517242,0.0,0,158889.86789056045,264116.0272873502,231597.23926580016,91482.44602852942,-27678.379576090476,1.0592657859370696e-06,0.0,0.0,0.0,1.0592657859370696e-06,0.0,24.42765361085296,-0.04985331340493012,-0.0009230561883768055,0.0
7771,2.7586206896551726,5.862068965517242,0.35714285714285715,0,155188.0232343891,247122.1279533391,118280.81146497469,74843.88337627008,42136.88141148446,1.0345868215625942e-06,0.0,0.0,0.0,1.0345868215625942e-06,0.0,24.493957632966353,0.254341483285683,0.001406783300182964,0.0
7772,2.7586206896551726,5.862068965517242,0.7142857142857143,0,123844.52689902889,247690.66077551467,192675.30518487032,105870.03607665708,-18107.611078140573,8.256301793268593e-07,0.0,0.0,0.0,8.256301793268593e-07,0.0,24.954065797425045,0.5602751570060451,-0.0006067252581872978,0.0
7773,2.7586206896551726,5.862068965517242,1.0714285714285714,0,143792.62967206043,221463.92897121323,103355.5423432013,61344.770886509636,17593.499115809536,9.586175311470695e-07,0.0,0.0,0.0,9.586175311470695e-07,0.0,23.889082088732312,0.8705865249336583,0.0005964774551117604,0.0
7774,2.7586206896551726,5.862068965517242,1.4285714285714286,0,233515.29674695633,362076.8621785127,239878.05387456753,92818.90727341629,-17876.72527142836,1.5567686449797088e-06,0.0,0.0,0.0,1.5567686449797088e-06,0.0,24.78475126537365,1.1883946811857111,-0.0006293985707247672,0.0
7775,2.7586206896551726,5.862068965517242,1.7857142857142858,0,254434.77574253018,443150.5414565743,296145.1772967185,149354.59509395715,140379.40987771493,1.6962318382835346e-06,0.0,0.0,0.0,1.6962318382835346e-06,0.0,24.37080808047449,1.5134768110649741,0.0055446355176268355,0.0
7776,2.7586206896551726,5.862068965517242,2.142857142857143,0,387504.90675534256,624112.6673592203,703152.2713259583,282221.13165969786,207030.80514707655,2.583366045035617e-06,0.0,0.0,0.0,2.583366045035617e-06,0.0,23.950349691643222,1.8383147271011677,0.011097906064579133,0.0
7777,2.7586206896551726,5.862068965517242,2.5,0,305393.6609261928,647148.0281113982,297355.5704885319,433532.0940257914,359154.7160677569,2.0359577395079523e-06,0.0,0.0,0.0,2.0359577395079523e-06,0.0,24.57884021796502,2.150985537453131,0.03591547160677569,0.0
7778,2.7586206896551726,5.862068965517242,2.857142857142857,0,227302.36111617126,474411.54171734495,629939.5027718396,369078.13458802295,214378.08977854304,1.5153490741078085e-06,0.0,0.0,0.0,1.5153490741078085e-06,0.0,24.39366317945246,2.445457584244025,0.011491757958319365,0.0
7779,2.7586206896551726,5.862068965517242,3.2142857142857144,0,376074.2147945413,550648.6361601609,156795.0919525772,195319.35675400824,160631.98047078977,2.5071614319636087e-06,0.0,0.0,0.0,2.5071614319636087e-06,0.0,23.953121196286077,2.727762525350689,0.006344561392307647,0.0
7780,2.7586206896551726,5.862068965517242,3.5714285714285716,0,198707.11650157475,338494.63410369534,132407.8309669941,148097.40990552894,11768.990777808214,1.3247141100104983e-06,0.0,0.0,0.0,1.3247141100104983e-06,0.0,23.826453532328483,3.0098232526142827,0.0004143592219467835,0.0
7781,2.7586206896551726,5.862068965517242,3.928571428571429,0,72129.13992041198,177036.76420607028,95590.47018790267,121230.88804447513,-26790.994378834428,4.808609328027465e-07,0.0,0.0,0.0,4.808609328027465e-07,0.0,24.148509717753765,3.2991579535050874,-0.0009083027794420265,0.0
7782,2.7586206896551726,5.862068965517242,4.285714285714286,0,179750.89689491983,293334.83862835413,190887.02305059385,85782.05075956996,-20060.112007974803,1.198339312632799e-06,0.0,0.0,0.0,1.198339312632799e-06,0.0,24.115185719136324,3.595989442720331,-0.0006721470096073233,0.0
7783,2.7586206896551726,5.862068965517242,4.642857142857143,0,169774.55394824455,300485.63562265923,118028.25056054992,147165.26775949367,-44335.48796594177,1.1318303596549636e-06,0.0,0.0,0.0,1.1318303596549636e-06,0.0,24.98590668577967,3.8971986261428264,-0.0014801860504785843,0.0
7784,2.7586206896551726,5.862068965517242,5.0,0,183899.94319856397,259941.167920554,109146.40302478403,55064.46948568542,13699.485949365764,1.2259996213237597e-06,0.0,0.0,0.0,1.2259996213237597e-06,0.0,24.27303574221771,4.20014668659507,0.00045686906086318314,0.0
7785,3.1034482758620694,5.862068965517242,0.0,0,294046.19016275957,336148.57622941653,188641.8820568031,-2452.8279196786984,-31855.194157153568,1.9603079344183973e-06,0.0,0.0,0.0,1.9603079344183973e-06,0.0,24.21823062992297,-0.04984717142444267,-0.0010623502729945054,0.0
7786,3.1034482758620694,5.862068965517242,0.35714285714285715,0,193002.7553258749,265824.5719599788,201367.73154338796,48842.12512164713,28170.154406673388,1.2866850355058325e-06,0.0,0.0,0.0,1.2866850355058325e-06,0.0,24.973913494976856,0.25437372659344376,0.0009404896958530643,0.0
7787,3.1034482758620694,5.862068965517242,0.7142857142857143,0,8320.930730270833,183168.20915134184,180953.36993986726,173963.95351734935,20197.73979705788,5.5472871535138884e-08,0.0,0.0,0.0,5.5472871535138884e-08,0.0,25.08907654733443,0.560406310944354,0.0006767584547893982,0.0
7788,3.1034482758620694,5.862068965517242,1.0714285714285714,0,167281.86943256832,282560.50733280124,175786.6435211823,89772.24707640459,-2465.0189483327317,1.1152124628837887e-06,0.0,0.0,0.0,1.1152124628837887e-06,0.0,24.00324492415471,0.8709998899083101,-8.357224560193017e-05,0.0
7789,3.1034482758620694,5.862068965517242,1.4285714285714286,0,184444.96078808172,321004.08540749,326145.90226982336,139183.7932632695,41673.84865343836,1.2296330719205449e-06,0.0,0.0,0.0,1.2296330719205449e-06,0.0,23.80182918376941,1.189404158597071,0.0014672408050592938,0.0
7790,3.1034482758620694,5.862068965517242,1.7857142857142858,0,209147.57279268367,385469.5632578741,319639.25353192445,151326.96258764845,86749.94372700423,1.3943171519512246e-06,0.0,0.0,0.0,1.3943171519512246e-06,0.0,24.686063414972526,1.5153869727388676,0.003426405763921327,0.0
7791,3.1034482758620694,5.862068965517242,2.142857142857143,0,340224.08795630344,723978.7517732221,559288.8188755994,332748.1276332015,255148.06560686903,2.2681605863753564e-06,0.0,0.0,0.0,2.2681605863753564e-06,0.0,24.32949275939327,1.8411153474497814,0.013677236402826651,0.0
7792,3.1034482758620694,5.862068965517242,2.5,0,220425.18441061885,509305.4262762123,556774.8003498849,316482.3708602662,382234.9757069915,1.4695012294041258e-06,0.0,0.0,0.0,1.4695012294041258e-06,0.0,24.165311144621317,2.154167162114492,0.03822349757069915,0.0
7793,3.1034482758620694,5.862068965517242,2.857142857142857,0,499508.14558521117,778146.1039668367,312024.4313072601,250880.7006878669,271815.14962253545,3.330054303901408e-06,0.0,0.0,0.0,3.330054303901408e-06,0.0,24.961808152982076,2.4482582045926384,0.014570677031842753,0.0
7794,3.1034482758620694,5.862068965517242,3.2142857142857144,0,129178.65793587055,361375.00578627223,355063.41508463706,229156.2469903829,64047.55812838246,8.611910529058036e-07,0.0,0.0,0.0,8.611910529058036e-07,0.0,24.31709792805344,2.729672687024582,0.0025297183249683507,0.0
7795,3.1034482758620694,5.862068965517242,3.5714285714285716,0,131556.17734241043,245733.82905852707,174074.08195524086,93905.29913204684,18885.898735271494,8.770411822827362e-07,0.0,0.0,0.0,8.770411822827362e-07,0.0,25.411223279916126,3.0108327300256423,0.0006649292580353453,0.0
7796,3.1034482758620694,5.862068965517242,3.928571428571429,0,115252.09893265265,257333.95368980846,179538.18158420947,124927.19270926624,2249.917378723317,7.683473262176844e-07,0.0,0.0,0.0,7.683473262176844e-07,0.0,24.480702552692954,3.2995713184797393,7.627959528907254e-05,0.0
7797,3.1034482758620694,5.862068965517242,4.285714285714286,0,159967.74927343382,277727.85665449174,194528.17905538206,93306.30716933652,8365.457402451439,1.066451661822892e-06,0.0,0.0,0.0,1.066451661822892e-06,0.0,24.54365806126146,3.59612059665864,0.00028029839388832203,0.0
7798,3.1034482758620694,5.862068965517242,4.642857142857143,0,175824.14567469005,263134.3062323269,79419.52101259863,96438.49787903279,7698.246822177387,1.1721609711646003e-06,0.0,0.0,0.0,1.1721609711646003e-06,0.0,25.58621134633657,3.897230869450587,0.00025701392004710757,0.0
7799,3.1034482758620694,5.862068965517242,5.0,0,142130.53522927908,216895.27238325065,96313.65393202087,60187.949980053614,34696.67413763617,9.475369015285272e-07,0.0,0.0,0.0,9.475369015285272e-07,0.0,24.625887769705773,4.200152828575558,0.0011571118060142698,0.0
7800,3.4482758620689657,5.862068965517242,0.0,0,138879.70104801696,233869.04132205519,229474.07197021396,92844.0213857121,-33152.93010899942,9.258646736534464e-07,0.0,0.0,0.0,9.258646736534464e-07,0.0,24.13970230683837,-0.04984122224463713,-0.0011056289337967853,0.0
7801,3.4482758620689657,5.862068965517242,0.35714285714285715,0,108931.46172271474,201281.41308805987,147631.59423724905,75930.68950208202,-26067.117763703445,7.262097448180982e-07,0.0,0.0,0.0,7.262097448180982e-07,0.0,23.987326839367146,0.25440495776322464,-0.0008702776457463706,0.0
7802,3.4482758620689657,5.862068965517242,0.7142857142857143,0,93017.21893684968,249356.6879165372,150579.30840259005,163437.53154587158,1965.2068390941238,6.201147929123312e-07,0.0,0.0,0.0,6.201147929123312e-07,0.0,24.271333067779775,0.5605333478769525,6.584748378433054e-05,0.0
7803,3.4482758620689657,5.862068965517242,1.0714285714285714,0,269511.35063452687,326822.90405313764,197246.3967201363,16996.256086106212,-20270.46316683747,1.7967423375635124e-06,0.0,0.0,0.0,1.7967423375635124e-06,0.0,24.625039345237685,0.871400279092962,-0.0006872353364219071,0.0
7804,3.4482758620689657,5.862068965517242,1.4285714285714286,0,125253.00895710054,312327.1756855982,194703.81842763445,180632.88168551723,10521.043693920012,8.350200597140035e-07,0.0,0.0,0.0,8.350200597140035e-07,0.0,24.967268359527132,1.1903819478691287,0.0003704218621108219,0.0
7805,3.4482758620689657,5.862068965517242,1.7857142857142858,0,441384.9821130977,524751.6117498181,350847.49568091606,22903.517043889697,-2677.205515804919,2.9425665474206513e-06,0.0,0.0,0.0,2.9425665474206513e-06,0.0,23.764444522730756,1.5172371732204346,-0.00010574292058820595,0.0
7806,3.4482758620689657,5.862068965517242,2.142857142857143,0,471203.8550749108,856550.767928537,457622.86894361494,336656.68315528746,186839.19020278455,3.1413590338327385e-06,0.0,0.0,0.0,3.1413590338327385e-06,0.0,24.52281517697527,1.8438280545407626,0.01001553261882688,0.0
7807,3.4482758620689657,5.862068965517242,2.5,0,461850.7171433311,688810.8747715383,577436.2255460549,181456.80292336573,611259.4553231669,3.0790047809555405e-06,0.0,0.0,0.0,3.0790047809555405e-06,0.0,25.16534405012446,2.157248913550023,0.06112594553231669,0.0
7808,3.4482758620689657,5.862068965517242,2.857142857142857,0,284034.7346337334,638681.3399762106,371278.28607709875,340518.767327295,235007.89519400077,1.8935648975582227e-06,0.0,0.0,0.0,1.8935648975582227e-06,0.0,24.661796086829316,2.4509709116836196,0.01259762064609015,0.0
7809,3.4482758620689657,5.862068965517242,3.2142857142857144,0,417180.206638667,642230.5794396882,330787.3026886747,168245.467137272,-5278.246045267784,2.7812013775911133e-06,0.0,0.0,0.0,2.7812013775911133e-06,0.0,25.213374913909508,2.731522887506149,-0.0002084775147499111,0.0
7810,3.4482758620689657,5.862068965517242,3.5714285714285716,0,325516.0513336383,402892.2162813996,287904.35731890704,35488.55172514754,340.011444812224,2.170107008890922e-06,0.0,0.0,0.0,2.170107008890922e-06,0.0,23.78619452770431,3.0118105192977005,1.1971024566613925e-05,0.0
7811,3.4482758620689657,5.862068965517242,3.928571428571429,0,22150.323483804088,179017.38578136635,157748.75668507506,180686.35911534622,28050.99040609884,1.476688232253606e-07,0.0,0.0,0.0,1.476688232253606e-07,0.0,24.43162205614815,3.2999717076643913,0.0009510207867495242,0.0
7812,3.4482758620689657,5.862068965517242,4.285714285714286,0,119328.91792316645,281305.0086143103,230558.18767602998,144990.34893547636,31478.717906789752,7.955261194877763e-07,0.0,0.0,0.0,7.955261194877763e-07,0.0,24.609878045379205,3.596247633591238,0.0010547461598873346,0.0
7813,3.4482758620689657,5.862068965517242,4.642857142857143,0,113679.66377007336,260287.25212626485,179496.8743984613,130294.33949202365,-38025.53879170052,7.578644251338224e-07,0.0,0.0,0.0,7.578644251338224e-07,0.0,24.830964155763258,3.897262100620368,-0.0012695218810864347,0.0
7814,3.4482758620689657,5.862068965517242,5.0,0,204064.52416905132,303216.3057164625,220368.01119309358,70756.95202604623,-19958.972263406333,1.3604301611270087e-06,0.0,0.0,0.0,1.3604301611270087e-06,0.0,24.133420420944983,4.200158777755363,-0.0006656189106277328,0.0
7815,3.793103448275862,5.862068965517242,0.0,0,67599.92630180734,229350.9853025801,195595.32886516696,151520.98911694,6002.089097744557,4.506661753453823e-07,0.0,0.0,0.0,4.506661753453823e-07,0.0,24.784221008638493,-0.04983558630084781,0.0002001658178590751,0.0
7816,3.793103448275862,5.862068965517242,0.35714285714285715,0,170064.84339098344,224294.72126959724,186890.4903585356,38641.28479484327,-915.7719289279145,1.1337656226065563e-06,0.0,0.0,0.0,1.1337656226065563e-06,0.0,24.82794292779643,0.2544345445504983,-3.0573991554130646e-05,0.0
7817,3.793103448275862,5.862068965517242,0.7142857142857143,0,234398.93014550037,233855.55863554214,208208.92899013468,-12312.021692505963,-43263.62398514253,1.5626595343033359e-06,0.0,0.0,0.0,1.5626595343033359e-06,0.0,24.548957240710404,0.5606536960652228,-0.0014496187994777294,0.0
7818,3.793103448275862,5.862068965517242,1.0714285714285714,0,230713.68486236688,246734.5050057133,262644.17217845994,24387.436188717686,-39884.22827520045,1.5380912324157791e-06,0.0,0.0,0.0,1.5380912324157791e-06,0.0,24.82541471762327,0.8717795869996491,-0.0013522064498988904,0.0
7819,3.793103448275862,5.862068965517242,1.4285714285714286,0,266318.5782863598,376560.45735395706,241924.00379985804,69804.65171500633,-30495.597670468796,1.7754571885757318e-06,0.0,0.0,0.0,1.7754571885757318e-06,0.0,24.753336221698632,1.1913082546131226,-0.0010736801788785895,0.0
7820,3.793103448275862,5.862068965517242,1.7857142857142858,0,246467.05722719117,354223.1498921733,369039.52964434086,115498.51695400666,-33277.79624995209,1.6431137148479412e-06,0.0,0.0,0.0,1.6431137148479412e-06,0.0,24.270726691371976,1.5189899570081002,-0.0013143897042775978,0.0
7821,3.793103448275862,5.862068965517242,2.142857142857143,0,335428.4446073872,601582.6434108831,430363.02499203355,215098.90187579364,227661.77220094507,2.2361896307159145e-06,0.0,0.0,0.0,2.2361896307159145e-06,0.0,24.525588321301395,1.8463979322686783,0.012203831022087773,0.0
7822,3.793103448275862,5.862068965517242,2.5,0,485168.40509356506,519224.91773462284,819975.326131155,260271.06702959604,563088.4741963859,3.2344560339571004e-06,0.0,0.0,0.0,3.2344560339571004e-06,0.0,23.98489387005336,2.1601684047119956,0.0563088474196386,0.0
7823,3.793103448275862,5.862068965517242,2.857142857142857,0,557879.6598545116,825556.1051503913,569005.0836004855,185552.25347016822,213412.23317098233,3.7191977323634107e-06,0.0,0.0,0.0,3.7191977323634107e-06,0.0,23.866169851127644,2.453540789411535,0.011439983122710013,0.0
7824,3.793103448275862,5.862068965517242,3.2142857142857144,0,515193.7399577479,581686.5814638337,331860.15225392784,-10789.095431263408,99047.76902749471,3.4346249330516527e-06,0.0,0.0,0.0,3.4346249330516527e-06,0.0,24.746019957819236,2.7332756712938147,0.003912139099102514,0.0
7825,3.793103448275862,5.862068965517242,3.5714285714285716,0,139164.00458162517,302586.63413787633,218693.7548687566,141946.85527508822,5031.202244576992,9.277600305441677e-07,0.0,0.0,0.0,9.277600305441677e-07,0.0,23.676585274644935,3.0127368260416945,0.00017713711284835244,0.0
7826,3.793103448275862,5.862068965517242,3.928571428571429,0,159430.1720256865,262000.771236109,249511.4389655019,96693.2490132959,-4930.517449748255,1.0628678135045767e-06,0.0,0.0,0.0,1.0628678135045767e-06,0.0,24.507404935006424,3.3003510155710782,-0.00016716074962980115,0.0
7827,3.793103448275862,5.862068965517242,4.285714285714286,0,196117.47473827764,294932.2642330252,156508.17059691748,70507.0039842665,-45041.185144330535,1.3074498315885176e-06,0.0,0.0,0.0,1.3074498315885176e-06,0.0,24.839759742174266,3.5963679817795087,-0.0015091789064735112,0.0
7828,3.793103448275862,5.862068965517242,4.642857142857143,0,225279.83013122092,349051.78816596855,92573.51327749768,183193.86888835605,31533.57866874874,1.5018655342081394e-06,0.0,0.0,0.0,1.5018655342081394e-06,0.0,24.646013375558912,3.8972916874076415,0.001052781088211024,0.0
7829,3.793103448275862,5.862068965517242,5.0,0,170418.70278430756,291530.9081404336,192556.82245756304,94749.49327102162,3137.7905828827625,1.136124685228717e-06,0.0,0.0,0.0,1.136124685228717e-06,0.0,25.73524445702921,4.200164413699152,0.00010464330136806018,0.0
7830,4.137931034482759,5.862068965517242,0.0,0,138788.625715244,242668.0525259796,264526.5243446277,116105.69583691559,-45118.724108961746,9.252575047682934e-07,0.0,0.0,0.0,9.252575047682934e-07,0.0,24.865051442107692,-0.04983048971069613,-0.0015046804812381106,0.0
7831,4.137931034482759,5.862068965517242,0.35714285714285715,0,116547.09339603223,190743.5586190855,287217.8054390394,157723.2838769224,10770.886858392481,7.769806226402149e-07,0.0,0.0,0.0,7.769806226402149e-07,0.0,24.52210631413127,0.2544612999146886,0.00035959718073528136,0.0
7832,4.137931034482759,5.862068965517242,0.7142857142857143,0,178696.70533816528,219858.42060028136,192004.9519213046,28870.536624214,-16629.866509883148,1.1913113689211018e-06,0.0,0.0,0.0,1.1913113689211018e-06,0.0,24.96516388858444,0.5607625270639056,-0.0005572109986396529,0.0
7833,4.137931034482759,5.862068965517242,1.0714285714285714,0,156325.6032250379,295798.52073320665,206611.99448367246,115293.45946226007,1974.5447055796503,1.0421706881669192e-06,0.0,0.0,0.0,1.0421706881669192e-06,0.0,24.009794694143856,0.8721225955557925,6.694355643728674e-05,0.0
7834,4.137931034482759,5.862068965517242,1.4285714285714286,0,96066.46225594384,294384.4781707852,272353.6411977245,189216.275141935,12394.012018863323,6.404430817062923e-07,0.0,0.0,0.0,6.404430817062923e-07,0.0,25.170712220161015,1.1921459148179372,0.0004363647889519128,0.0
7835,4.137931034482759,5.862068965517242,1.7857142857142858,0,277938.1249909493,504231.63938102196,314057.274140326,185258.5830940705,110121.32205596773,1.8529208332729953e-06,0.0,0.0,0.0,1.8529208332729953e-06,0.0,24.42285663162179,1.520575001310208,0.0043495167421733925,0.0
7836,4.137931034482759,5.862068965517242,2.142857142857143,0,511188.4274028371,639516.9710848994,577583.962167561,100183.63537598106,190135.59520647652,3.4079228493522473e-06,0.0,0.0,0.0,3.4079228493522473e-06,0.0,25.233355895889776,1.848721875517361,0.01019223672358942,0.0
7837,4.137931034482759,5.862068965517242,2.5,0,373676.7674559537,666982.5387546249,577768.1411051129,256773.2064905836,536540.0544692578,2.491178449706358e-06,0.0,0.0,0.0,2.491178449706358e-06,0.0,24.884988611345324,2.162808503772646,0.053654005446925786,0.0
7838,4.137931034482759,5.862068965517242,2.857142857142857,0,297112.86020823946,549766.4444081117,648762.5967760134,314789.7887380994,366699.0943715261,1.980752401388263e-06,0.0,0.0,0.0,1.980752401388263e-06,0.0,25.002367422676084,2.455864732660218,0.019656939943842468,0.0
7839,4.137931034482759,5.862068965517242,3.2142857142857144,0,568862.7122377321,636952.3276621867,409889.05181025044,-10373.734123762797,173441.9062280433,3.792418081584881e-06,0.0,0.0,0.0,3.792418081584881e-06,0.0,24.4173556704517,2.7348607155959224,0.0068505214144626205,0.0
7840,4.137931034482759,5.862068965517242,3.5714285714285716,0,315579.11815033236,399023.5385417972,292050.59253265965,43862.12221389568,39816.37728956576,2.1038607876688825e-06,0.0,0.0,0.0,2.1038607876688825e-06,0.0,24.12664986936486,3.013574486246509,0.001401843490739534,0.0
7841,4.137931034482759,5.862068965517242,3.928571428571429,0,183764.15894404872,392428.76706159074,192099.35160469255,231680.56249252748,10722.90249865331,1.2250943929603248e-06,0.0,0.0,0.0,1.2250943929603248e-06,0.0,24.12250616021941,3.300694024127222,0.00036354164408720934,0.0
7842,4.137931034482759,5.862068965517242,4.285714285714286,0,169778.9174248672,313524.95282850374,307071.9646593781,140611.54112880267,7786.168049928805,1.1318594494991147e-06,0.0,0.0,0.0,1.1318594494991147e-06,0.0,23.85062822983967,3.5964768127781914,0.0002608883524169355,0.0
7843,4.137931034482759,5.862068965517242,4.642857142857143,0,53138.20148130149,257809.51168620656,224745.8340454431,196514.25730894232,43779.66699104718,3.5425467654200993e-07,0.0,0.0,0.0,3.5425467654200993e-07,0.0,24.521500297285062,3.897318442771832,0.0014616293932419619,0.0
7844,4.137931034482759,5.862068965517242,5.0,0,175496.6883640705,356650.2698230172,211355.58744411395,161666.59273508488,-8077.836545951486,1.1699779224271367e-06,0.0,0.0,0.0,1.1699779224271367e-06,0.0,24.42425267498223,4.200169510289304,-0.0002693906625544597,0.0
7845,4.482758620689656,5.862068965517242,0.0,0,143707.79960801086,295082.19538473967,162725.5937467785,142225.00918809779,23642.02612600558,9.58051997386739e-07,0.0,0.0,0.0,9.58051997386739e-07,0.0,25.218667150370116,-0.049826362147073006,0.0007884463922962796,0.0
7846,4.482758620689656,5.862068965517242,0.35714285714285715,0,181677.6550149174,310228.2071906652,202205.7658290603,100476.38662200976,65188.045139578324,1.211184366766116e-06,0.0,0.0,0.0,1.211184366766116e-06,0.0,24.200698672338763,0.25448296821931354,0.0021763702059103404,0.0
7847,4.482758620689656,5.862068965517242,0.7142857142857143,0,133022.8144593163,295501.25717584346,215456.10744357045,141946.08932455938,-3255.7890605169446,8.868187630621086e-07,0.0,0.0,0.0,8.868187630621086e-07,0.0,25.81920512296137,0.5608506657719168,-0.00010909056141205617,0.0
7848,4.482758620689656,5.862068965517242,1.0714285714285714,0,74333.62014228391,126089.92652173084,166576.04268117304,211877.95299873222,-61646.16786406908,4.95557467615226e-07,0.0,0.0,0.0,4.95557467615226e-07,0.0,24.22618118139843,0.8724003870981027,-0.0020900077399560765,0.0
7849,4.482758620689656,5.862068965517242,1.4285714285714286,0,257171.96890004133,471381.02345182403,228932.85255525613,201659.17738202334,-26232.58772580716,1.7144797926669423e-06,0.0,0.0,0.0,1.7144797926669423e-06,0.0,24.27795932982601,1.1928243087415278,-0.0009235893582491623,0.0
7850,4.482758620689656,5.862068965517242,1.7857142857142858,0,298636.2396677178,561381.1541167877,340877.01489841647,221527.15271357636,68846.7150966915,1.990908264451452e-06,0.0,0.0,0.0,1.990908264451452e-06,0.0,23.996434492520386,1.5218586774559664,0.002719273019665618,0.0
7851,4.482758620689656,5.862068965517242,2.142857142857143,0,459427.00264072896,807326.3877958037,538627.3708688193,276840.7922583131,222261.4351446695,3.0628466842715262e-06,0.0,0.0,0.0,3.0628466842715262e-06,0.0,24.74601749331592,1.8506039620359924,0.011914345438891418,0.0
7852,4.482758620689656,5.862068965517242,2.5,0,516215.46798526205,880123.4447161226,309632.0312093547,445268.0132670139,483242.67741790076,3.4414364532350802e-06,0.0,0.0,0.0,3.4414364532350802e-06,0.0,24.584950000420832,2.16494663466406,0.04832426774179008,0.0
7853,4.482758620689656,5.862068965517242,2.857142857142857,0,484827.99958735285,782121.935994891,509666.99067880557,222356.48834112153,263303.4990461062,3.2321866639156856e-06,0.0,0.0,0.0,3.2321866639156856e-06,0.0,24.696701267501545,2.4577468191788494,0.014114409190520172,0.0
7854,4.482758620689656,5.862068965517242,3.2142857142857144,0,171902.24618502264,450118.89566541207,319249.2704253588,255435.3378460523,82521.04917368763,1.1460149745668175e-06,0.0,0.0,0.0,1.1460149745668175e-06,0.0,24.95881192491133,2.736144391741681,0.003259375008050196,0.0
7855,4.482758620689656,5.862068965517242,3.5714285714285716,0,266678.13494520367,400856.191574759,248305.07010567465,92927.13062546558,-29271.26042729392,1.7778542329680244e-06,0.0,0.0,0.0,1.7778542329680244e-06,0.0,25.25143639806333,3.0142528801700994,-0.0010305740674829537,0.0
7856,4.482758620689656,5.862068965517242,3.928571428571429,0,158054.6982410835,226797.84488393785,278531.9098877945,101093.18634590808,-17729.015725529203,1.05369798827389e-06,0.0,0.0,0.0,1.05369798827389e-06,0.0,24.179930870358625,3.300971815669532,-0.0006010719136648247,0.0
7857,4.482758620689656,5.862068965517242,4.285714285714286,0,262786.369480347,309145.74321843433,330982.7961982342,57959.265325492444,41941.77324084258,1.75190912986898e-06,0.0,0.0,0.0,1.75190912986898e-06,0.0,24.779381286042415,3.5965649514862026,0.0014053280186199148,0.0
7858,4.482758620689656,5.862068965517242,4.642857142857143,0,209152.951607162,330474.86264623667,248283.80645215666,92711.01000946801,-14319.322332839745,1.3943530107144132e-06,0.0,0.0,0.0,1.3943530107144132e-06,0.0,25.201981308504532,3.8973401110764567,-0.00047806536347717453,0.0
7859,4.482758620689656,5.862068965517242,5.0,0,185395.5198445951,285243.9399509572,134596.50332739498,78198.88260289837,21559.22297229323,1.2359701322973007e-06,0.0,0.0,0.0,1.2359701322973007e-06,0.0,24.231985195737025,4.200173637852927,0.0007189862443522984,0.0
7860,4.827586206896552,5.862068965517242,0.0,0,125713.53369660715,337185.3171790503,198046.6655701826,231779.9860749519,437.52004123822485,8.380902246440476e-07,0.0,0.0,0.0,8.380902246440476e-07,0.0,26.13098507842242,-0.049823926005878476,1.4591012472156525e-05,0.0
7861,4.827586206896552,5.862068965517242,0.35714285714285715,0,185099.48083057522,251715.5139270934,257197.18484665,69417.75539444062,-725.7738012143759,1.2339965388705016e-06,0.0,0.0,0.0,1.2339965388705016e-06,0.0,25.924175902807676,0.254495757131692,-2.4230707851588125e-05,0.0
7862,4.827586206896552,5.862068965517242,0.7142857142857143,0,102332.27528725748,254125.92466057057,250920.6529094698,150228.66898408323,23253.38783664415,6.822151685817165e-07,0.0,0.0,0.0,6.822151685817165e-07,0.0,24.72071738379633,0.5609026863722089,0.0007791429624832681,0.0
7863,4.827586206896552,5.862068965517242,1.0714285714285714,0,250758.14271933294,339859.72129839094,291224.68114666233,68346.68995233961,-60228.357212200855,1.6717209514622196e-06,0.0,0.0,0.0,1.6717209514622196e-06,0.0,24.209692237979674,0.8725643432430601,-0.0020419392980907075,0.0
7864,4.827586206896552,5.862068965517242,1.4285714285714286,0,239728.0067033515,428275.79093361006,256627.5339344383,154376.74624416683,21458.636889903635,1.5981867113556767e-06,0.0,0.0,0.0,1.5981867113556767e-06,0.0,24.278787935169603,1.193224705569845,0.0007555094785616724,0.0
7865,4.827586206896552,5.862068965517242,1.7857142857142858,0,90855.33343558539,337632.4390113708,338860.33229827526,247397.27546518837,86761.29467280397,6.057022229039026e-07,0.0,0.0,0.0,6.057022229039026e-07,0.0,24.889359129066477,1.5226163196450768,0.003426854097884938,0.0
7866,4.827586206896552,5.862068965517242,2.142857142857143,0,839323.2062597837,883901.3201903802,840747.4035395201,23833.605103451107,369762.4388214475,5.595488041731892e-06,0.0,0.0,0.0,5.595488041731892e-06,0.0,25.09708696458749,1.8517147937319645,0.019821150815381734,0.0
7867,4.827586206896552,5.862068965517242,2.5,0,657895.9084839991,839392.7424386753,670239.4728975454,113436.80884981668,508002.4047359684,4.38597272322666e-06,0.0,0.0,0.0,4.38597272322666e-06,0.0,23.860859165567902,2.1662085870455297,0.05080024047359684,0.0
7868,4.827586206896552,5.862068965517242,2.857142857142857,0,526280.2628398965,769480.1100204336,397502.0997822667,167323.84888608984,301899.9782276976,3.5085350855993098e-06,0.0,0.0,0.0,3.5085350855993098e-06,0.0,24.313699767749377,2.458857650874821,0.0161833771398864,0.0
7869,4.827586206896552,5.862068965517242,3.2142857142857144,0,410091.0462862633,395470.19589730777,537502.1761828469,75276.71059720371,-75581.22808748661,2.7339403085750887e-06,0.0,0.0,0.0,2.7339403085750887e-06,0.0,24.862331668684867,2.7369020339307912,-0.002985269435772575,0.0
7870,4.827586206896552,5.862068965517242,3.5714285714285716,0,158799.15858894715,312870.71798493434,151134.32840726708,157181.55031186607,-20519.554479064944,1.0586610572596476e-06,0.0,0.0,0.0,1.0586610572596476e-06,0.0,24.093960190677482,3.0146532769984167,-0.0007224465367644238,0.0
7871,4.827586206896552,5.862068965517242,3.928571428571429,0,338496.52293721033,387197.8652856059,321.56201398708225,145542.0766717551,5905.659727659947,2.256643486248069e-06,0.0,0.0,0.0,2.256643486248069e-06,0.0,24.652365009496936,3.301135771814489,0.0002002212784348971,0.0
7872,4.827586206896552,5.862068965517242,4.285714285714286,0,237647.90294986955,317036.72251255665,268942.80339589115,59020.19872744175,46325.314614605944,1.5843193529991303e-06,0.0,0.0,0.0,1.5843193529991303e-06,0.0,25.021233765372,3.5966169720864944,0.001552205774072811,0.0
7873,4.827586206896552,5.862068965517242,4.642857142857143,0,150479.6742974118,289928.47527053446,276960.4577516741,133384.46095373388,57950.8944295635,1.003197828649412e-06,0.0,0.0,0.0,1.003197828649412e-06,0.0,24.729360651388166,3.897352899988835,0.0019347504557362977,0.0
7874,4.827586206896552,5.862068965517242,5.0,0,184892.07429506505,306588.89538744395,245723.36282836332,98937.00105775076,-10749.510705403236,1.232613828633767e-06,0.0,0.0,0.0,1.232613828633767e-06,0.0,24.44797655478817,4.200176073994122,-0.00035848928046410943,0.0
7875,5.172413793103448,5.862068965517242,0.0,0,228961.4876928598,364318.2208049999,145850.68224614018,126137.50974891346,29004.677437621267,1.5264099179523987e-06,0.0,0.0,0.0,1.5264099179523987e-06,0.0,24.792322865009226,-0.049823926005878476,0.0009672873705293355,0.0
7876,5.172413793103448,5.862068965517242,0.35714285714285715,0,233931.0910016905,361156.3354016797,228432.53560817926,91049.37405920432,-4885.967840117518,1.5595406066779368e-06,0.0,0.0,0.0,1.5595406066779368e-06,0.0,25.00699509920571,0.254495757131692,-0.00016312308202369647,0.0
7877,5.172413793103448,5.862068965517242,0.7142857142857143,0,144222.33416241716,327978.2105136389,214557.62415500398,165665.3150283011,-53802.6726469238,9.614822277494478e-07,0.0,0.0,0.0,9.614822277494478e-07,0.0,24.29786502906274,0.5609026863722089,-0.001802746939505373,0.0
7878,5.172413793103448,5.862068965517242,1.0714285714285714,0,195822.5550270462,418037.8016240734,203271.54116610548,249392.42295450615,20976.276610660887,1.305483700180308e-06,0.0,0.0,0.0,1.305483700180308e-06,0.0,24.93519726320504,0.8725643432430601,0.0007111647323870988,0.0
7879,5.172413793103448,5.862068965517242,1.4285714285714286,0,224848.16895575525,476037.0906099204,391649.2544919231,221203.2917212726,78017.1937941766,1.4989877930383683e-06,0.0,0.0,0.0,1.4989877930383683e-06,0.0,24.930022238301333,1.193224705569845,0.0027468067848249985,0.0
7880,5.172413793103448,5.862068965517242,1.7857142857142858,0,299210.5565286374,618286.9189420713,280206.9164251196,387575.27864440327,38372.16295423191,1.9947370435242494e-06,0.0,0.0,0.0,1.9947370435242494e-06,0.0,25.032081089527146,1.5226163196450768,0.0015156044450502727,0.0
7881,5.172413793103448,5.862068965517242,2.142857142857143,0,674382.1467756592,855342.9340805509,645762.3492893989,101054.17074859484,242353.3633221888,4.495880978504394e-06,0.0,0.0,0.0,4.495880978504394e-06,0.0,24.908663800286977,1.8517147937319645,0.012991375165998811,0.0
7882,5.172413793103448,5.862068965517242,2.5,0,784626.1692741764,1126418.4331529685,934622.7586489667,263677.03953432856,581133.6995921743,5.230841128494509e-06,0.0,0.0,0.0,5.230841128494509e-06,0.0,24.846995888696025,2.1662085870455297,0.058113369959217426,0.0
7883,5.172413793103448,5.862068965517242,2.857142857142857,0,402988.87088542705,899281.9397962024,656818.7084027819,434089.9831818118,308727.0943440353,2.6865924725695137e-06,0.0,0.0,0.0,2.6865924725695137e-06,0.0,24.708712865328803,2.458857650874821,0.016549345350739198,0.0
7884,5.172413793103448,5.862068965517242,3.2142857142857144,0,252524.41099310524,692232.7493022404,541505.637354229,400698.9330233689,209207.66586628754,1.6834960732873683e-06,0.0,0.0,0.0,1.6834960732873683e-06,0.0,24.64187783225118,2.7369020339307912,0.008263179448698981,0.0
7885,5.172413793103448,5.862068965517242,3.5714285714285716,0,224983.26904638836,470383.9893908481,324008.213630834,211324.98876388907,45110.864154962605,1.4998884603092558e-06,0.0,0.0,0.0,1.4998884603092558e-06,0.0,25.157661946581968,3.0146532769984167,0.0015882502523362886,0.0
7886,5.172413793103448,5.862068965517242,3.928571428571429,0,204603.00234479192,273187.51945991727,269592.60158616584,66810.74584872347,4658.587339296989,1.3640200156319461e-06,0.0,0.0,0.0,1.3640200156319461e-06,0.0,24.75317225516306,3.301135771814489,0.00015794142497001942,0.0
7887,5.172413793103448,5.862068965517242,4.285714285714286,0,154863.33627332476,260654.99145843857,257511.5804154642,104243.87833357013,-96402.48508874483,1.032422241822165e-06,0.0,0.0,0.0,1.032422241822165e-06,0.0,25.073178751589772,3.5966169720864944,-0.0032301236426473994,0.0
7888,5.172413793103448,5.862068965517242,4.642857142857143,0,124770.56622039995,285363.9430099911,273062.69625191827,154898.3821089217,-4756.248570505995,8.318037748026664e-07,0.0,0.0,0.0,8.318037748026664e-07,0.0,25.07008240342369,3.897352899988835,-0.00015879227024815572,0.0
7889,5.172413793103448,5.862068965517242,5.0,0,243729.96522628798,396635.4887356261,206706.33435919372,121811.29076609743,61466.01130566897,1.62486643484192e-06,0.0,0.0,0.0,1.62486643484192e-06,0.0,24.345220496514077,4.200176073994122,0.0020498520137193083,0.0
7890,5.517241379310345,5.862068965517242,0.0,0,135032.52459184485,239774.38789046172,153943.31765809935,84126.63362322042,2803.019319257536,9.00216830612299e-07,0.0,0.0,0.0,9.00216830612299e-07,0.0,24.553436314707426,-0.049826362147073006,9.347889466099545e-05,0.0
7891,5.517241379310345,5.862068965517242,0.35714285714285715,0,232297.95027494183,377890.61665463855,311995.719170367,119763.82923754273,28784.398262299193,1.5486530018329455e-06,0.0,0.0,0.0,1.5486530018329455e-06,0.0,24.69107761940618,0.25448296821931354,0.0009609968612955183,0.0
7892,5.517241379310345,5.862068965517242,0.7142857142857143,0,216915.80199510168,376833.2885460032,327587.05181715527,139528.3155695488,13776.666646796008,1.446105346634011e-06,0.0,0.0,0.0,1.446105346634011e-06,0.0,24.767286818774494,0.5608506657719168,0.00046160984970171847,0.0
7893,5.517241379310345,5.862068965517242,1.0714285714285714,0,329374.8619564388,446161.39072779956,271634.5422152748,66249.56984166022,-17384.601728159647,2.1958324130429255e-06,0.0,0.0,0.0,2.1958324130429255e-06,0.0,24.941597672142294,0.8724003870981027,-0.0005893951469623296,0.0
7894,5.517241379310345,5.862068965517242,1.4285714285714286,0,186142.11005576764,435841.2078687166,248331.16364220664,251097.87539834643,76436.14637392752,1.2409474003717842e-06,0.0,0.0,0.0,1.2409474003717842e-06,0.0,24.82105099616918,1.1928243087415278,0.0026911417247290482,0.0
7895,5.517241379310345,5.862068965517242,1.7857142857142858,0,233079.4435545944,440716.7978638783,234084.14218323535,188057.78954509148,74859.43984583416,1.5538629570306294e-06,0.0,0.0,0.0,1.5538629570306294e-06,0.0,24.757414636043883,1.5218586774559664,0.0029567606058497416,0.0
7896,5.517241379310345,5.862068965517242,2.142857142857143,0,344000.5767628864,721506.9092339883,640289.9964184929,344165.2400037768,273623.5166765833,2.293337178419243e-06,0.0,0.0,0.0,2.293337178419243e-06,0.0,24.523552531158632,1.8506039620359924,0.014667614720327547,0.0
7897,5.517241379310345,5.862068965517242,2.5,0,303491.5042735454,802163.1006005149,451935.7352572817,637664.8590300726,608399.9787556683,2.023276695156969e-06,0.0,0.0,0.0,2.023276695156969e-06,0.0,25.2743693926507,2.16494663466406,0.06083999787556683,0.0
7898,5.517241379310345,5.862068965517242,2.857142857142857,0,450298.6969641046,796755.0295376205,359091.03553312103,334804.5680955167,464186.72596659535,3.0019913130940308e-06,0.0,0.0,0.0,3.0019913130940308e-06,0.0,24.924394191821285,2.4577468191788494,0.024882773737667393,0.0
7899,5.517241379310345,5.862068965517242,3.2142857142857144,0,198260.37966770417,580557.2216066867,419321.8107521103,359193.16680969315,-25675.875495824053,1.321735864451361e-06,0.0,0.0,0.0,1.321735864451361e-06,0.0,24.699323752606908,2.736144391741681,-0.0010141328514226113,0.0
7900,5.517241379310345,5.862068965517242,3.5714285714285716,0,210537.73978362206,322615.70075852633,230209.27333548598,81676.95099521376,16657.05148962828,1.4035849318908138e-06,0.0,0.0,0.0,1.4035849318908138e-06,0.0,24.565297079976887,3.0142528801700994,0.0005864566491278424,0.0
7901,5.517241379310345,5.862068965517242,3.928571428571429,0,256936.7298159502,468460.88324154663,278391.4711694771,176140.3513729195,2897.491817591394,1.7129115321063347e-06,0.0,0.0,0.0,1.7129115321063347e-06,0.0,24.90476473851089,3.300971815669532,9.823449753727625e-05,0.0
7902,5.517241379310345,5.862068965517242,4.285714285714286,0,51178.5140274154,258227.53898023895,234755.8989759323,199523.09237813565,-54107.87486545483,3.4119009351610265e-07,0.0,0.0,0.0,3.4119009351610265e-07,0.0,24.78437914680978,3.5965649514862026,-0.0018129732412543167,0.0
7903,5.517241379310345,5.862068965517242,4.642857142857143,0,319780.11297035514,444530.265816834,202673.73843073595,81965.11385569315,26855.224763995615,2.1318674198023676e-06,0.0,0.0,0.0,2.1318674198023676e-06,0.0,24.012379604529748,3.8973401110764567,0.0008965894118199304,0.0
7904,5.517241379310345,5.862068965517242,5.0,0,306528.91959530924,433171.00709949515,125716.77389218316,127575.85761714079,8980.155366080544,2.043526130635395e-06,0.0,0.0,0.0,2.043526130635395e-06,0.0,24.283771057294516,4.200173637852927,0.00029948241588558547,0.0
7905,5.862068965517242,5.862068965517242,0.0,0,273885.598639451,434325.60425174364,194921.92110954178,135660.83770579883,32345.511469077766,1.8259039909296735e-06,0.0,0.0,0.0,1.8259039909296735e-06,0.0,25.303959695049727,-0.04983048971069613,0.0010787020405463484,0.0
7906,5.862068965517242,5.862068965517242,0.35714285714285715,0,140251.85140681567,317155.2548369062,197667.27389351034,162740.5263803774,41909.93306070611,9.350123427121044e-07,0.0,0.0,0.0,9.350123427121044e-07,0.0,24.841631255339884,0.2544612999146886,0.0013992063951253433,0.0
7907,5.862068965517242,5.862068965517242,0.7142857142857143,0,219643.52461842928,394729.1147376185,168066.55009848744,182851.70489284093,-2047.3799163547003,1.464290164122862e-06,0.0,0.0,0.0,1.464290164122862e-06,0.0,24.341282303260186,0.5607625270639056,-6.860082774018537e-05,0.0
7908,5.862068965517242,5.862068965517242,1.0714285714285714,0,183140.57802374056,283370.42204700067,241376.48113349138,82880.12855625592,-20902.638996632217,1.220937186824937e-06,0.0,0.0,0.0,1.220937186824937e-06,0.0,24.479433814772634,0.8721225955557925,-0.0007086681752026981,0.0
7909,5.862068965517242,5.862068965517242,1.4285714285714286,0,334513.81683449185,522882.8781948968,208125.69766881582,171608.87376835936,-57447.67808455367,2.2300921122299455e-06,0.0,0.0,0.0,2.2300921122299455e-06,0.0,24.23962721300372,1.1921459148179372,-0.002022601227511375,0.0
7910,5.862068965517242,5.862068965517242,1.7857142857142858,0,187393.3879269879,624216.7491801325,422765.1690779791,455086.0799572173,25915.727335018557,1.249289252846586e-06,0.0,0.0,0.0,1.249289252846586e-06,0.0,24.413022195967663,1.520575001310208,0.0010236063990584395,0.0
7911,5.862068965517242,5.862068965517242,2.142857142857143,0,250344.96340553547,861880.2952967801,702246.0446079404,573352.173098389,355079.46557268646,1.6689664227035697e-06,0.0,0.0,0.0,1.6689664227035697e-06,0.0,25.192331087883797,1.848721875517361,0.019034068633347438,0.0
7912,5.862068965517242,5.862068965517242,2.5,0,231417.6303011825,834195.2942614802,590663.5942564652,617175.2950909951,530882.5065250577,1.5427842020078833e-06,0.0,0.0,0.0,1.5427842020078833e-06,0.0,24.594288276405457,2.162808503772646,0.053088250652505775,0.0
7913,5.862068965517242,5.862068965517242,2.857142857142857,0,350398.7127491573,473587.3275823796,736978.5101182383,339297.82224142394,408822.0471139238,2.335991418327715e-06,0.0,0.0,0.0,2.335991418327715e-06,0.0,25.106148904688858,2.455864732660218,0.021914944844928258,0.0
7914,5.862068965517242,5.862068965517242,3.2142857142857144,0,242286.20674607714,501989.7500443055,271005.30105259665,523198.82116191747,9500.159958458673,1.615241378307181e-06,0.0,0.0,0.0,1.615241378307181e-06,0.0,25.508119290284665,2.7348607155959224,0.00037523255279881543,0.0
7915,5.862068965517242,5.862068965517242,3.5714285714285716,0,305108.49508503586,540742.3083128219,211228.42012998174,268019.4349009658,-72410.3556466761,2.034056633900239e-06,0.0,0.0,0.0,2.034056633900239e-06,0.0,24.501446475875564,3.0135744862465086,-0.002549402849666803,0.0
7916,5.862068965517242,5.862068965517242,3.928571428571429,0,168828.53041034637,349941.15135521546,257805.45904080922,155090.46569080962,-21752.591842756163,1.125523536068976e-06,0.0,0.0,0.0,1.125523536068976e-06,0.0,24.056202150351012,3.300694024127222,-0.0007374843707351399,0.0
7917,5.862068965517242,5.862068965517242,4.285714285714286,0,174026.02885614225,356916.0647319446,309361.20161873504,164055.9316202967,6811.038189931104,1.160173525707615e-06,0.0,0.0,0.0,1.160173525707615e-06,0.0,24.924953463504092,3.5964768127781914,0.00022821502441579077,0.0
7918,5.862068965517242,5.862068965517242,4.642857142857143,0,268471.8943657972,416533.10915975773,321660.1582643016,113506.14003972769,-46379.19343222809,1.7898126291053147e-06,0.0,0.0,0.0,1.7898126291053147e-06,0.0,24.3030712429141,3.897318442771832,-0.0015484172679810886,0.0
7919,5.862068965517242,5.862068965517242,5.0,0,283896.9822394214,501140.15395513584,376454.4337008608,176237.58652667832,-32703.899710938524,1.8926465482628093e-06,0.0,0.0,0.0,1.8926465482628093e-06,0.0,24.71826313299762,4.200169510289304,-0.0010906540583146436,0.0
7920,6.206896551724139,5.862068965517242,0.0,0,269450.31495329476,487345.9472514958,240660.96967497066,199798.2100483859,-24277.621792722308,1.796335433021965e-06,0.0,0.0,0.0,1.796335433021965e-06,0.0,24.660500997886487,-0.04983558630084781,-0.0008096430997066788,0.0
7921,6.206896551724139,5.862068965517242,0.35714285714285715,0,88437.52311521194,310395.7814941247,259904.77479348407,208279.02749363903,-19223.206225703547,5.895834874347463e-07,0.0,0.0,0.0,5.895834874347463e-07,0.0,25.50957266304792,0.2544345445504983,-0.0006417865914235021,0.0
7922,6.206896551724139,5.862068965517242,0.7142857142857143,0,82927.01441019725,236375.89529691043,190753.71793308726,140654.914155697,11520.327678499187,5.528467627346483e-07,0.0,0.0,0.0,5.528467627346483e-07,0.0,24.74716154618339,0.5606536960652228,0.0003860075056271556,0.0
7923,6.206896551724139,5.862068965517242,1.0714285714285714,0,490353.92314840335,586202.8843117101,178915.44429747597,41920.53488623283,25659.9827298082,3.269026154322689e-06,0.0,0.0,0.0,3.269026154322689e-06,0.0,24.36189411989563,0.8717795869996491,0.0008699577665669751,0.0
7924,6.206896551724139,5.862068965517242,1.4285714285714286,0,414047.718357069,672841.2086787372,345128.6069977576,207507.1290529653,-16139.841151065515,2.76031812238046e-06,0.0,0.0,0.0,2.76031812238046e-06,0.0,24.908100915514368,1.1913082546131226,-0.0005682468571825715,0.0
7925,6.206896551724139,5.862068965517242,1.7857142857142858,0,327912.9805383201,687964.0235545195,361206.3535096986,358907.816493304,956.5869460562099,2.186086536922134e-06,0.0,0.0,0.0,2.186086536922134e-06,0.0,25.007492535027694,1.5189899570081002,3.77827913753286e-05,0.0
7926,6.206896551724139,5.862068965517242,2.142857142857143,0,653192.4846174885,732672.7750396966,929688.8250611561,200665.98738840476,383902.6145156377,4.35461656411659e-06,0.0,0.0,0.0,4.35461656411659e-06,0.0,25.2070721762579,1.8463979322686783,0.020579136282710065,0.0
7927,6.206896551724139,5.862068965517242,2.5,0,922610.2274036088,1378401.810945728,470995.2206643432,441304.6891531306,726704.8237630125,6.150734849357392e-06,0.0,0.0,0.0,6.150734849357392e-06,0.0,24.147939192602962,2.1601684047119956,0.07267048237630125,0.0
7928,6.206896551724139,5.862068965517242,2.857142857142857,0,265040.5918330104,961049.9723087125,783129.9799873169,656440.0919179083,528986.7073930107,1.7669372788867358e-06,0.0,0.0,0.0,1.7669372788867358e-06,0.0,25.259577590924774,2.453540789411535,0.028356382925179096,0.0
7929,6.206896551724139,5.862068965517242,3.2142857142857144,0,471969.42069309513,647995.2277203118,330726.9954651857,105615.38110098634,145824.11003420403,3.146462804620634e-06,0.0,0.0,0.0,3.146462804620634e-06,0.0,25.7619381182293,2.7332756712938147,0.00575968755336908,0.0
7930,6.206896551724139,5.862068965517242,3.5714285714285716,0,350769.6738666355,545610.0411700035,248027.89556699502,158863.06054472143,-52443.90721478823,2.3384644924442367e-06,0.0,0.0,0.0,2.3384644924442367e-06,0.0,25.25789139614892,3.0127368260416945,-0.0018464299105701175,0.0
7931,6.206896551724139,5.862068965517242,3.928571428571429,0,130815.7076323192,424889.91304811026,321720.54938630486,277755.1858767786,-5359.84750259387,8.721047175487947e-07,0.0,0.0,0.0,8.721047175487947e-07,0.0,25.353582649816005,3.3003510155710782,-0.00018171644975736878,0.0
7932,6.206896551724139,5.862068965517242,4.285714285714286,0,111610.96706814205,294882.16696495714,218338.24980691512,166817.2268703244,17638.77579226003,7.440731137876137e-07,0.0,0.0,0.0,7.440731137876137e-07,0.0,24.415691181933827,3.5963679817795087,0.0005910161616838622,0.0
7933,6.206896551724139,5.862068965517242,4.642857142857143,0,213769.71835400583,360303.14887706016,229981.40048564886,113594.28128207388,-32760.388328293364,1.4251314556933723e-06,0.0,0.0,0.0,1.4251314556933723e-06,0.0,25.482505878243195,3.8972916874076415,-0.00109373939560679,0.0
7934,6.206896551724139,5.862068965517242,5.0,0,260033.26023611057,436195.7163773432,207100.04179249564,153559.58281207952,-13510.988417161134,1.7335550682407372e-06,0.0,0.0,0.0,1.7335550682407372e-06,0.0,24.404487818293205,4.200164413699152,-0.00045058278918615397,0.0
7935,6.551724137931035,5.862068965517242,0.0,0,206770.66207908103,441764.2414501827,423707.85994886886,226557.53093587345,27016.104973954127,1.3784710805272068e-06,0.0,0.0,0.0,1.3784710805272068e-06,0.0,24.473441847033857,-0.04984122224463713,0.0009009697555989697,0.0
7936,6.551724137931035,5.862068965517242,0.35714285714285715,0,246184.59354245375,421946.36764645594,231140.69740064593,144055.85828444353,10022.305347465921,1.6412306236163582e-06,0.0,0.0,0.0,1.6412306236163582e-06,0.0,24.265297939398717,0.25440495776322464,0.00033460501394169906,0.0
7937,6.551724137931035,5.862068965517242,0.7142857142857143,0,239385.7684954392,477303.505531338,285698.2110435104,208957.8071340188,75.13570493085902,1.595905123302928e-06,0.0,0.0,0.0,1.595905123302928e-06,0.0,24.211706143066788,0.5605333478769525,2.5175452342408746e-06,0.0
7938,6.551724137931035,5.862068965517242,1.0714285714285714,0,172875.2950076766,384408.26295046887,273336.41794744576,185229.8970009655,-26816.608440307667,1.152501966717844e-06,0.0,0.0,0.0,1.152501966717844e-06,0.0,24.50441063328289,0.871400279092962,-0.000909171180327039,0.0
7939,6.551724137931035,5.862068965517242,1.4285714285714286,0,238695.36280346298,498768.7146107758,358417.6023906256,223162.75617961798,-63561.35822442127,1.5913024186897531e-06,0.0,0.0,0.0,1.5913024186897531e-06,0.0,23.93488794411965,1.1903819478691287,-0.0022378499088820656,0.0
7940,6.551724137931035,5.862068965517242,1.7857142857142858,0,160757.68572062117,224113.9709316292,398066.6341269537,367200.7894607957,51111.51350165076,1.071717904804141e-06,0.0,0.0,0.0,1.071717904804141e-06,0.0,24.172925243295847,1.5172371732204346,0.0020187769229674255,0.0
7941,6.551724137931035,5.862068965517242,2.142857142857143,0,504881.17336263653,930133.8061398377,674383.6306022945,348552.99325794884,376152.30240507395,3.3658744890842437e-06,0.0,0.0,0.0,3.3658744890842437e-06,0.0,24.034923333747805,1.8438280545407626,0.02016368006249635,0.0
7942,6.551724137931035,5.862068965517242,2.5,0,987605.6573848075,1386288.9294267881,936542.9375564314,253858.03363293436,517290.3064762721,6.584037715898717e-06,0.0,0.0,0.0,6.584037715898717e-06,0.0,25.293066561891496,2.157248913550023,0.05172903064762721,0.0
7943,6.551724137931035,5.862068965517242,2.857142857142857,0,420824.0893330321,942246.2275981511,539025.8577865768,505789.4668396623,390378.94284839503,2.8054939288868804e-06,0.0,0.0,0.0,2.8054939288868804e-06,0.0,25.340724641493505,2.4509709116836196,0.020926300480952224,0.0
7944,6.551724137931035,5.862068965517242,3.2142857142857144,0,371731.44765899755,625504.0074000632,633167.8158214523,257663.71906870836,99708.4118107093,2.4782096510599837e-06,0.0,0.0,0.0,2.4782096510599837e-06,0.0,25.8081215644507,2.731522887506149,0.003938232836378275,0.0
7945,6.551724137931035,5.862068965517242,3.5714285714285716,0,273599.63504768594,381256.09638549143,451268.6070463654,149465.71275387608,-27270.390637174878,1.823997566984573e-06,0.0,0.0,0.0,1.823997566984573e-06,0.0,24.50671708170185,3.0118105192977005,-0.0009601280228642533,0.0
7946,6.551724137931035,5.862068965517242,3.928571428571429,0,249901.17974050736,497542.61407048063,340334.92417223775,209379.93176692835,16983.78691769646,1.6660078649367157e-06,0.0,0.0,0.0,1.6660078649367157e-06,0.0,24.559626062227295,3.2999717076643913,0.0005758062072896439,0.0
7947,6.551724137931035,5.862068965517242,4.285714285714286,0,172140.43466103694,446336.1184752652,287172.2655333028,263640.2735315931,11094.947272399935,1.1476028977402463e-06,0.0,0.0,0.0,1.1476028977402463e-06,0.0,24.935374624138525,3.596247633591238,0.00037175443626286217,0.0
7948,6.551724137931035,5.862068965517242,4.642857142857143,0,384084.66250380257,467123.67679795116,40847.242796962375,147979.1895479549,-12209.721791374695,2.5605644166920172e-06,0.0,0.0,0.0,2.5605644166920172e-06,0.0,23.916185609243165,3.897262100620368,-0.00040763417084076106,0.0
7949,6.551724137931035,5.862068965517242,5.0,0,135281.63230803236,262463.7761381169,314615.63381759694,161020.06788081955,-16674.4689869306,9.018775487202158e-07,0.0,0.0,0.0,9.018775487202158e-07,0.0,24.0699007289585,4.200158777755363,-0.0005560828351230173,0.0
7950,6.8965517241379315,5.862068965517242,0.0,0,289674.39810757875,401253.80324068933,257744.11031440378,67840.81540575506,-13771.430599728508,1.9311626540505248e-06,0.0,0.0,0.0,1.9311626540505248e-06,0.0,23.60619259654602,-0.04984717142444267,-0.0004592683687618039,0.0
7951,6.8965517241379315,5.862068965517242,0.35714285714285715,0,211329.66578481448,391410.0110233869,269824.30531423027,147388.02629801093,-35501.34814201724,1.4088644385654298e-06,0.0,0.0,0.0,1.4088644385654298e-06,0.0,24.82790574929424,0.25437372659344376,-0.0011852491695448397,0.0
7952,6.8965517241379315,5.862068965517242,0.7142857142857143,0,237775.8828442207,392621.25993005873,133326.2616919863,184794.80981468922,14341.672321998509,1.5851725522948048e-06,0.0,0.0,0.0,1.5851725522948048e-06,0.0,23.98368587515696,0.560406310944354,0.0004805412930978248,0.0
7953,6.8965517241379315,5.862068965517242,1.0714285714285714,0,191556.6104114196,375749.4823090489,342289.74316942313,169667.37645763427,-35949.397080743955,1.2770440694094639e-06,0.0,0.0,0.0,1.2770440694094639e-06,0.0,24.91980379827204,0.8709998899083101,-0.0012188027374415587,0.0
7954,6.8965517241379315,5.862068965517242,1.4285714285714286,0,282078.50631005625,463545.8938631153,204329.20887551655,163135.57131597324,-32639.23402127014,1.8805233754003751e-06,0.0,0.0,0.0,1.8805233754003751e-06,0.0,24.192816305593915,1.189404158597071,-0.0011491527072562781,0.0
7955,6.8965517241379315,5.862068965517242,1.7857142857142858,0,397631.56174182316,834631.8634770917,516279.62617495167,388925.2078028576,110622.73514254225,2.650877078278821e-06,0.0,0.0,0.0,2.650877078278821e-06,0.0,24.430319772263996,1.5153869727388676,0.0043693213047602125,0.0
7956,6.8965517241379315,5.862068965517242,2.142857142857143,0,430690.15841482516,652609.3480981636,931124.7940659182,435053.57312628214,373064.3714526806,2.871267722765501e-06,0.0,0.0,0.0,2.871267722765501e-06,0.0,24.347612868008977,1.8411153474497814,0.01999815122914606,0.0
7957,6.8965517241379315,5.862068965517242,2.5,0,810853.068244053,1685732.1799646362,753826.0008645966,1141383.5975775372,725265.7052559089,5.40568712162702e-06,0.0,0.0,0.0,5.40568712162702e-06,0.0,24.53308541448197,2.154167162114492,0.07252657052559089,0.0
7958,6.8965517241379315,5.862068965517242,2.857142857142857,0,627353.4576085974,1159259.3656150708,996952.1374800588,466701.92955688655,217736.87539362194,4.1823563840573155e-06,0.0,0.0,0.0,4.1823563840573155e-06,0.0,24.198146069315296,2.4482582045926384,0.011671805981707598,0.0
7959,6.8965517241379315,5.862068965517242,3.2142857142857144,0,710864.448501554,707363.9378340965,392801.55225837935,-106511.60714475054,37814.94493579415,4.739096323343693e-06,0.0,0.0,0.0,4.739096323343693e-06,0.0,24.967229170805723,2.729672687024582,0.0014935957272562382,0.0
7960,6.8965517241379315,5.862068965517242,3.5714285714285716,0,438551.24561744643,588343.3738488312,408418.88748249796,88445.0631661431,89965.67401383276,2.923674970782976e-06,0.0,0.0,0.0,2.923674970782976e-06,0.0,24.368310460132975,3.0108327300256423,0.003167485419105082,0.0
7961,6.8965517241379315,5.862068965517242,3.928571428571429,0,104557.73798662222,304112.5990058322,188151.41419625716,217027.48313734878,-76041.71647510964,6.970515865774814e-07,0.0,0.0,0.0,6.970515865774814e-07,0.0,24.63885364126697,3.2995713184797393,-0.002578064160337805,0.0
7962,6.8965517241379315,5.862068965517242,4.285714285714286,0,256332.50299526408,360664.5735402138,376956.28147567523,112866.51318055464,72783.8398888338,1.7088833533017605e-06,0.0,0.0,0.0,1.7088833533017605e-06,0.0,24.516371974908097,3.59612059665864,0.0024387421321261497,0.0
7963,6.8965517241379315,5.862068965517242,4.642857142857143,0,268529.69431132707,404598.4814316454,362891.25585283985,117655.45279143557,10830.995906818569,1.7901979620755139e-06,0.0,0.0,0.0,1.7901979620755139e-06,0.0,23.959532879227847,3.897230869450587,0.0003616039833908917,0.0
7964,6.8965517241379315,5.862068965517242,5.0,0,403842.6042787527,527777.4444377573,329022.06268038705,63076.50943476682,-22095.34708909992,2.692284028525018e-06,0.0,0.0,0.0,2.692284028525018e-06,0.0,25.145684046942797,4.200152828575558,-0.0007368656394374049,0.0
7965,7.241379310344828,5.862068965517242,0.0,0,253377.44596684875,422084.71579029487,264721.18243471073,129796.6081437295,-8709.285486835272,1.689182973112325e-06,0.0,0.0,0.0,1.689182973112325e-06,0.0,23.988053393673795,-0.04985331340493012,-0.00029044907932067294,0.0
7966,7.241379310344828,5.862068965517242,0.35714285714285715,0,281684.1232125101,464487.443397793,178804.51215035797,186980.12328450737,52436.04745112728,1.8778941547500672e-06,0.0,0.0,0.0,1.8778941547500672e-06,0.0,24.722981339817757,0.254341483285683,0.0017506315942437609,0.0
7967,7.241379310344828,5.862068965517242,0.7142857142857143,0,151927.2629932322,377083.42470678774,265844.9153724565,203984.85793990956,-97354.97794690973,1.0128484199548813e-06,0.0,0.0,0.0,1.0128484199548813e-06,0.0,24.6878291130228,0.5602751570060451,-0.0032620384807117812,0.0
7968,7.241379310344828,5.862068965517242,1.0714285714285714,0,364557.1037413593,483310.2528555976,406100.3941511484,86332.80756860234,62621.5226351929,2.430380691609062e-06,0.0,0.0,0.0,2.430380691609062e-06,0.0,23.5786126518488,0.8705865249336583,0.002123075472979592,0.0
7969,7.241379310344828,5.862068965517242,1.4285714285714286,0,361600.7172337934,683511.8119958164,371578.97088528547,287173.7922830631,20029.8425313448,2.4106714482252894e-06,0.0,0.0,0.0,2.4106714482252894e-06,0.0,24.242950040458336,1.1883946811857111,0.0007052049002072785,0.0
7970,7.241379310344828,5.862068965517242,1.7857142857142858,0,692380.5881645408,879155.6698542485,285493.45377662184,118573.8111223216,151445.65110492898,4.6158705877636056e-06,0.0,0.0,0.0,4.6158705877636056e-06,0.0,24.627457315298184,1.5134768110649741,0.005981724362839155,0.0
7971,7.241379310344828,5.862068965517242,2.142857142857143,0,545855.4000418645,1068575.6792563947,516038.5410435875,529656.865667781,219784.11102557328,3.6390360002790965e-06,0.0,0.0,0.0,3.6390360002790965e-06,0.0,24.197518629661005,1.8383147271011677,0.011781548243103502,0.0
7972,7.241379310344828,5.862068965517242,2.5,0,763322.7986783381,1450803.5328488036,1215029.5067155755,597410.1286251673,708408.1361133999,5.088818657855587e-06,0.0,0.0,0.0,5.088818657855587e-06,0.0,24.28303202940628,2.150985537453131,0.07084081361133998,0.0
7973,7.241379310344828,5.862068965517242,2.857142857142857,0,861154.7170920807,1211740.4974975155,866391.876809712,231515.44917381648,156777.19280672885,5.741031447280538e-06,0.0,0.0,0.0,5.741031447280538e-06,0.0,24.46027491613151,2.445457584244025,0.008404056379925919,0.0
7974,7.241379310344828,5.862068965517242,3.2142857142857144,0,595948.5326815984,807459.9650844658,332275.50208508316,138817.3325893207,165034.35472343335,3.972990217877323e-06,0.0,0.0,0.0,3.972990217877323e-06,0.0,24.16850934387473,2.727762525350689,0.006518444162326105,0.0
7975,7.241379310344828,5.862068965517242,3.5714285714285716,0,418916.012064337,625646.6101517647,177517.16706450548,243861.79844009437,-43863.61590349125,2.7927734137622464e-06,0.0,0.0,0.0,2.7927734137622464e-06,0.0,24.539820318841663,3.0098232526142827,-0.001544337496789852,0.0
7976,7.241379310344828,5.862068965517242,3.928571428571429,0,364490.32477223146,537714.886907295,253241.5905925837,126853.21270908692,-43646.066480273286,2.429935498481543e-06,0.0,0.0,0.0,2.429935498481543e-06,0.0,24.387247223828382,3.2991579535050874,-0.0014797451313364966,0.0
7977,7.241379310344828,5.862068965517242,4.285714285714286,0,269050.7401930896,416619.57501344173,140956.00032998144,154709.19970021019,-82689.2292764991,1.793671601287264e-06,0.0,0.0,0.0,1.793671601287264e-06,0.0,24.272194980624715,3.595989442720331,-0.0027706384771350183,0.0
7978,7.241379310344828,5.862068965517242,4.642857142857143,0,229005.1799237904,480835.9070378808,285010.5148941461,229031.41691661646,18936.014776330714,1.526701199491936e-06,0.0,0.0,0.0,1.526701199491936e-06,0.0,23.890162408482368,3.8971986261428264,0.0006321984083069668,0.0
7979,7.241379310344828,5.862068965517242,5.0,0,258520.84551253327,393403.3961919075,507134.02033608576,211245.62064828776,3062.867789981239,1.7234723034168885e-06,0.0,0.0,0.0,1.7234723034168885e-06,0.0,24.582948360560795,4.20014668659507,0.00010214467432784263,0.0
7980,7.586206896551724,5.862068965517242,0.0,0,233153.17826815337,354818.25444376416,165623.42748985876,94346.21172245523,-32543.87304734842,1.5543545217876892e-06,0.0,0.0,0.0,1.5543545217876892e-06,0.0,23.016593861788063,-0.049859580724213204,-0.0010853172718266176,0.0
7981,7.586206896551724,5.862068965517242,0.35714285714285715,0,209891.3331393251,411781.2198658521,288474.91675008985,169432.08485525008,11451.364803592669,1.3992755542621674e-06,0.0,0.0,0.0,1.3992755542621674e-06,0.0,24.356995573805687,0.25430858199189144,0.0003823156396573394,0.0
7982,7.586206896551724,5.862068965517242,0.7142857142857143,0,332167.88535508595,429968.56174246763,420205.9361936781,93026.97971252777,-34048.05621732358,2.2144525690339062e-06,0.0,0.0,0.0,2.2144525690339062e-06,0.0,24.238011297045922,0.5601413266221331,-0.0011408360611505127,0.0
7983,7.586206896551724,5.862068965517242,1.0714285714285714,0,109281.68958164728,300351.76595076197,382283.06206719537,258203.4277291082,-78851.74476216201,7.285445972109819e-07,0.0,0.0,0.0,7.285445972109819e-07,0.0,23.82879469359073,0.8701647244603615,-0.0026733333566710624,0.0
7984,7.586206896551724,5.862068965517242,1.4285714285714286,0,253201.80887800446,612713.0390960935,350382.89049568766,369752.05310606066,-12446.892723432575,1.6880120591866964e-06,0.0,0.0,0.0,1.6880120591866964e-06,0.0,23.54531290240382,1.1873646034674605,-0.0004382265974973515,0.0
7985,7.586206896551724,5.862068965517242,1.7857142857142858,0,285205.57274299144,334387.21504739457,502275.67410633084,172969.8385547108,202045.85879394683,1.9013704849532763e-06,0.0,0.0,0.0,1.9013704849532763e-06,0.0,24.45391827597925,1.5115276689084567,0.007980305985288056,0.0
7986,7.586206896551724,5.862068965517242,2.142857142857143,0,1235497.4914913957,1711906.9118541547,520150.2870325088,436881.22083039745,526263.1606884655,8.236649943275972e-06,0.0,0.0,0.0,8.236649943275972e-06,0.0,24.12597059537789,1.8354569547667678,0.028210386944203875,0.0
7987,7.586206896551724,5.862068965517242,2.5,0,897579.1045114478,1697578.4962913839,843934.1834160272,761721.1847050237,812692.4912678679,5.983860696742985e-06,0.0,0.0,0.0,5.983860696742985e-06,0.0,24.32357349724806,2.147738985688204,0.08126924912678679,0.0
7988,7.586206896551724,5.862068965517242,2.857142857142857,0,527841.2546332091,1051575.4273809283,830664.1729921107,449169.5452256855,445531.83404953993,3.5189416975547272e-06,0.0,0.0,0.0,3.5189416975547272e-06,0.0,23.340270627692774,2.442599811909625,0.02388277647642271,0.0
7989,7.586206896551724,5.862068965517242,3.2142857142857144,0,340411.31235510856,750260.7619809968,689706.913986253,383636.12326104887,51673.29201800743,2.269408749034057e-06,0.0,0.0,0.0,2.269408749034057e-06,0.0,24.50201899228295,2.7258133831941715,0.002040965769020733,0.0
7990,7.586206896551724,5.862068965517242,3.5714285714285716,0,305974.65013462084,554439.5271025646,301093.1423924016,214500.78773924924,45045.26407931931,2.0398310008974722e-06,0.0,0.0,0.0,2.0398310008974722e-06,0.0,24.738293211786864,3.008793174896032,0.001585940623854426,0.0
7991,7.586206896551724,5.862068965517242,3.928571428571429,0,276120.32458193577,396835.5866949406,297809.79009867145,84857.73387222705,25718.904380604195,1.8408021638795719e-06,0.0,0.0,0.0,1.8408021638795719e-06,0.0,24.19686487499934,3.2987361530317907,0.0008719554042220224,0.0
7992,7.586206896551724,5.862068965517242,4.285714285714286,0,251684.9158177361,453450.26696688146,222749.790664681,185037.08579679218,-3622.88910319659,1.6778994387849072e-06,0.0,0.0,0.0,1.6778994387849072e-06,0.0,23.829478079393223,3.5958556123364187,-0.00012139085145110242,0.0
7993,7.586206896551724,5.862068965517242,4.642857142857143,0,132366.52576550414,422705.2052328902,324282.1946758584,272223.8604763852,8664.836214480132,8.824435051033609e-07,0.0,0.0,0.0,8.824435051033609e-07,0.0,24.499733640873863,3.897165724849035,0.0002892845050946021,0.0
7994,7.586206896551724,5.862068965517242,5.0,0,203931.1519518151,426949.3502107315,372820.735302502,201414.6809327874,-69879.655789881,1.3595410130121006e-06,0.0,0.0,0.0,1.3595410130121006e-06,0.0,24.145300699957858,4.200140419275787,-0.002330441655414339,0.0
7995,7.931034482758621,5.862068965517242,0.0,0,121633.6762708466,457886.28453117126,364937.4495194472,320224.49533583905,-21221.960078123306,8.108911751389774e-07,0.0,0.0,0.0,8.108911751389774e-07,0.0,24.55876626142919,-0.049865933438872974,-0.0007077387433662818,0.0
7996,7.931034482758621,5.862068965517242,0.35714285714285715,0,266731.8714075586,325838.4413168048,205926.57976877,20196.226188853398,-52727.858021214466,1.7782124760503908e-06,0.0,0.0,0.0,1.7782124760503908e-06,0.0,24.142195252356778,0.2542752324014279,-0.0017603739914754564,0.0
7997,7.931034482758621,5.862068965517242,0.7142857142857143,0,204377.27486649604,446857.53974920505,323366.55920753884,210949.61444860257,-53735.63674268957,1.3625151657766402e-06,0.0,0.0,0.0,1.3625151657766402e-06,0.0,23.06542124238909,0.560005672731945,-0.0018005007914006443,0.0
7998,7.931034482758621,5.862068965517242,1.0714285714285714,0,304146.4585316096,471695.32481095265,257860.3578779416,123508.23400674565,21773.135099480907,2.0276430568773976e-06,0.0,0.0,0.0,2.0276430568773976e-06,0.0,22.966749130373017,0.8697371767435181,0.0007381808546699286,0.0
7999,7.931034482758621,5.862068965517242,1.4285714285714286,0,396418.9308892784,544486.6887533978,478900.1174057482,119364.75256887775,-60454.20702854183,2.6427928725951896e-06,0.0,0.0,0.0,2.6427928725951896e-06,0.0,23.790815178400642,1.186320490422335,-0.002128454228631954,0.0
8000,7.931034482758621,5.862068965517242,1.7857142857142858,0,220146.3851421402,727550.6152360978,507729.5259541958,507080.3698839922,138498.60707248742,1.467642567614268e-06,0.0,0.0,0.0,1.467642567614268e-06,0.0,24.377215424355995,1.5095519687099506,0.005470348511828756,0.0
8001,7.931034482758621,5.862068965517242,2.142857142857143,0,964336.401206868,1382941.4109250878,446230.1210455513,393170.70650604577,541158.8453653827,6.42890934137912e-06,0.0,0.0,0.0,6.42890934137912e-06,0.0,23.909336623814053,1.8325602438473103,0.029008871542641194,0.0
8002,7.931034482758621,5.862068965517242,2.5,0,689187.6696425066,1231785.524646115,869607.7064707633,437019.1228934602,756658.4344014028,4.594584464283378e-06,0.0,0.0,0.0,4.594584464283378e-06,0.0,24.406301843497275,2.144448198022984,0.07566584344014028,0.0
8003,7.931034482758621,5.862068965517242,2.857142857142857,0,564046.5877275022,1177786.4083541122,891896.7887116898,528038.9770296453,356681.656501487,3.760310584850015e-06,0.0,0.0,0.0,3.760310584850015e-06,0.0,23.833932539488195,2.439703100990167,0.01911995423096523,0.0
8004,7.931034482758621,5.862068965517242,3.2142857142857144,0,855562.0586897328,957658.9917545815,569368.2174355342,-23194.18245388818,158491.40500957036,5.703747057931552e-06,0.0,0.0,0.0,5.703747057931552e-06,0.0,25.201016320309712,2.7238376829956654,0.006260014016444075,0.0
8005,7.931034482758621,5.862068965517242,3.5714285714285716,0,188721.18244426424,522381.11660856195,317232.4037483081,356157.8095822382,35992.43821075355,1.258141216295095e-06,0.0,0.0,0.0,1.258141216295095e-06,0.0,24.080447581032377,3.0077490618509066,0.001267211350109748,0.0
8006,7.931034482758621,5.862068965517242,3.928571428571429,0,182528.35346075796,476355.73464923154,266268.38937229785,356680.57770590915,54884.23403867881,1.2168556897383864e-06,0.0,0.0,0.0,1.2168556897383864e-06,0.0,24.313779663247466,3.2983086053149475,0.0018607559547794393,0.0
8007,7.931034482758621,5.862068965517242,4.285714285714286,0,196616.0627494191,434802.49649079324,222782.4327674647,258482.46843264007,-47942.388731963896,1.310773751662794e-06,0.0,0.0,0.0,1.310773751662794e-06,0.0,23.70463395532598,3.5957199584462307,-0.0016063884990677388,0.0
8008,7.931034482758621,5.862068965517242,4.642857142857143,0,312023.980633477,551306.1648868071,274465.6376783712,213189.99155588276,-11505.73768035345,2.0801598708898466e-06,0.0,0.0,0.0,2.0801598708898466e-06,0.0,23.979544320513618,3.8971323752585714,-0.0003841309342982267,0.0
8009,7.931034482758621,5.862068965517242,5.0,0,232946.64279687355,419075.40250047395,233678.94080280422,157601.4258146778,-9657.301275010826,1.5529776186458238e-06,0.0,0.0,0.0,1.5529776186458238e-06,0.0,24.44031750987717,4.2001340665611275,-0.00032206479719710087,0.0
8010,8.275862068965518,5.862068965517242,0.0,0,421333.40119223495,560795.7274971729,398959.67858543503,82538.23241864484,9345.681201422745,2.808889341281566e-06,0.0,0.0,0.0,2.808889341281566e-06,0.0,24.009074734846603,-0.049872346665654245,0.0003116724678139028,0.0
8011,8.275862068965518,5.862068965517242,0.35714285714285715,0,184367.23923769465,437096.22053771245,231997.02144476835,285129.84446034965,27891.464954951727,1.2291149282512977e-06,0.0,0.0,0.0,1.2291149282512977e-06,0.0,22.64609918323756,0.2542415651429157,0.0009311853607080261,0.0
8012,8.275862068965518,5.862068965517242,0.7142857142857143,0,95314.8631437576,370800.5567571801,324388.8491999611,261169.08069367972,6177.902161239155,6.35432420958384e-07,0.0,0.0,0.0,6.35432420958384e-07,0.0,24.29119451501894,0.5598687266847618,0.0002070007615945877,0.0
8013,8.275862068965518,5.862068965517242,1.0714285714285714,0,262288.26756211976,523998.3542900299,327932.2101318014,226056.08873314763,61900.06390305453,1.7485884504141317e-06,0.0,0.0,0.0,1.7485884504141317e-06,0.0,24.35095235877547,0.8693055564654508,0.0020986156503097876,0.0
8014,8.275862068965518,5.862068965517242,1.4285714285714286,0,240954.6869820682,503432.622776682,476663.6191091468,250211.2461496248,-13351.29413965587,1.6063645798804547e-06,0.0,0.0,0.0,1.6063645798804547e-06,0.0,24.416529599419803,1.1852664317872006,-0.0004700685008711296,0.0
8015,8.275862068965518,5.862068965517242,1.7857142857142858,0,452030.25677341985,863255.6534047307,704883.4600550806,353349.1841923861,334.58003668925085,3.0135350451561323e-06,0.0,0.0,0.0,3.0135350451561323e-06,0.0,24.605544731231372,1.5075574491850832,1.3215074465209079e-05,0.0
8016,8.275862068965518,5.862068965517242,2.142857142857143,0,551574.629643352,516695.2717866729,954832.2104813169,335436.8880755656,353393.0395330392,3.6771641976223466e-06,0.0,0.0,0.0,3.6771641976223466e-06,0.0,24.150959251900737,1.8296359406098435,0.01894366760457508,0.0
8017,8.275862068965518,5.862068965517242,2.5,0,267885.5752347749,1340148.8509418583,1031625.5222002044,1205192.5779292323,666689.724989074,1.7859038348984994e-06,0.0,0.0,0.0,1.7859038348984994e-06,0.0,25.26310925979435,2.1411260643027785,0.06666897249890741,0.0
8018,8.275862068965518,5.862068965517242,2.857142857142857,0,577785.8473098539,1033209.2859689922,557828.4998787402,390122.39995219983,377257.58318210393,3.85190564873236e-06,0.0,0.0,0.0,3.85190564873236e-06,0.0,24.186850525780137,2.4367787977527002,0.02022292874401382,0.0
8019,8.275862068965518,5.862068965517242,3.2142857142857144,0,318281.28177242755,604646.1437962808,373398.5063960521,241643.320380106,60221.13973841521,2.1218752118161835e-06,0.0,0.0,0.0,2.1218752118161835e-06,0.0,22.923534461582307,2.7218431634707976,0.0023785843707168383,0.0
8020,8.275862068965518,5.862068965517242,3.5714285714285716,0,172703.62978067857,476780.6549222745,284594.52600023296,334590.815878947,-5418.717100580597,1.1513575318711904e-06,0.0,0.0,0.0,1.1513575318711904e-06,0.0,24.19135951680513,3.006695003215772,-0.00019078062377107723,0.0
8021,8.275862068965518,5.862068965517242,3.928571428571429,0,218952.56333242898,408385.2563178767,392296.74463370757,181832.20240650937,10994.870266236976,1.4596837555495266e-06,0.0,0.0,0.0,1.4596837555495266e-06,0.0,24.6446758985838,3.29787698503688,0.0003727622454475697,0.0
8022,8.275862068965518,5.862068965517242,4.285714285714286,0,230617.29575736768,443471.02109775017,320004.7912529454,177406.30150202865,-20640.14126123276,1.5374486383824512e-06,0.0,0.0,0.0,1.5374486383824512e-06,0.0,23.40011079614524,3.5955830123990475,-0.0006915818426684305,0.0
8023,8.275862068965518,5.862068965517242,4.642857142857143,0,77296.70122941824,324283.9532407479,389984.2430874365,304814.08328932576,46812.596304146275,5.153113415294549e-07,0.0,0.0,0.0,5.153113415294549e-07,0.0,23.9584756462921,3.8970987080000588,0.0015628868704301124,0.0
8024,8.275862068965518,5.862068965517242,5.0,0,208803.85003005204,474482.7918754175,401879.68132447894,239069.1097941743,-86492.93298518057,1.3920256668670135e-06,0.0,0.0,0.0,1.3920256668670135e-06,0.0,24.704884027906154,4.200127653334346,-0.002884483783573728,0.0
8025,8.620689655172415,5.862068965517242,0.0,0,324334.3075517953,571219.9240652655,248906.39074051208,244901.92486968386,-99904.3463981083,2.1622287170119687e-06,0.0,0.0,0.0,2.1622287170119687e-06,0.0,23.65427869255294,-0.049878804202624645,-0.0033317458102993264,0.0
8026,8.620689655172415,5.862068965517242,0.35714285714285715,0,369137.78138210345,473934.4819819285,316984.3745697324,52257.3019986515,44931.07670049387,2.4609185425473562e-06,0.0,0.0,0.0,2.4609185425473562e-06,0.0,23.822546151672654,0.2542076652709869,0.001500070395439069,0.0
8027,8.620689655172415,5.862068965517242,0.7142857142857143,0,271511.38842970267,522989.32109091495,313938.8267568047,216123.14341047365,41543.57465787858,1.8100759228646844e-06,0.0,0.0,0.0,1.8100759228646844e-06,0.0,24.336471110271713,0.5597308344516012,0.001391985720896815,0.0
8028,8.620689655172415,5.862068965517242,1.0714285714285714,0,411141.0343123749,565302.5982708203,294239.3116284424,92235.0737882007,57760.19795618724,2.740940228749166e-06,0.0,0.0,0.0,2.740940228749166e-06,0.0,23.309778339473855,0.8688709540417638,0.001958260585735266,0.0
8029,8.620689655172415,5.862068965517242,1.4285714285714286,0,449171.0373768841,672239.7079444118,319618.3316895358,166538.302621856,41091.512649525306,2.9944735825125604e-06,0.0,0.0,0.0,2.9944735825125604e-06,0.0,23.94966000037819,1.1842050904628567,0.0014467380875324855,0.0
8030,8.620689655172415,5.862068965517242,1.7857142857142858,0,628256.5368638447,1060813.0320081254,723369.6308028081,335939.1585701969,81520.01413233101,4.188376912425631e-06,0.0,0.0,0.0,4.188376912425631e-06,0.0,23.474403430632123,1.5055491491499695,0.0032198366281016707,0.0
8031,8.620689655172415,5.862068965517242,2.142857142857143,0,507931.41055530676,1029658.3524386245,812593.0900781354,449260.99304066005,401859.48567989003,3.3862094037020452e-06,0.0,0.0,0.0,3.3862094037020452e-06,0.0,23.830929245535575,1.8266914328117168,0.021541716074896303,0.0
8032,8.620689655172415,5.862068965517242,2.5,0,379543.668296266,1152491.2874020974,945662.4116702217,714458.0242044065,560949.4486670254,2.5302911219751065e-06,0.0,0.0,0.0,2.5302911219751065e-06,0.0,24.08813913783551,2.13778097733634,0.056094944866702544,0.0
8033,8.620689655172415,5.862068965517242,2.857142857142857,0,697794.3617586757,1323097.3059795876,617050.0196613224,633859.6039023935,448311.63210583996,4.651962411724504e-06,0.0,0.0,0.0,4.651962411724504e-06,0.0,24.504634912811795,2.4338342899545737,0.024031787816476195,0.0
8034,8.620689655172415,5.862068965517242,3.2142857142857144,0,383120.1069301719,881409.1631529493,644691.4619370064,439392.21550047933,-29602.746442582793,2.554134046201146e-06,0.0,0.0,0.0,2.554134046201146e-06,0.0,24.135445537997334,2.719834863435684,-0.001169234430375693,0.0
8035,8.620689655172415,5.862068965517242,3.5714285714285716,0,484215.63321895554,622567.9156534979,268927.86425964336,70689.47451805786,139687.59881692662,3.2281042214597034e-06,0.0,0.0,0.0,3.2281042214597034e-06,0.0,23.701372536609934,3.0056336618914283,0.004918080560530062,0.0
8036,8.620689655172415,5.862068965517242,3.928571428571429,0,255377.42672195568,639017.0419307045,366838.2083243753,404659.4106243169,-47566.718756410424,1.7025161781463711e-06,0.0,0.0,0.0,1.7025161781463711e-06,0.0,24.587291983529774,3.2974423826131933,-0.0016126681318524632,0.0
8037,8.620689655172415,5.862068965517242,4.285714285714286,0,240766.94220788748,451178.87512707995,358524.27497184864,177849.23087061694,-3389.374324923223,1.6051129480525832e-06,0.0,0.0,0.0,1.6051129480525832e-06,0.0,24.301099370003488,3.595445120165887,-0.00011356655516336666,0.0
8038,8.620689655172415,5.862068965517242,4.642857142857143,0,204486.41939034028,486967.9072032633,277084.90686278854,288343.21568504535,67596.13162742616,1.363242795935602e-06,0.0,0.0,0.0,1.363242795935602e-06,0.0,23.02732734246811,3.89706480812813,0.00225676666010966,0.0
8039,8.620689655172415,5.862068965517242,5.0,0,398063.31101260765,360666.800481699,342545.6107746711,-46147.633369028685,-16421.274340565287,2.653755406750718e-06,0.0,0.0,0.0,2.653755406750718e-06,0.0,24.421870687227972,4.200121195797376,-0.000547638956226535,0.0
8040,8.965517241379311,5.862068965517242,0.0,0,425739.7080537919,641324.2439970835,331268.7968078666,155912.63192582887,-16146.124524940013,2.8382647203586125e-06,0.0,0.0,0.0,2.8382647203586125e-06,0.0,23.872989656024544,-0.049885295093204184,-0.000538462886531218,0.0
8041,8.965517241379311,5.862068965517242,0.35714285714285715,0,330241.5008380063,419235.347384059,311104.60508709983,48483.60803595137,-116273.31881646319,2.201610005586709e-06,0.0,0.0,0.0,2.201610005586709e-06,0.0,23.828829066466028,0.25417359030395875,-0.0038819048227728696,0.0
8042,8.965517241379311,5.862068965517242,0.7142857142857143,0,282697.1449313895,423128.60592448193,316814.8973290189,102687.77852722419,-59054.91361004923,1.8846476328759298e-06,0.0,0.0,0.0,1.8846476328759298e-06,0.0,24.445216358357687,0.5595922299958596,-0.001978731901887358,0.0
8043,8.965517241379311,5.862068965517242,1.0714285714285714,0,210333.73065958743,432351.45042482956,330938.91393862333,190525.05939044294,26385.02839050069,1.4022248710639163e-06,0.0,0.0,0.0,1.4022248710639163e-06,0.0,23.75258126502792,0.868434106867573,0.0008945391979060692,0.0
8044,8.965517241379311,5.862068965517242,1.4285714285714286,0,260276.43050284378,470245.430844322,391942.2643039621,179806.59987220203,97099.03880227564,1.735176203352292e-06,0.0,0.0,0.0,1.735176203352292e-06,0.0,24.306545767869903,1.1831382672397874,0.0034186348625369887,0.0
8045,8.965517241379311,5.862068965517242,1.7857142857142858,0,133062.33748829816,660542.1629328749,550674.4658368129,512590.0231247066,12545.236881100922,8.870822499219878e-07,0.0,0.0,0.0,8.870822499219878e-07,0.0,24.502900907317603,1.5035304761112318,0.0004955054736915278,0.0
8046,8.965517241379311,5.862068965517242,2.142857142857143,0,419816.2021924161,1025804.1900973315,549107.1879650763,863715.8997695313,454700.75873834966,2.798774681282774e-06,0.0,0.0,0.0,2.798774681282774e-06,0.0,23.90004938417647,1.8237317164344309,0.024374277559255877,0.0
8047,8.965517241379311,5.862068965517242,2.5,0,666092.4736568995,979921.8986067824,902693.3369941944,278581.43345599953,1143059.402851304,4.4406164910459965e-06,0.0,0.0,0.0,4.4406164910459965e-06,0.0,24.09735791642355,2.1344186127726217,0.1143059402851304,0.0
8048,8.965517241379311,5.862068965517242,2.857142857142857,0,574744.0512927799,965851.8584453486,862789.3005026688,346549.2290527573,497103.118854932,3.831627008618533e-06,0.0,0.0,0.0,3.831627008618533e-06,0.0,24.225413675940764,2.430874573577288,0.026647260119295607,0.0
8049,8.965517241379311,5.862068965517242,3.2142857142857144,0,802984.7413693063,1074819.216173315,556404.6015999414,149864.80193122645,156950.26282134227,5.353231609128709e-06,0.0,0.0,0.0,5.353231609128709e-06,0.0,24.11438596565061,2.717816190396946,0.006199142755323898,0.0
8050,8.965517241379311,5.862068965517242,3.5714285714285716,0,241233.65313924654,619311.3956986824,480896.81477750937,340760.5401394324,-34572.4390408137,1.6082243542616436e-06,0.0,0.0,0.0,1.6082243542616436e-06,0.0,24.332551334289455,3.004566838668359,-0.001217216430211363,0.0
8051,8.965517241379311,5.862068965517242,3.928571428571429,0,303189.09719718253,550598.6581155253,382813.1673824742,200605.08508428812,72416.24777597749,2.021260647981217e-06,0.0,0.0,0.0,2.021260647981217e-06,0.0,23.370415897527,3.2970055354390024,0.00245514885343888,0.0
8052,8.965517241379311,5.862068965517242,4.285714285714286,0,349996.43195729086,557091.6527067693,237149.6493761526,183285.81229569373,-31211.7323185303,2.333309546381939e-06,0.0,0.0,0.0,2.333309546381939e-06,0.0,23.576644496251202,3.5953065157101456,-0.0010458003691217843,0.0
8053,8.965517241379311,5.862068965517242,4.642857142857143,0,369255.8315497906,614375.1209677609,299663.6010650171,207886.13648801346,-39015.903715874105,2.4617055436652707e-06,0.0,0.0,0.0,2.4617055436652707e-06,0.0,23.27229552597547,3.897030733161102,-0.0013025862368181487,0.0
8054,8.965517241379311,5.862068965517242,5.0,0,136634.50494811722,290185.25661358674,286597.7682795153,151792.3346012699,66483.4299096214,9.108966996541148e-07,0.0,0.0,0.0,9.108966996541148e-07,0.0,24.749833451297793,4.200114704906796,0.002217179702803243,0.0
8055,9.310344827586208,5.862068965517242,0.0,0,224620.67460336973,338646.84326961706,313993.27563934017,102716.39521438297,-28606.164170063632,1.4974711640224649e-06,0.0,0.0,0.0,1.4974711640224649e-06,0.0,22.9062105837146,-0.049891811683883444,-0.0009539972089157163,0.0
8056,9.310344827586208,5.862068965517242,0.35714285714285715,0,170246.5323601333,377000.7874198163,314178.25217956083,184270.33749287156,-165.02310493043035,1.1349768824008888e-06,0.0,0.0,0.0,1.1349768824008888e-06,0.0,24.40917602987223,0.25413938042015144,-5.509466775516925e-06,0.0
8057,9.310344827586208,5.862068965517242,0.7142857142857143,0,235523.05328865282,408306.7490874608,370565.54491366516,156192.04790898148,73289.16906899493,1.5701536885910189e-06,0.0,0.0,0.0,1.5701536885910189e-06,0.0,23.989684577582786,0.5594530767481931,0.0024556740165133156,0.0
8058,9.310344827586208,5.862068965517242,1.0714285714285714,0,189710.13138934644,436368.95697020186,341460.9291274715,217934.58265614207,-42143.11708903704,1.2647342092623096e-06,0.0,0.0,0.0,1.2647342092623096e-06,0.0,23.320184294456578,0.8679955300361334,-0.0014287902063300896,0.0
8059,9.310344827586208,5.862068965517242,1.4285714285714286,0,461471.94219479,491308.0878924833,510464.21320209693,39712.50041062691,-5994.767465944491,3.0764796146319332e-06,0.0,0.0,0.0,3.0764796146319332e-06,0.0,23.12734204460997,1.1820672200257434,-0.00021106203835459655,0.0
8060,9.310344827586208,5.862068965517242,1.7857142857142858,0,406055.3892552225,806782.557661244,578271.2098201524,337959.6798510885,34250.75855368658,2.70703592836815e-06,0.0,0.0,0.0,2.70703592836815e-06,0.0,23.74875336216766,1.5015038103174514,0.0013528192813166927,0.0
8061,9.310344827586208,5.862068965517242,2.142857142857143,0,747665.349172439,1153184.3354854204,611348.6812712596,300189.1361846776,394244.70414789143,4.984435661149593e-06,0.0,0.0,0.0,4.984435661149593e-06,0.0,23.66027595299567,1.8207602813253114,0.021133524984278763,0.0
8062,9.310344827586208,5.862068965517242,2.5,0,498512.68270239333,1152567.2095036851,817226.5380069957,579711.8908830119,782707.8756474018,3.323417884682622e-06,0.0,0.0,0.0,3.323417884682622e-06,0.0,23.974976260383833,2.1310429352276485,0.07827078756474018,0.0
8063,9.310344827586208,5.862068965517242,2.857142857142857,0,284210.66144918866,646856.3716653223,939850.575837566,665324.1906850671,585342.1821406785,1.8947377429945911e-06,0.0,0.0,0.0,1.8947377429945911e-06,0.0,22.68223285810911,2.4279031384681686,0.03137732352641025,0.0
8064,9.310344827586208,5.862068965517242,3.2142857142857144,0,366875.1963694089,619408.3715997112,291505.288574275,223170.18428508146,208342.70685245964,2.445834642462726e-06,0.0,0.0,0.0,2.445834642462726e-06,0.0,23.692416503577473,2.715789524603166,0.008229015731430622,0.0
8065,9.310344827586208,5.862068965517242,3.5714285714285716,0,214926.84059790804,480273.2848932995,232446.99247381193,344952.0977208601,15190.20312111555,1.4328456039860535e-06,0.0,0.0,0.0,1.4328456039860535e-06,0.0,23.353151282379294,3.003495791454315,0.0005348122762019222,0.0
8066,9.310344827586208,5.862068965517242,3.928571428571429,0,373207.7448000593,441335.8045052038,325988.2751417456,24071.673738597776,-33436.11780249579,2.4880516320003954e-06,0.0,0.0,0.0,2.4880516320003954e-06,0.0,24.434426123275763,3.2965669586075625,-0.0011335943080093781,0.0
8067,9.310344827586208,5.862068965517242,4.285714285714286,0,71721.81647604314,348827.5150457476,401155.2201117352,319400.20442740526,30561.5694428746,4.781454431736209e-07,0.0,0.0,0.0,4.781454431736209e-07,0.0,24.00555487112913,3.595167362462479,0.001024015593819635,0.0
8068,9.310344827586208,5.862068965517242,4.642857142857143,0,129629.35654077175,405113.81410158577,431872.44989407336,290951.95576415875,236.57569968319348,8.641957102718117e-07,0.0,0.0,0.0,8.641957102718117e-07,0.0,23.551883127893937,3.8969965232772945,7.898324042858775e-06,0.0
8069,9.310344827586208,5.862068965517242,5.0,0,225845.55228763,347530.0494720006,294882.5751442294,100010.93244387687,1702.0605601711507,1.5056370152508668e-06,0.0,0.0,0.0,1.5056370152508668e-06,0.0,24.521018750374235,4.200108188316117,5.6762626899417194e-05,0.0
8070,9.655172413793103,5.862068965517242,0.0,0,323460.10963634314,437221.9502214337,409113.7684409119,100625.00928842268,-46278.1097306029,2.156400730908954e-06,0.0,0.0,0.0,2.156400730908954e-06,0.0,23.429490645111642,-0.04989834847740244,-0.001543345247353805,0.0
8071,9.655172413793103,5.862068965517242,0.35714285714285715,0,292399.8020570914,352319.8376577609,320501.686003057,45312.2421468061,-72541.89842067439,1.9493320137139426e-06,0.0,0.0,0.0,1.9493320137139426e-06,0.0,23.600042683025176,0.2541050644783095,-0.0024218861919372992,0.0
8072,9.655172413793103,5.862068965517242,0.7142857142857143,0,170576.69491652082,373622.72225164884,177184.10020305592,262941.0810126065,-845.1706330633203,1.1371779661101388e-06,0.0,0.0,0.0,1.1371779661101388e-06,0.0,23.792095862211383,0.5593134920953795,-2.8318830592551127e-05,0.0
8073,9.655172413793103,5.862068965517242,1.0714285714285714,0,178946.28175625348,342292.9348715462,323803.4275825656,154819.74537983624,-49287.89994189939,1.1929752117083565e-06,0.0,0.0,0.0,1.1929752117083565e-06,0.0,24.116165816862857,0.8675555935217135,-0.0016710218320771194,0.0
8074,9.655172413793103,5.862068965517242,1.4285714285714286,0,305536.09722236404,522264.3671340694,310469.79075684305,172011.60065866332,-21798.33270567329,2.0369073148157605e-06,0.0,0.0,0.0,2.0369073148157605e-06,0.0,23.672219931577168,1.1809928523338182,-0.0007674693905522828,0.0
8075,9.655172413793103,5.862068965517242,1.7857142857142858,0,526023.1968108078,638079.8747677674,682024.575960869,135407.53511114436,195738.40387311295,3.506821312072052e-06,0.0,0.0,0.0,3.506821312072052e-06,0.0,24.381207417512208,1.4994708614216261,0.0077311772946178905,0.0
8076,9.655172413793103,5.862068965517242,2.142857142857143,0,522013.74574136606,1350930.509393326,794606.858558739,871830.0182481818,423276.51169166644,3.480091638275774e-06,0.0,0.0,0.0,3.480091638275774e-06,0.0,23.474845544037365,1.8177796341250487,0.022689777797848545,0.0
8077,9.655172413793103,5.862068965517242,2.5,0,1054942.457746127,1454729.9026231691,597969.9937373354,276432.9974117739,925322.7092146452,7.032949718307513e-06,0.0,0.0,0.0,7.032949718307513e-06,0.0,23.190021843535373,2.1276567923526004,0.09253227092146452,0.0
8078,9.655172413793103,5.862068965517242,2.857142857142857,0,667369.8107239978,1127565.7322842937,457481.7984595459,462943.56953447603,465164.42884746526,4.449132071493318e-06,0.0,0.0,0.0,4.449132071493318e-06,0.0,24.481495436773553,2.424922491267906,0.02493518359388784,0.0
8079,9.655172413793103,5.862068965517242,3.2142857142857144,0,268816.3152104397,648725.3041275156,537042.3668414551,342070.35406315734,126364.28346069549,1.7921087680695977e-06,0.0,0.0,0.0,1.7921087680695977e-06,0.0,23.533239721932393,2.713756575707341,0.004991073084336021,0.0
8080,9.655172413793103,5.862068965517242,3.5714285714285716,0,438063.64069758495,579811.0874666463,116358.61340061022,172561.04431954183,-22863.524756896608,2.920424271317233e-06,0.0,0.0,0.0,2.920424271317233e-06,0.0,23.991314467086873,3.00242142376239,-0.0008049723640783605,0.0
8081,9.655172413793103,5.862068965517242,3.928571428571429,0,348572.76241790084,527694.398965978,276503.282424366,129738.34809835629,53751.456869539674,2.323818416119339e-06,0.0,0.0,0.0,2.323818416119339e-06,0.0,24.083568433874632,3.2961270220931427,0.0018223510849687684,0.0
8082,9.655172413793103,5.862068965517242,4.285714285714286,0,275495.70070329774,462871.8651831236,335814.4276899808,146775.95381395906,13994.45911811178,1.8366380046886517e-06,0.0,0.0,0.0,1.8366380046886517e-06,0.0,24.745511622266914,3.5950277778096655,0.00046890734426464453,0.0
8083,9.655172413793103,5.862068965517242,4.642857142857143,0,367931.35666363,592480.0804415564,219182.98098155626,230160.1333032065,-11860.928057729974,2.4528757110908667e-06,0.0,0.0,0.0,2.4528757110908667e-06,0.0,23.56033721597823,3.8969622073354526,-0.00039598933184785634,0.0
8084,9.655172413793103,5.862068965517242,5.0,0,307448.56455772003,489738.367918035,403117.97422534705,148271.66787916404,13917.205005217618,2.0496570970514667e-06,0.0,0.0,0.0,2.0496570970514667e-06,0.0,23.97746021924493,4.200101651522598,0.000464129851592609,0.0
8085,10.0,5.862068965517242,0.0,0,177863.38141516666,530395.1593132243,420739.33468270156,325177.4782572434,-32075.274577872886,1.1857558761011111e-06,0.0,0.0,0.0,1.1857558761011111e-06,0.0,23.15885714300341,-0.04990490142894272,-0.0010696898137261825,0.0
8086,10.0,5.862068965517242,0.35714285714285715,0,310144.5227599484,460523.86116305634,222772.74624770883,109709.88404322728,-13172.815784524444,2.0676301517329894e-06,0.0,0.0,0.0,2.0676301517329894e-06,0.0,23.314471319171094,0.25407066371235354,-0.0004397880583778753,0.0
8087,10.0,5.862068965517242,0.7142857142857143,0,245269.22878330603,510780.16543460306,288159.3053795986,247855.2272318101,-2480.7876342615778,1.6351281918887069e-06,0.0,0.0,0.0,1.6351281918887069e-06,0.0,23.180925823132775,0.559173562409212,-8.312286537467274e-05,0.0
8088,10.0,5.862068965517242,1.0714285714285714,0,381358.6026426392,389713.50912119343,416738.3944035903,22586.193603642263,-24073.2632773117,2.5423906842842614e-06,0.0,0.0,0.0,2.5423906842842614e-06,0.0,23.98803032810665,0.8671145695469745,-0.0008161627611066365,0.0
8089,10.0,5.862068965517242,1.4285714285714286,0,316701.18601081875,489348.22744327213,376976.91109970456,131783.80978756316,90746.39045993246,2.111341240072125e-06,0.0,0.0,0.0,2.111341240072125e-06,0.0,24.029195395929506,1.1799158289581873,0.0031949726578390032,0.0
8090,10.0,5.862068965517242,1.7857142857142858,0,584942.1574550258,825658.5308491135,324981.0386782166,182701.82262586837,49250.92713062791,3.899614383033505e-06,0.0,0.0,0.0,3.899614383033505e-06,0.0,23.758455494894307,1.4974328873660738,0.0019452884157470838,0.0
8091,10.0,5.862068965517242,2.142857142857143,0,882175.9593715811,1221632.5963426793,767606.146657352,204917.26910141352,669361.9281275372,5.881173062477207e-06,0.0,0.0,0.0,5.881173062477207e-06,0.0,23.190887791484844,1.8147916191900126,0.035881210027115015,0.0
8092,10.0,5.862068965517242,2.5,0,822974.9683723272,1481932.483986207,712247.2739070675,614413.6866535991,785316.4027466564,5.486499789148848e-06,0.0,0.0,0.0,5.486499789148848e-06,0.0,23.258027112345804,2.124262279415303,0.07853164027466565,0.0
8093,10.0,5.862068965517242,2.857142857142857,0,845579.7558713943,1395039.3161776692,1053803.8050595142,432162.8478211397,404453.0869088411,5.637198372475962e-06,0.0,0.0,0.0,5.637198372475962e-06,0.0,23.237303061400116,2.42193447633287,0.02168074631625303,0.0
8094,10.0,5.862068965517242,3.2142857142857144,0,639751.216873053,551795.1847001598,633738.5423279641,-43036.23815819589,42363.57707994038,4.26500811248702e-06,0.0,0.0,0.0,4.26500811248702e-06,0.0,23.7714235936567,2.7117186016517882,0.0016732553181109228,0.0
8095,10.0,5.862068965517242,3.5714285714285716,0,88860.59540662824,433744.4513757954,343311.13024274167,430510.718740214,29528.81545208394,5.924039693775217e-07,0.0,0.0,0.0,5.924039693775217e-07,0.0,22.807190171591976,3.001344400386759,0.0010396419902721967,0.0
8096,10.0,5.862068965517242,3.928571428571429,0,245252.9426034377,484874.8585245421,337692.2214313441,201755.59587653194,41750.94925808092,1.6350196173562514e-06,0.0,0.0,0.0,1.6350196173562514e-06,0.0,23.404094242963193,3.2956859981184037,0.0014154944276878972,0.0
8097,10.0,5.862068965517242,4.285714285714286,0,196670.7958187399,384784.9479953661,197257.61322695296,180095.51280237627,-114194.22854712004,1.3111386387915993e-06,0.0,0.0,0.0,1.3111386387915993e-06,0.0,22.93761996210865,3.594887848123498,-0.0038262652372951984,0.0
8098,10.0,5.862068965517242,4.642857142857143,0,481899.19951281167,751556.0562901658,246359.18821071982,296945.41506204574,219.096182412245,3.2126613300854113e-06,0.0,0.0,0.0,3.2126613300854113e-06,0.0,23.865089257546288,3.8969278065694968,7.314752307876794e-06,0.0
8099,10.0,5.862068965517242,5.0,0,209006.97015985526,494708.3697824515,453231.7959583059,268072.8173633781,-89156.77117526879,1.3933798010657018e-06,0.0,0.0,0.0,1.3933798010657018e-06,0.0,23.12108441171977,4.200095098571057,-0.0029733210769360696,0.0
8100,0.0,6.206896551724139,0.0,0,251037.492245032,441427.60880595096,318716.96934447024,152637.91011088082,44030.282647505446,1.6735832816335465e-06,0.0,0.0,0.0,1.6735832816335465e-06,0.0,24.50946225694275,-0.049906249384656744,0.0014683816573159536,0.0
8101,0.0,6.206896551724139,0.35714285714285715,0,395620.560265034,402300.0076347844,397415.84161602805,4259.976708401344,44840.176938313096,2.6374704017668933e-06,0.0,0.0,0.0,2.6374704017668933e-06,0.0,24.0578165764107,0.25406358740349455,0.0014970356130075515,0.0
8102,0.0,6.206896551724139,0.7142857142857143,0,153358.7907174883,406761.79427827196,335861.6913315344,230781.3181918078,1849.9953321519934,1.0223919381165887e-06,0.0,0.0,0.0,1.0223919381165887e-06,0.0,23.495332917792098,0.5591447785827378,6.198713296312273e-05,0.0
8103,0.0,6.206896551724139,1.0714285714285714,0,360631.0256721313,466383.9493034999,446369.9785335994,96162.69794918306,9958.05668574607,2.4042068378142086e-06,0.0,0.0,0.0,2.4042068378142086e-06,0.0,23.751333720931445,0.8670238500012687,0.000337610856753049,0.0
8104,0.0,6.206896551724139,1.4285714285714286,0,337012.4681030422,550805.530187335,161747.1657083955,349024.0773631718,-70255.1986465883,2.246749787353615e-06,0.0,0.0,0.0,2.246749787353615e-06,0.0,23.783535500843264,1.179694283017494,-0.0024735247056025373,0.0
8105,0.0,6.206896551724139,1.7857142857142858,0,448603.30973096966,701245.1241897501,511163.8752409579,188895.53911166554,39056.05308921108,2.990688731539798e-06,0.0,0.0,0.0,2.990688731539798e-06,0.0,23.073954874257044,1.497013671878776,0.0015426163945652567,0.0
8106,0.0,6.206896551724139,2.142857142857143,0,779104.826249753,1080936.682953164,1176509.906223464,354027.45134985197,361249.6196878456,5.1940321749983535e-06,0.0,0.0,0.0,5.1940321749983535e-06,0.0,24.177893706335475,1.8141769783246733,0.01936482033344041,0.0
8107,0.0,6.206896551724139,2.5,0,1350014.0671415983,1707055.9258601663,1199022.0772139886,176730.18782759178,715859.7673266028,9.000093780943989e-06,0.0,0.0,0.0,9.000093780943989e-06,0.0,23.51569480984424,2.1235640210683577,0.07158597673266029,0.0
8108,0.0,6.206896551724139,2.857142857142857,0,1155076.0443965981,1460010.1328723873,1103467.290561815,168698.47455731378,530970.8572361446,7.700506962643988e-06,0.0,0.0,0.0,7.700506962643988e-06,0.0,23.18432151155633,2.4213198354675303,0.028462743466845856,0.0
8109,0.0,6.206896551724139,3.2142857142857144,0,449436.6435640259,810635.9974393044,539170.6106110677,291858.65337236185,180205.73044848448,2.996244290426839e-06,0.0,0.0,0.0,2.996244290426839e-06,0.0,23.84380781284048,2.7112993861644905,0.0071176755508157484,0.0
8110,0.0,6.206896551724139,3.5714285714285716,0,175485.38856095244,394221.7328463377,319245.68460085674,193702.83514283356,39666.007622379875,1.1699025904063495e-06,0.0,0.0,0.0,1.1699025904063495e-06,0.0,23.016336470502655,3.0011228544460655,0.0013965493190067266,0.0
8111,0.0,6.206896551724139,3.928571428571429,0,336948.0140480377,513518.23921914917,229276.05467145302,141312.92418419634,-14695.666545868837,2.2463200936535845e-06,0.0,0.0,0.0,2.2463200936535845e-06,0.0,23.910401058263652,3.295595278572698,-0.000498231404949688,0.0
8112,0.0,6.206896551724139,4.285714285714286,0,325796.0493440923,589851.1967017469,216263.92416274967,364749.88344873756,-33569.12111082851,2.171973662293949e-06,0.0,0.0,0.0,2.171973662293949e-06,0.0,23.758728375767415,3.5948590642970237,-0.0011247885535643812,0.0
8113,0.0,6.206896551724139,4.642857142857143,0,293033.5529072711,571422.7735292066,386379.4458269898,233568.90982629333,4060.4427717362714,1.953557019381807e-06,0.0,0.0,0.0,1.953557019381807e-06,0.0,23.266946649876143,3.896920730260638,0.00013556207510578505,0.0
8114,0.0,6.206896551724139,5.0,0,289549.3307192707,514324.2697511577,359947.42906190845,180299.99090137382,13297.633917634015,1.9303288714618047e-06,0.0,0.0,0.0,1.9303288714618047e-06,0.0,24.074933715734698,4.200093750615343,0.0004434675536079605,0.0
8115,0.3448275862068966,6.206896551724139,0.0,0,506144.0698699707,520372.92032809043,278191.3015295097,-61361.85907581424,-8952.482357854546,3.374293799133138e-06,0.0,0.0,0.0,3.374293799133138e-06,0.0,23.978630522327844,-0.04989979162808768,-0.00029855953882828565,0.0
8116,0.3448275862068966,6.206896551724139,0.35714285714285715,0,156439.792301163,409528.442572361,324825.5006756593,229001.47690528657,-26705.444216125656,1.04293194867442e-06,0.0,0.0,0.0,1.04293194867442e-06,0.0,23.46978242334554,0.25409748842824154,-0.0008915888335526863,0.0
8117,0.3448275862068966,6.206896551724139,0.7142857142857143,0,142822.39043415207,457560.0045637243,296128.2429316056,406051.5707704447,25015.55074015662,9.521492695610138e-07,0.0,0.0,0.0,9.521492695610138e-07,0.0,23.904976969681478,0.5592826755051399,0.00083818712562483,0.0
8118,0.3448275862068966,6.206896551724139,1.0714285714285714,0,216236.1884746822,361774.49490435293,373751.4870704673,151775.71601490647,30150.494949458796,1.4415745898312145e-06,0.0,0.0,0.0,1.4415745898312145e-06,0.0,22.97409266740041,0.867458467204292,0.0010222008924678687,0.0
8119,0.3448275862068966,6.206896551724139,1.4285714285714286,0,365410.11486150924,515132.9266897548,433410.90478003136,115781.0715082359,-57732.18724613956,2.4360674324100617e-06,0.0,0.0,0.0,2.4360674324100617e-06,0.0,23.89066839808823,1.1807556604344123,-0.0020326181437497455,0.0
8120,0.3448275862068966,6.206896551724139,1.7857142857142858,0,562980.1956908175,882548.9863725568,339398.64491082984,301639.8849655092,46684.50817026883,3.7532013046054502e-06,0.0,0.0,0.0,3.7532013046054502e-06,0.0,22.920153642046195,1.499022040209279,0.0018439212869558062,0.0
8121,0.3448275862068966,6.206896551724139,2.142857142857143,0,736769.4004113163,911155.9542314624,779576.0807327712,117462.03889015861,469928.9020898599,4.911796002742109e-06,0.0,0.0,0.0,4.911796002742109e-06,0.0,23.718583712021193,1.8171215862554009,0.025190583636667624,0.0
8122,0.3448275862068966,6.206896551724139,2.5,0,502073.61836436955,1005964.6019637573,445096.0617279099,598456.4215110495,821408.7863820138,3.3471574557624637e-06,0.0,0.0,0.0,3.3471574557624637e-06,0.0,24.003750242413403,2.12690922178972,0.08214087863820138,0.0
8123,0.3448275862068966,6.206896551724139,2.857142857142857,0,317144.7695738238,1053061.2733303083,750525.1095693088,723090.345695699,396247.0022750161,2.114298463825492e-06,0.0,0.0,0.0,2.114298463825492e-06,0.0,23.833066568927418,2.424264443398258,0.021240858366440546,0.0
8124,0.3448275862068966,6.206896551724139,3.2142857142857144,0,441065.4280990639,665563.100117547,572277.4286695283,185316.70180314593,98907.23867696643,2.9404361873270927e-06,0.0,0.0,0.0,2.9404361873270927e-06,0.0,24.445280056269432,2.713307754494994,0.003906588501806782,0.0
8125,0.3448275862068966,6.206896551724139,3.5714285714285716,0,383568.5233808453,549870.7543993127,212805.86958689342,132510.54083731942,18408.26338294887,2.5571234892056355e-06,0.0,0.0,0.0,2.5571234892056355e-06,0.0,23.27662673258179,3.0021842318629837,0.0006481128107545924,0.0
8126,0.3448275862068966,6.206896551724139,3.928571428571429,0,190928.9627604839,380831.0412483477,258274.40864152907,160843.01297414498,40234.43738447828,1.2728597517365594e-06,0.0,0.0,0.0,1.2728597517365594e-06,0.0,23.882426896782054,3.296029895775721,0.0013640796899453398,0.0
8127,0.3448275862068966,6.206896551724139,4.285714285714286,0,370714.6017642333,546203.4503727488,285321.52197362,121849.60701121579,-45083.23393486288,2.471430678428222e-06,0.0,0.0,0.0,2.471430678428222e-06,0.0,22.616599095770425,3.594996961219426,-0.0015105878202823018,0.0
8128,0.3448275862068966,6.206896551724139,4.642857142857143,0,262125.36854444369,300686.2504631192,302598.07644708455,39522.02396632529,10843.484772062493,1.7475024569629579e-06,0.0,0.0,0.0,1.7475024569629579e-06,0.0,23.431440586299036,3.896954631285385,0.00036202093705416403,0.0
8129,0.3448275862068966,6.206896551724139,5.0,0,330597.4704227585,506705.06385509495,261011.67895012695,130835.13549258406,-36009.61191650162,2.2039831361517233e-06,0.0,0.0,0.0,2.2039831361517233e-06,0.0,23.540939656950275,4.200100208371913,-0.00120089743798755,0.0
8130,0.6896551724137931,6.206896551724139,0.0,0,183702.30519902313,311957.0734113328,171456.98343831033,104079.52218564537,40073.48972199647,1.2246820346601541e-06,0.0,0.0,0.0,1.2246820346601541e-06,0.0,24.50478868128315,-0.04989336407656204,0.001336425153649401,0.0
8131,0.6896551724137931,6.206896551724139,0.35714285714285715,0,15739.363059154603,236051.50269275584,253878.71252615296,248026.23349299826,-38986.06951506867,1.0492908706103068e-07,0.0,0.0,0.0,1.0492908706103068e-07,0.0,23.714037234516503,0.25413123088678774,-0.001301590191214832,0.0
8132,0.6896551724137931,6.206896551724139,0.7142857142857143,0,218872.28770526592,387125.10878191335,136565.47527357878,233209.98397172042,15100.6260144351,1.4591485847017727e-06,0.0,0.0,0.0,1.4591485847017727e-06,0.0,24.18712985921096,0.5594199274384525,0.0005059712834487706,0.0
8133,0.6896551724137931,6.206896551724139,1.0714285714285714,0,107938.13461240304,361338.6736140431,248793.5677413169,258688.96831061592,-33393.14755734485,7.195875640826869e-07,0.0,0.0,0.0,7.195875640826869e-07,0.0,23.283110273881917,0.8678910515602497,-0.0011321374754427323,0.0
8134,0.6896551724137931,6.206896551724139,1.4285714285714286,0,87219.14653067202,344255.6506887315,270653.9050714642,247921.03280130125,38852.0278706355,5.814609768711468e-07,0.0,0.0,0.0,5.814609768711468e-07,0.0,23.573589765460586,1.18181207344138,0.0013678909554324077,0.0
8135,0.6896551724137931,6.206896551724139,1.7857142857142858,0,144140.68658058575,420663.83424989483,426635.5836982204,279601.83087681705,94603.45553581162,9.609379105372383e-07,0.0,0.0,0.0,9.609379105372383e-07,0.0,23.326418822929764,1.5010210147430372,0.0037365998340570207,0.0
8136,0.6896551724137931,6.206896551724139,2.142857142857143,0,629179.534597995,937455.6130814739,552274.5136409497,211391.9832228683,376668.92611602304,4.1945302306532996e-06,0.0,0.0,0.0,4.1945302306532996e-06,0.0,23.252606138921887,1.8200524212900042,0.02019137372581749,0.0
8137,0.6896551724137931,6.206896551724139,2.5,0,776068.2324146274,1320513.1014252387,440253.57504702505,734989.8169620859,854173.3677662751,5.173788216097516e-06,0.0,0.0,0.0,5.173788216097516e-06,0.0,23.291632033636276,2.130238775911217,0.08541733677662751,0.0
8138,0.6896551724137931,6.206896551724139,2.857142857142857,0,549240.5967128589,1048883.0978693569,588516.901640778,440926.9764923953,288194.7327594841,3.6616039780857257e-06,0.0,0.0,0.0,3.6616039780857257e-06,0.0,23.45201907769923,2.427195278432861,0.015448706148822147,0.0
8139,0.6896551724137931,6.206896551724139,3.2142857142857144,0,510637.4413097803,640980.7737031977,561644.3090559822,95318.57847058431,125455.33082828856,3.4042496087318686e-06,0.0,0.0,0.0,3.4042496087318686e-06,0.0,24.785090454768056,2.7153067290287516,0.004955171729188041,0.0
8140,0.6896551724137931,6.206896551724139,3.5714285714285716,0,361174.0126275216,484816.1572211591,421335.52702457766,96110.4031937631,57416.44684701747,2.407826750850144e-06,0.0,0.0,0.0,2.407826750850144e-06,0.0,23.739211521360886,3.0032406448699516,0.002021501647136961,0.0
8141,0.6896551724137931,6.206896551724139,3.928571428571429,0,364998.5385143196,378653.6168723995,452251.60831762577,56062.247032703024,35512.832163754516,2.433323590095464e-06,0.0,0.0,0.0,2.433323590095464e-06,0.0,23.096800907281022,3.296462480131679,0.0012040017516363561,0.0
8142,0.6896551724137931,6.206896551724139,4.285714285714286,0,343680.40936572856,263874.8251040289,383708.6927649458,-3845.398455916345,-25025.862072758995,2.291202729104857e-06,0.0,0.0,0.0,2.291202729104857e-06,0.0,23.51578312759839,3.5951342131527384,-0.0008385326237641722,0.0
8143,0.6896551724137931,6.206896551724139,4.642857142857143,0,91026.13809264361,263685.6430843858,169674.88567328526,175971.04018695944,-8641.785277556406,6.068409206176241e-07,0.0,0.0,0.0,6.068409206176241e-07,0.0,24.29093229495993,3.896988373743931,-0.0002885149257609728,0.0
8144,0.6896551724137931,6.206896551724139,5.0,0,258400.86620259593,353329.9256657916,227721.46971056232,56137.35647074502,-22317.34780604907,1.7226724413506396e-06,0.0,0.0,0.0,1.7226724413506396e-06,0.0,23.436537253689753,4.200106635923438,-0.0007442692208154498,0.0
8145,1.0344827586206897,6.206896551724139,0.0,0,212304.36077037762,326793.53102434555,234810.85934978517,84009.07364612793,-10038.10707732747,1.4153624051358509e-06,0.0,0.0,0.0,1.4153624051358509e-06,0.0,24.559493361214997,-0.049886974009061495,-0.00033476442621374364,0.0
8146,1.0344827586206897,6.206896551724139,0.35714285714285715,0,225843.5358259493,395185.94063041324,230617.4574044347,137706.91193489556,-28407.030147055582,1.5056235721729955e-06,0.0,0.0,0.0,1.5056235721729955e-06,0.0,24.33523533281378,0.25416477656695613,-0.0009483980370645077,0.0
8147,1.0344827586206897,6.206896551724139,0.7142857142857143,0,231961.46124120062,390100.15920957696,241862.41792577005,122783.72505959154,-12301.473586850252,1.546409741608004e-06,0.0,0.0,0.0,1.546409741608004e-06,0.0,23.727987309163623,0.5595563789495683,-0.0004121810826319318,0.0
8148,1.0344827586206897,6.206896551724139,1.0714285714285714,0,312561.88713716046,391281.2395129936,412395.1541311406,89811.61903122214,51449.50527141894,2.0837459142477363e-06,0.0,0.0,0.0,2.0837459142477363e-06,0.0,23.50189404625736,0.8683211131821946,0.0017443073585901043,0.0
8149,1.0344827586206897,6.206896551724139,1.4285714285714286,0,161762.18554118634,382881.6942848367,196153.31693818633,285469.11195767706,-7850.272237250063,1.0784145702745755e-06,0.0,0.0,0.0,1.0784145702745755e-06,0.0,23.35922740098633,1.182862325686897,-0.00027639011345229037,0.0
8150,1.0344827586206897,6.206896551724139,1.7857142857142858,0,328086.50968921836,420599.0780836058,323811.4407071516,55006.784023307344,67354.69468970911,2.1872433979281226e-06,0.0,0.0,0.0,2.1872433979281226e-06,0.0,23.935556934586952,1.5030083317099465,0.0026603419460218044,0.0
8151,1.0344827586206897,6.206896551724139,2.142857142857143,0,820751.0962183425,931819.455209423,885634.5296425931,88951.06180142533,262236.8032221643,5.4716739747889505e-06,0.0,0.0,0.0,5.4716739747889505e-06,0.0,24.05158242592257,1.822966164358321,0.014057228859094729,0.0
8152,1.0344827586206897,6.206896551724139,2.5,0,583036.5314919201,1119309.839976583,584255.4822008221,497919.37855856365,582935.6751650043,3.886910209946134e-06,0.0,0.0,0.0,3.886910209946134e-06,0.0,24.518834240153936,2.1335489128269955,0.05829356751650043,0.0
8153,1.0344827586206897,6.206896551724139,2.857142857142857,0,375727.23577298096,449627.717060975,670374.447882191,236544.56866267172,395852.8607452228,2.5048482384865395e-06,0.0,0.0,0.0,2.5048482384865395e-06,0.0,24.031962095957084,2.430109021501178,0.021219730372127387,0.0
8154,1.0344827586206897,6.206896551724139,3.2142857142857144,0,352378.283110776,484085.42109773675,526965.8509858215,155109.5890953558,89644.19542923255,2.34918855407184e-06,0.0,0.0,0.0,2.34918855407184e-06,0.0,23.68210760693898,2.717294045995661,0.003540721465911427,0.0
8155,1.0344827586206897,6.206896551724139,3.5714285714285716,0,262745.50338377745,349558.31043861306,323400.1964525201,74712.15399853422,62627.332006140605,1.751636689225183e-06,0.0,0.0,0.0,1.751636689225183e-06,0.0,24.550213483835257,3.0042908971154687,0.0022049649840493904,0.0
8156,1.0344827586206897,6.206896551724139,3.928571428571429,0,168093.81546025787,357300.06858472124,257713.53308664038,163224.36165265224,-42003.22977974073,1.1206254364017192e-06,0.0,0.0,0.0,1.1206254364017192e-06,0.0,24.277400068394254,3.296892541753624,-0.0014240475666935822,0.0
8157,1.0344827586206897,6.206896551724139,4.285714285714286,0,142457.46222892986,284353.5272224941,300748.8749294744,150803.1041755941,-25620.04092961439,9.497164148595324e-07,0.0,0.0,0.0,9.497164148595324e-07,0.0,23.528671648700175,3.5952706646638544,-0.0008584415625402111,0.0
8158,1.0344827586206897,6.206896551724139,4.642857142857143,0,177834.2226127007,335133.35544534517,176076.85943782493,143129.40321786897,-13943.988540566988,1.1855614840846713e-06,0.0,0.0,0.0,1.1855614840846713e-06,0.0,23.83568950264312,3.897021919424099,-0.0004655344572193672,0.0
8159,1.0344827586206897,6.206896551724139,5.0,0,197338.46008535914,323425.10077862773,202830.91022627807,95690.70758879039,51487.661061456514,1.3155897339023943e-06,0.0,0.0,0.0,1.3155897339023943e-06,0.0,24.21220089657623,4.200113025990938,0.0017170804395239775,0.0
8160,1.3793103448275863,6.206896551724139,0.0,0,204277.24450987685,302906.8220610439,252522.18586893403,78151.89736898972,9347.955515317753,1.3618482967325123e-06,0.0,0.0,0.0,1.3618482967325123e-06,0.0,24.06200526205658,-0.04988063117934759,0.0003117483147221124,0.0
8161,1.3793103448275863,6.206896551724139,0.35714285714285715,0,167299.4559036283,268091.3676249486,89532.27999108892,114963.5888036526,-44343.64955691231,1.1153297060241886e-06,0.0,0.0,0.0,1.1153297060241886e-06,0.0,23.41036610386041,0.25419807426481716,-0.0014804585336215144,0.0
8162,1.3793103448275863,6.206896551724139,0.7142857142857143,0,109252.55066831838,273807.40708522813,308688.9371114231,186254.93910301675,34292.55887483035,7.283503377887892e-07,0.0,0.0,0.0,7.283503377887892e-07,0.0,24.006961486055772,0.5596918217597012,0.0011490285243839625,0.0
8163,1.3793103448275863,6.206896551724139,1.0714285714285714,0,20066.627945188495,253548.035277453,246022.542562986,230806.49083804374,3751.785904202738,1.3377751963458996e-07,0.0,0.0,0.0,1.3377751963458996e-07,0.0,23.58594405865961,0.8687479956265896,0.0001271978753931948,0.0
8164,1.3793103448275863,6.206896551724139,1.4285714285714286,0,154266.2036005956,404424.08024233667,274601.39171731134,233883.12965924217,38187.52779221255,1.028441357337304e-06,0.0,0.0,0.0,1.028441357337304e-06,0.0,23.960248137571487,1.1839048140720967,0.0013444954289444358,0.0
8165,1.3793103448275863,6.206896551724139,1.7857142857142858,0,369136.9302340887,599901.3261114504,201308.04952250145,269820.0436258071,141972.8546495143,2.4609128682272578e-06,0.0,0.0,0.0,2.4609128682272578e-06,0.0,23.283401343125476,1.5049809576810462,0.005607572599958153,0.0
8166,1.3793103448275863,6.206896551724139,2.142857142857143,0,281142.69441450597,674754.615269732,353123.85838415695,475775.6836438693,222877.93729932216,1.8742846294300397e-06,0.0,0.0,0.0,1.8742846294300397e-06,0.0,23.49251538948334,1.825858367940024,0.011947393095717587,0.0
8167,1.3793103448275863,6.206896551724139,2.5,0,933168.4662313416,1224040.054375226,582190.9757767841,153565.17881078602,690166.30832152,6.2211231082089435e-06,0.0,0.0,0.0,6.2211231082089435e-06,0.0,24.992023328650657,2.136834579963485,0.06901663083215201,0.0
8168,1.3793103448275863,6.206896551724139,2.857142857142857,0,514807.6425805198,747507.380613745,687206.342951141,205204.78719724508,294941.8964380645,3.4320509505367985e-06,0.0,0.0,0.0,3.4320509505367985e-06,0.0,23.7343195379705,2.433001225082881,0.015810388501619987,0.0
8169,1.3793103448275863,6.206896551724139,3.2142857142857144,0,501254.2056122093,703176.2429513889,153271.26401614607,271829.4944759652,34428.12554757467,3.341694704081395e-06,0.0,0.0,0.0,3.341694704081395e-06,0.0,24.508901517572276,2.7192666719667606,0.001359824833874744,0.0
8170,1.3793103448275863,6.206896551724139,3.5714285714285716,0,183568.7735281631,327584.8730528639,322359.89779953624,141459.3904099462,10537.562157833061,1.2237918235210872e-06,0.0,0.0,0.0,1.2237918235210872e-06,0.0,23.893974912383438,3.005333385500668,0.00037100343940865384,0.0
8171,1.3793103448275863,6.206896551724139,3.928571428571429,0,47447.08359924988,192335.8999940818,203108.96194895502,151201.66577831082,-38361.18617000909,3.163138906616659e-07,0.0,0.0,0.0,3.163138906616659e-07,0.0,23.36018328554284,3.297319424198019,-0.0013005703158386536,0.0
8172,1.3793103448275863,6.206896551724139,4.285714285714286,0,143695.76896169895,339178.33287410287,205720.67148761536,187066.46241047385,-621.2196992422699,9.57971793077993e-07,0.0,0.0,0.0,9.57971793077993e-07,0.0,23.426391199337708,3.595406107473987,-2.0814986625640827e-05,0.0
8173,1.3793103448275863,6.206896551724139,4.642857142857143,0,132595.903296125,328482.52891329007,234920.2831076212,176743.0657474492,-7594.449705161988,8.839726886408333e-07,0.0,0.0,0.0,8.839726886408333e-07,0.0,23.574631858386287,3.8970552171219603,-0.00025354854610548975,0.0
8174,1.3793103448275863,6.206896551724139,5.0,0,229055.84651245782,315017.4161698127,235857.70705848528,56881.19322924892,-29351.495561957123,1.527038976749719e-06,0.0,0.0,0.0,1.527038976749719e-06,0.0,25.0487145218989,4.200119368820652,-0.0009788535323065947,0.0
8175,1.7241379310344829,6.206896551724139,0.0,0,121590.92541147166,255961.11627986314,163732.8944924741,118169.20288267163,-18983.471945442692,8.106061694098111e-07,0.0,0.0,0.0,8.106061694098111e-07,0.0,23.886982137564438,-0.04987434892611723,-0.0006330866013288997,0.0
8176,1.7241379310344829,6.206896551724139,0.35714285714285715,0,208063.4222623188,291710.83954151656,242331.78682339142,63399.925435480196,33431.40033130991,1.387089481748792e-06,0.0,0.0,0.0,1.387089481748792e-06,0.0,24.097806786223607,0.25423105395675066,0.0011161418242736803,0.0
8177,1.7241379310344829,6.206896551724139,0.7142857142857143,0,193740.1346876263,264548.1182939946,69579.87382281377,72059.9039115446,-5231.689668260853,1.2916008979175087e-06,0.0,0.0,0.0,1.2916008979175087e-06,0.0,24.35290193114802,0.5598259710384721,-0.00017529635748380208,0.0
8178,1.7241379310344829,6.206896551724139,1.0714285714285714,0,234266.3679380233,285237.76423201815,185168.24759997887,17555.814278601516,-29580.035025195437,1.5617757862534887e-06,0.0,0.0,0.0,1.5617757862534887e-06,0.0,24.269039435991292,0.8691708011780938,-0.0010028604257632044,0.0
8179,1.7241379310344829,6.206896551724139,1.4285714285714286,0,227814.56556413727,412198.1674510393,257811.6631262604,150551.44759297906,20246.370810411518,1.5187637704275819e-06,0.0,0.0,0.0,1.5187637704275819e-06,0.0,24.453973340403547,1.1849373462889363,0.0007128283652041872,0.0
8180,1.7241379310344829,6.206896551724139,1.7857142857142858,0,437398.9642321668,524015.83430119284,318909.5756699791,21754.785481729254,91983.0302468694,2.9159930948811123e-06,0.0,0.0,0.0,2.9159930948811123e-06,0.0,23.76350469806743,1.50693474430913,0.003633099590388714,0.0
8181,1.7241379310344829,6.206896551724139,2.142857142857143,0,543690.1095196515,840137.9450626712,250559.41523943353,358541.819816393,282265.48658018257,3.62460073013101e-06,0.0,0.0,0.0,3.62460073013101e-06,0.0,23.43902960276007,1.8287229498559139,0.015130868341618012,0.0
8182,1.7241379310344829,6.206896551724139,2.5,0,217839.39700646128,840187.4289137404,750302.5200912391,591788.516599044,399630.7299570812,1.452262646709742e-06,0.0,0.0,0.0,1.452262646709742e-06,0.0,23.563407922005883,2.140088867704627,0.03996307299570812,0.0
8183,1.7241379310344829,6.206896551724139,2.857142857142857,0,341422.88592403696,697572.5287156692,337198.0799814552,378939.3598166565,91734.70600969245,2.276152572826913e-06,0.0,0.0,0.0,2.276152572826913e-06,0.0,23.27448604056651,2.435865806998771,0.004917447668882457,0.0
8184,1.7241379310344829,6.206896551724139,3.2142857142857144,0,164516.3187981207,388802.3922394934,346952.477382059,207402.95827103482,7708.432334247089,1.0967754586541379e-06,0.0,0.0,0.0,1.0967754586541379e-06,0.0,23.785066339669342,2.7212204585948445,0.00030446379382076687,0.0
8185,1.7241379310344829,6.206896551724139,3.5714285714285716,0,73476.28718257645,326700.1995514771,257765.99769019685,249398.28055833498,41630.198146707946,4.898419145505096e-07,0.0,0.0,0.0,4.898419145505096e-07,0.0,22.186817101813233,3.006365917717508,0.0014657039706486067,0.0
8186,1.7241379310344829,6.206896551724139,3.928571428571429,0,98202.65106411677,101940.6482724361,213721.22979342207,141320.73394203663,29426.135022682556,6.546843404274451e-07,0.0,0.0,0.0,6.546843404274451e-07,0.0,24.41692191658351,3.297742229749523,0.000997642709762748,0.0
8187,1.7241379310344829,6.206896551724139,4.285714285714286,0,200944.25184613164,259894.38907385318,275172.521810567,67025.28517211588,-23453.773897580075,1.3396283456408775e-06,0.0,0.0,0.0,1.3396283456408775e-06,0.0,24.345403819117017,3.595540256752758,-0.0007858572266694068,0.0
8188,1.7241379310344829,6.206896551724139,4.642857142857143,0,142170.16676691218,288931.92649103445,202490.2421225516,124846.56212933056,-6929.8688055412695,9.478011117794146e-07,0.0,0.0,0.0,9.478011117794146e-07,0.0,23.576358002707256,3.8970881968138937,-0.00023136082646679372,0.0
8189,1.7241379310344829,6.206896551724139,5.0,0,95173.55308895078,326792.1274183443,230685.97958769966,232579.42320293142,20493.335154292134,6.344903539263385e-07,0.0,0.0,0.0,6.344903539263385e-07,0.0,23.38039631700747,4.200125651073883,0.0006834395699591462,0.0
8190,2.0689655172413794,6.206896551724139,0.0,0,188600.03016826318,264780.64071249665,192743.15152748305,50778.97139570887,-3874.14557847485,1.2573335344550878e-06,0.0,0.0,0.0,1.2573335344550878e-06,0.0,24.858306050409748,-0.04986814590960637,-0.00012920026770544638,0.0
8191,2.0689655172413794,6.206896551724139,0.35714285714285715,0,237737.18978923754,299332.9729058036,230220.3682365507,34697.21187101936,26205.02677194775,1.5849145985949168e-06,0.0,0.0,0.0,1.5849145985949168e-06,0.0,24.58232365133946,0.2542636176828669,0.0008748818804036133,0.0
8192,2.0689655172413794,6.206896551724139,0.7142857142857143,0,122592.78851526817,158363.6860992492,274785.06399162445,146835.29795676412,-2725.831043536975,8.172852567684544e-07,0.0,0.0,0.0,8.172852567684544e-07,0.0,23.975125998010412,0.5599584283210141,-9.13334473845321e-05,0.0
8193,2.0689655172413794,6.206896551724139,1.0714285714285714,0,159495.1564027373,285973.0093252086,210439.90506057203,102742.48386600679,14116.137081161605,1.0633010426849153e-06,0.0,0.0,0.0,1.0633010426849153e-06,0.0,23.770992418668946,0.8695882739733939,0.0004785834510096883,0.0
8194,2.0689655172413794,6.206896551724139,1.4285714285714286,0,166547.71316316165,223238.3151761609,287870.4603705881,98694.08331251473,-6624.79083398737,1.110318087754411e-06,0.0,0.0,0.0,1.110318087754411e-06,0.0,24.13230506165148,1.1859568553972437,-0.00023324371879934551,0.0
8195,2.0689655172413794,6.206896551724139,1.7857142857142858,0,363063.27819106396,365164.50729110104,477229.71932080877,71345.73748988868,12974.45708440154,2.420421854607093e-06,0.0,0.0,0.0,2.420421854607093e-06,0.0,23.39757296198533,1.5088638882433667,0.0005124585979864421,0.0
8196,2.0689655172413794,6.206896551724139,2.142857142857143,0,682798.004135215,686730.2837827904,693058.4356229979,7118.349343897669,352245.51583011146,4.551986694234766e-06,0.0,0.0,0.0,4.551986694234766e-06,0.0,24.269238565524216,1.8315514014113343,0.018882154486984083,0.0
8197,2.0689655172413794,6.206896551724139,2.5,0,834982.8055557013,1053714.4402214054,522925.0297416925,91259.3094332188,358277.3387210207,5.566552037038009e-06,0.0,0.0,0.0,5.566552037038009e-06,0.0,23.52643207815171,2.143302109808879,0.035827733872102065,0.0
8198,2.0689655172413794,6.206896551724139,2.857142857142857,0,217113.29763271485,766402.9132139989,647291.2189280908,515803.9106788479,226295.89666572557,1.447421984218099e-06,0.0,0.0,0.0,1.447421984218099e-06,0.0,22.936787758805846,2.4386942585541913,0.012130613133691868,0.0
8199,2.0689655172413794,6.206896551724139,3.2142857142857144,0,253563.99586498967,483287.5883158018,361030.5253226937,191758.084793857,46180.059381447856,1.6904266390999312e-06,0.0,0.0,0.0,1.6904266390999312e-06,0.0,23.730043415189797,2.7231496025290816,0.0018239968217243514,0.0
8200,2.0689655172413794,6.206896551724139,3.5714285714285716,0,320796.18191660254,334838.9037245885,310418.16366390535,2530.250469490514,33089.43306955701,2.1386412127773502e-06,0.0,0.0,0.0,2.1386412127773502e-06,0.0,23.634152834166873,3.0073854268258153,0.0011650031850832369,0.0
8201,2.0689655172413794,6.206896551724139,3.928571428571429,0,58497.56011043775,247976.12537676693,235379.58204466396,184206.47073678556,-25237.328066457794,3.8998373406958497e-07,0.0,0.0,0.0,3.8998373406958497e-07,0.0,25.049886955831507,3.2981597025448233,-0.0008556283840872941,0.0
8202,2.0689655172413794,6.206896551724139,4.285714285714286,0,59515.19755142402,250219.26630702874,212015.56983424677,181646.0433025288,3565.2655403342533,3.967679836761601e-07,0.0,0.0,0.0,3.967679836761601e-07,0.0,24.98851347732226,3.5956727140352998,0.0001194600793075849,0.0
8203,2.0689655172413794,6.206896551724139,4.642857142857143,0,108817.65781416111,303794.27501225134,220201.84082593603,180754.5267165126,-38804.78198691681,7.254510520944074e-07,0.0,0.0,0.0,7.254510520944074e-07,0.0,23.597736976545903,3.89712076054001,-0.0012955377198739894,0.0
8204,2.0689655172413794,6.206896551724139,5.0,0,118137.77066167325,202287.33810461496,210155.69988452405,88280.43404498354,12322.646571304036,7.875851377444883e-07,0.0,0.0,0.0,7.875851377444883e-07,0.0,24.110588090382517,4.200131854090394,0.0004109523515837643,0.0
8205,2.413793103448276,6.206896551724139,0.0,0,181388.9517729167,303104.99238356133,205626.70741374296,93818.53663933704,49416.360162588986,1.2092596784861114e-06,0.0,0.0,0.0,1.2092596784861114e-06,0.0,23.856431683890165,-0.04986204889988007,0.0016480038843942222,0.0
8206,2.413793103448276,6.206896551724139,0.35714285714285715,0,116142.03199378404,249960.61294945897,181104.10734036524,115867.63307397798,-53108.030694754176,7.742802132918936e-07,0.0,0.0,0.0,7.742802132918936e-07,0.0,25.10822168177016,0.2542956249094329,-0.0017730664487814166,0.0
8207,2.413793103448276,6.206896551724139,0.7142857142857143,0,136181.09230607026,316775.6354717583,176631.10548351076,184938.30804380937,-19772.699119272937,9.07873948707135e-07,0.0,0.0,0.0,9.07873948707135e-07,0.0,23.28396330989455,0.5600886219676963,-0.0006625167685804156,0.0
8208,2.413793103448276,6.206896551724139,1.0714285714285714,0,235889.5537295612,333953.8029662628,294854.844325294,80957.68063366444,23623.028647779523,1.5725970248637413e-06,0.0,0.0,0.0,1.5725970248637413e-06,0.0,24.43134854564193,0.8699986123448872,0.0008008983271098077,0.0
8209,2.413793103448276,6.206896551724139,1.4285714285714286,0,160917.77165800642,216594.69362982607,258951.96709192384,81092.36382689835,99913.01081509073,1.0727851443867095e-06,0.0,0.0,0.0,1.0727851443867095e-06,0.0,24.842514218797028,1.186958941549767,0.0035177083749411875,0.0
8210,2.413793103448276,6.206896551724139,1.7857142857142858,0,151047.37920842748,412061.7246059497,272943.54757108155,251398.79215421286,76539.9509349683,1.0069825280561833e-06,0.0,0.0,0.0,1.0069825280561833e-06,0.0,23.935421533069338,1.5107600639684984,0.003023136589911049,0.0
8211,2.413793103448276,6.206896551724139,2.142857142857143,0,128311.68079141062,572657.4043190697,445276.41397232277,443434.8566734264,210174.21011087074,8.554112052760708e-07,0.0,0.0,0.0,8.554112052760708e-07,0.0,24.224795428488576,1.8343315159916496,0.011266408587603844,0.0
8212,2.413793103448276,6.206896551724139,2.5,0,367495.1828722338,518180.688098221,740747.9232048595,316573.6237400517,456960.13814788853,2.449967885814892e-06,0.0,0.0,0.0,2.449967885814892e-06,0.0,24.744276080102004,2.1464604390392297,0.045696013814788855,0.0
8213,2.413793103448276,6.206896551724139,2.857142857142857,0,173125.14977353896,548199.8731556858,381886.5287187192,368984.7755870362,175809.33173013816,1.1541676651569264e-06,0.0,0.0,0.0,1.1541676651569264e-06,0.0,23.668995867883734,2.4414743731345068,0.009424276002942726,0.0
8214,2.413793103448276,6.206896551724139,3.2142857142857144,0,501428.0720145021,693971.430170066,188196.07399848514,197006.75967959693,86661.79592877591,3.342853813430014e-06,0.0,0.0,0.0,3.342853813430014e-06,0.0,24.54546923416024,2.725045778254213,0.00342292414640147,0.0
8215,2.413793103448276,6.206896551724139,3.5714285714285716,0,240967.2924682195,365200.10783281224,136167.79603253538,113850.52709418636,38144.442538022005,1.6064486164547967e-06,0.0,0.0,0.0,1.6064486164547967e-06,0.0,23.45772449530442,3.0083875129783384,0.0013429784957816162,0.0
8216,2.413793103448276,6.206896551724139,3.928571428571429,0,306507.2254010166,387521.9605097912,99216.75237956723,65586.45668553267,39570.99289299781,2.043381502673444e-06,0.0,0.0,0.0,2.043381502673444e-06,0.0,23.438992298035277,3.2985700409163163,0.0013415867407439732,0.0
8217,2.413793103448276,6.206896551724139,4.285714285714286,0,242656.72859387303,316968.20387011435,119693.58691415461,46010.461140882464,-8970.44854183619,1.6177115239591536e-06,0.0,0.0,0.0,1.6177115239591536e-06,0.0,24.66670324143241,3.595802907681982,-0.00030056961595401787,0.0
8218,2.413793103448276,6.206896551724139,4.642857142857143,0,137584.16423386853,230808.44078064305,125705.9654295468,75084.99510198848,-21885.44600916887,9.172277615591236e-07,0.0,0.0,0.0,9.172277615591236e-07,0.0,23.762658253103,3.8971527677665763,-0.0007306682158581232,0.0
8219,2.413793103448276,6.206896551724139,5.0,0,202408.9468927183,250276.1807186226,264746.20581631694,55490.53699075801,40508.42873192032,1.3493929792847886e-06,0.0,0.0,0.0,1.3493929792847886e-06,0.0,24.340540966742125,4.20013795110012,0.0013509300903843352,0.0
8220,2.7586206896551726,6.206896551724139,0.0,0,154876.0593195672,298196.5447877737,184294.38789026428,121845.64330343212,36840.04923080269,1.032507062130448e-06,0.0,0.0,0.0,1.032507062130448e-06,0.0,23.683605259961933,-0.049856097368700156,0.0012285919892497479,0.0
8221,2.7586206896551726,6.206896551724139,0.35714285714285715,0,120693.78725057736,290200.4202149628,167408.0368799774,171720.84018383906,-26361.455013289546,8.046252483371824e-07,0.0,0.0,0.0,8.046252483371824e-07,0.0,24.417706993796003,0.2543268684231292,-0.0008801043987824093,0.0
8222,2.7586206896551726,6.206896551724139,0.7142857142857143,0,122924.33212844131,236791.38775983235,110110.72449785417,118003.79654054334,-10050.231419121135,8.19495547522942e-07,0.0,0.0,0.0,8.19495547522942e-07,0.0,23.452578568836618,0.5602157091108106,-0.00033674951523392915,0.0
8223,2.7586206896551726,6.206896551724139,1.0714285714285714,0,129460.5912441403,192510.74626190716,185167.04233410888,59534.61287334673,21952.00703504691,8.630706082942687e-07,0.0,0.0,0.0,8.630706082942687e-07,0.0,24.93469227075702,0.8703991597807431,0.0007442452012910877,0.0
8224,2.7586206896551726,6.206896551724139,1.4285714285714286,0,388022.2811386222,531265.2930656058,112991.48253032657,183036.49290382446,-4055.6395760966248,2.5868152075908145e-06,0.0,0.0,0.0,2.5868152075908145e-06,0.0,24.698319714627615,1.187937117286633,-0.00014278978469562067,0.0
8225,2.7586206896551726,6.206896551724139,1.7857142857142858,0,207834.84835338738,446166.65971592773,287467.5261554482,210912.4331418244,49815.896462571276,1.3855656556892493e-06,0.0,0.0,0.0,1.3855656556892493e-06,0.0,23.99570081773453,1.5126109957296925,0.0019676032910339357,0.0
8226,2.7586206896551726,6.206896551724139,2.142857142857143,0,372153.26272736234,635926.3849214879,757041.3206245904,339417.43007153925,156626.29852375016,2.481021751515749e-06,0.0,0.0,0.0,2.481021751515749e-06,0.0,23.36957223135119,1.8370452952623488,0.008395967677488667,0.0
8227,2.7586206896551726,6.206896551724139,2.5,0,522372.2220834042,818529.8654644798,666531.3225953216,237015.9348669909,371994.36673568585,3.482481480556028e-06,0.0,0.0,0.0,3.482481480556028e-06,0.0,24.203467015051146,2.149543408516839,0.037199436673568585,0.0
8228,2.7586206896551726,6.206896551724139,2.857142857142857,0,211070.91394537833,647219.8153152893,447627.14656571666,426291.2983885287,250341.1614577689,1.4071394263025222e-06,0.0,0.0,0.0,1.4071394263025222e-06,0.0,24.131379274983686,2.444188152405206,0.013419561847244207,0.0
8229,2.7586206896551726,6.206896551724139,3.2142857142857144,0,158746.3778266109,470397.45850398066,385495.0574289208,287254.75434296834,16280.250259838576,1.0583091855107393e-06,0.0,0.0,0.0,1.0583091855107393e-06,0.0,24.04309210197641,2.726896710015407,0.0006430291586578638,0.0
8230,2.7586206896551726,6.206896551724139,3.5714285714285716,0,257558.98513006355,403008.3416893211,190926.1983517491,116405.63461800982,-32766.46011395974,1.7170599008670903e-06,0.0,0.0,0.0,1.7170599008670903e-06,0.0,24.845332702445614,3.0093656887152047,-0.0011536320467148149,0.0
8231,2.7586206896551726,6.206896551724139,3.928571428571429,0,119512.41252106128,268932.6572736489,148896.13903877223,149951.33799020137,-8487.41792047972,7.967494168070753e-07,0.0,0.0,0.0,7.967494168070753e-07,0.0,24.931516992456316,3.2989705883521725,-0.0002877513681816983,0.0
8232,2.7586206896551726,6.206896551724139,4.285714285714286,0,98946.80522984467,205450.46068115172,278631.78238877724,166055.3275992782,-23488.28749395955,6.596453681989645e-07,0.0,0.0,0.0,6.596453681989645e-07,0.0,24.543266742891735,3.5959299948250965,-0.0007870136614185266,0.0
8233,2.7586206896551726,6.206896551724139,4.642857142857143,0,158975.10290527722,258223.70613483802,125832.1113724497,81903.28584420028,749.0384799710472,1.0598340193685149e-06,0.0,0.0,0.0,1.0598340193685149e-06,0.0,25.07951740268322,3.8971840112802725,2.5007423177039014e-05,0.0
8234,2.7586206896551726,6.206896551724139,5.0,0,121003.76420575895,242017.56514842896,167862.73432971482,102384.27837302661,26479.5435610145,8.066917613717264e-07,0.0,0.0,0.0,8.066917613717264e-07,0.0,22.937375972986633,4.2001439026313,0.0008830757769685892,0.0
8235,3.1034482758620694,6.206896551724139,0.0,0,202253.2617215305,342953.292593139,203193.05435167055,111034.01545183895,-8041.852454451392,1.3483550781435367e-06,0.0,0.0,0.0,1.3483550781435367e-06,0.0,24.205670233175415,-0.049850351211370436,-0.00026819061620597434,0.0
8236,3.1034482758620694,6.206896551724139,0.35714285714285715,0,249131.95538053394,329523.3262756941,136899.09778893218,48174.29371156793,-11375.88661972349,1.660879702536893e-06,0.0,0.0,0.0,1.660879702536893e-06,0.0,24.18656889883139,0.25435703379399005,-0.0003797957225434364,0.0
8237,3.1034482758620694,6.206896551724139,0.7142857142857143,0,125302.51132563525,273600.58015145955,222340.15950921268,130795.30293811762,28761.744865691777,8.35350075504235e-07,0.0,0.0,0.0,8.35350075504235e-07,0.0,24.78823430115692,0.560338410764695,0.0009637095144273432,0.0
8238,3.1034482758620694,6.206896551724139,1.0714285714285714,0,34818.87137504198,205372.91377485145,176240.91216102874,166810.0659810776,20418.070822904534,2.321258091669465e-07,0.0,0.0,0.0,2.321258091669465e-07,0.0,24.212703444493837,0.8707858852325415,0.0006922397211930283,0.0
8239,3.1034482758620694,6.206896551724139,1.4285714285714286,0,137230.16819786903,242054.11801759028,267054.28466707823,119042.71542974161,29621.188765828774,9.148677879857935e-07,0.0,0.0,0.0,9.148677879857935e-07,0.0,24.654369521678614,1.1888815383961318,0.0010428942431743,0.0
8240,3.1034482758620694,6.206896551724139,1.7857142857142858,0,216139.4407753081,460754.05914787384,375391.3310276684,214968.87595930215,-67404.4322905585,1.4409296051687207e-06,0.0,0.0,0.0,1.4409296051687207e-06,0.0,24.140578916959072,1.5143980560314678,-0.0026623064568319817,0.0
8241,3.1034482758620694,6.206896551724139,2.142857142857143,0,273908.7340842329,726373.4267531203,443337.0043701761,462610.4516201004,226181.99867825682,1.8260582272282192e-06,0.0,0.0,0.0,1.8260582272282192e-06,0.0,24.049107787019697,1.839665428161964,0.012124507621205574,0.0
8242,3.1034482758620694,6.206896551724139,2.5,0,538394.594325574,740800.8093317071,834539.5437014386,255431.0136789721,416276.8917884432,3.5892972955038268e-06,0.0,0.0,0.0,3.5892972955038268e-06,0.0,24.79139398252671,2.152519991706198,0.041627689178844324,0.0
8243,3.1034482758620694,6.206896551724139,2.857142857142857,0,267579.1116262382,615233.5093540904,385850.84860714787,321276.2391309738,200504.6571437416,1.7838607441749215e-06,0.0,0.0,0.0,1.7838607441749215e-06,0.0,24.394677009272257,2.446808285304821,0.01074807127814192,0.0
8244,3.1034482758620694,6.206896551724139,3.2142857142857144,0,295889.8094748097,404902.4394568859,445479.92841988575,131395.5408578044,96786.18659551335,1.9725987298320645e-06,0.0,0.0,0.0,1.9725987298320645e-06,0.0,24.553883145674952,2.7286837703171822,0.0038228122506043754,0.0
8245,3.1034482758620694,6.206896551724139,3.5714285714285716,0,220166.2341136304,319176.8941848267,299828.97199083114,89975.22624001611,-13396.550962831083,1.4677748940908694e-06,0.0,0.0,0.0,1.4677748940908694e-06,0.0,23.784915149586254,3.0103101098247036,-0.0004716618900064176,0.0
8246,3.1034482758620694,6.206896551724139,3.928571428571429,0,154611.12630320725,144442.775579933,290894.81286974554,129246.78928832013,-38190.28685895639,1.0307408420213817e-06,0.0,0.0,0.0,1.0307408420213817e-06,0.0,24.74871406730583,3.299357313803971,-0.0012947762673968931,0.0
8247,3.1034482758620694,6.206896551724139,4.285714285714286,0,83415.91614575108,208844.65491596886,196812.3237357502,120065.98379822262,6597.122308000913,5.561061076383405e-07,0.0,0.0,0.0,5.561061076383405e-07,0.0,23.875992861115957,3.596052696478981,0.00022104742134908156,0.0
8248,3.1034482758620694,6.206896551724139,4.642857142857143,0,93177.21241443929,233505.25827262612,144783.1820686038,136434.75414352186,-203.25073140372447,6.211814160962619e-07,0.0,0.0,0.0,6.211814160962619e-07,0.0,25.275849635161553,3.8972141766511332,-6.7857355625469285e-06,0.0
8249,3.1034482758620694,6.206896551724139,5.0,0,205801.05807413106,331400.55288659106,297728.9602069354,110840.0810917674,-24622.856977245818,1.3720070538275404e-06,0.0,0.0,0.0,1.3720070538275404e-06,0.0,24.295755802148115,4.20014964878863,-0.0008211564714574988,0.0
8250,3.4482758620689657,6.206896551724139,0.0,0,81233.64636545327,226846.7887498484,171525.52371200014,133584.52875273873,27579.04695542873,5.415576424363552e-07,0.0,0.0,0.0,5.415576424363552e-07,0.0,24.231322557857343,-0.049844903834056674,0.000919743509252746,0.0
8251,3.4482758620689657,6.206896551724139,0.35714285714285715,0,117962.87724780144,280781.85906515236,145606.24447127496,198671.47200580544,14386.981184264983,7.864191816520097e-07,0.0,0.0,0.0,7.864191816520097e-07,0.0,24.88916578718006,0.2543856306714265,0.0004803242241025041,0.0
8252,3.4482758620689657,6.206896551724139,0.7142857142857143,0,111625.69983495332,284183.47513849696,179986.64716379019,166376.8984645327,14349.004939088805,7.441713322330221e-07,0.0,0.0,0.0,7.441713322330221e-07,0.0,24.42195402323514,0.5604547323631786,0.00048078698448019986,0.0
8253,3.4482758620689657,6.206896551724139,1.0714285714285714,0,216942.7389460082,352799.01652645355,141071.58103011493,130992.33100962784,13735.015956957306,1.4462849263067214e-06,0.0,0.0,0.0,1.4462849263067214e-06,0.0,24.81128970170035,0.871152502317995,0.00046566219204020713,0.0
8254,3.4482758620689657,6.206896551724139,1.4285714285714286,0,213123.6312532038,407689.0901704233,262099.26756034294,163067.56607555482,39557.37659875238,1.420824208354692e-06,0.0,0.0,0.0,1.420824208354692e-06,0.0,24.307825262281053,1.1897768529222248,0.001392724669359244,0.0
8255,3.4482758620689657,6.206896551724139,1.7857142857142858,0,264792.91541463253,460905.3786893707,269906.6892980918,158633.42086063023,41869.04555002265,1.7652861027642169e-06,0.0,0.0,0.0,1.7652861027642169e-06,0.0,24.818773732488047,1.516092195468941,0.0016537225597971735,0.0
8256,3.4482758620689657,6.206896551724139,2.142857142857143,0,321141.7477018116,625126.197323596,443854.797660062,254334.23419401955,174781.47795238474,2.140944984678744e-06,0.0,0.0,0.0,2.140944984678744e-06,0.0,24.42852605871964,1.8421493233457185,0.009369177803109486,0.0
8257,3.4482758620689657,6.206896551724139,2.5,0,310975.9341655634,704917.163700108,726312.9113541496,405191.6200520803,452161.9025562821,2.0731728944370894e-06,0.0,0.0,0.0,2.0731728944370894e-06,0.0,24.90490712911035,2.1553418030155322,0.04521619025562821,0.0
8258,3.4482758620689657,6.206896551724139,2.857142857142857,0,333957.2404112347,657514.8675320084,569746.924907986,288438.5998648299,146176.8358866807,2.226381602741565e-06,0.0,0.0,0.0,2.226381602741565e-06,0.0,25.051589324613456,2.4492921804885754,0.007835823235751398,0.0
8259,3.4482758620689657,6.206896551724139,3.2142857142857144,0,143996.71001995876,425792.5847242037,327840.7308096352,260458.8981090592,-405.1835675430775,9.59978066799725e-07,0.0,0.0,0.0,9.59978066799725e-07,0.0,23.688671317919724,2.7303779097546554,-1.6003737312438604e-05,0.0
8260,3.4482758620689657,6.206896551724139,3.5714285714285716,0,137605.61756418523,361536.9772753602,238971.112341273,212684.00112932714,56791.79148479435,9.173707837612349e-07,0.0,0.0,0.0,9.173707837612349e-07,0.0,24.664581425557124,3.0112054243507966,0.001999508961887881,0.0
8261,3.4482758620689657,6.206896551724139,3.928571428571429,0,171065.98826527133,303636.92042577016,196750.8239594386,106335.9765878914,-30646.959011143517,1.1404399217684755e-06,0.0,0.0,0.0,1.1404399217684755e-06,0.0,25.405237805157984,3.2997239308894244,-0.0010390326561846184,0.0
8262,3.4482758620689657,6.206896551724139,4.285714285714286,0,264174.98957925953,304043.7188617875,166862.69670927967,-501.13205609070576,-31911.855485590066,1.7611665971950635e-06,0.0,0.0,0.0,1.7611665971950635e-06,0.0,24.80404680979734,3.596169018077464,-0.0010692591460672446,0.0
8263,3.4482758620689657,6.206896551724139,4.642857142857143,0,137473.42255314082,339253.7640994025,189563.38294377286,218653.41806795448,18146.8289717163,9.164894836876055e-07,0.0,0.0,0.0,9.164894836876055e-07,0.0,25.71913225609988,3.8972427735285695,0.0006058506252370403,0.0
8264,3.4482758620689657,6.206896551724139,5.0,0,258906.68596700506,371894.5332661879,216261.1813510978,73020.47365640498,23388.448691013178,1.726044573113367e-06,0.0,0.0,0.0,1.726044573113367e-06,0.0,24.04053156572884,4.200155096165943,0.0007799897476448474,0.0
8265,3.793103448275862,6.206896551724139,0.0,0,142128.51611603168,285284.77834245114,187818.10927051702,122202.41054270157,-46380.90939407607,9.475234407735445e-07,0.0,0.0,0.0,9.475234407735445e-07,0.0,24.641277312989576,-0.049839903760423694,-0.0015467735501296634,0.0
8266,3.793103448275862,6.206896551724139,0.35714285714285715,0,164904.88410483045,339618.1342438,218252.6561582383,151866.7667027748,6926.178552771075,1.0993658940322029e-06,0.0,0.0,0.0,1.0993658940322029e-06,0.0,24.76090262784884,0.2544118793567332,0.00023123762356718028,0.0
8267,3.793103448275862,6.206896551724139,0.7142857142857143,0,97008.29964156936,259645.8353203367,148767.70785047463,190417.61512348696,-15312.102060136485,6.467219976104624e-07,0.0,0.0,0.0,6.467219976104624e-07,0.0,24.258375140244326,0.5605615023781827,-0.0005130571357942241,0.0
8268,3.793103448275862,6.206896551724139,1.0714285714285714,0,169274.78143731484,355934.29829684744,166664.9017226065,219029.3590479375,9696.426288228438,1.1284985429154322e-06,0.0,0.0,0.0,1.1284985429154322e-06,0.0,23.908725044369874,0.8714890151601928,0.00032874072621994984,0.0
8269,3.793103448275862,6.206896551724139,1.4285714285714286,0,266344.1228700809,405374.03354366665,184959.65674647293,109418.84740818632,-5917.701791810844,1.7756274858005392e-06,0.0,0.0,0.0,1.7756274858005392e-06,0.0,25.616183129652974,1.1905986499627639,-0.00020834873239865718,0.0
8270,3.793103448275862,6.206896551724139,1.7857142857142858,0,283029.96038158896,575604.9614718223,281159.78522710706,305571.59567393764,-14956.05101921624,1.8868664025439264e-06,0.0,0.0,0.0,1.8868664025439264e-06,0.0,25.09711657685086,1.5176472230434976,-0.0005907266012645475,0.0
8271,3.793103448275862,6.206896551724139,2.142857142857143,0,391105.6462686026,723035.6562675713,679476.8618577095,311974.0990355582,233503.87344335235,2.607370975124017e-06,0.0,0.0,0.0,2.607370975124017e-06,0.0,24.819684369153446,1.8444292569908542,0.012516997416634408,0.0
8272,3.793103448275862,6.206896551724139,2.5,0,79041.04841982863,723408.842189744,705772.5329362799,792142.0110993825,534066.470367768,5.269403227988576e-07,0.0,0.0,0.0,5.269403227988576e-07,0.0,24.569420575502672,2.1579319052817043,0.0534066470367768,0.0
8273,3.793103448275862,6.206896551724139,2.857142857142857,0,145854.63956286767,511748.8723853537,343923.6283927844,440067.0104284115,405606.583798001,9.723642637524512e-07,0.0,0.0,0.0,9.723642637524512e-07,0.0,24.6204122799115,2.4515721141337115,0.021742579627061952,0.0
8274,3.793103448275862,6.206896551724139,3.2142857142857144,0,265505.88683253387,475163.37190175883,377211.49243617663,174597.5915064316,69129.92025968824,1.7700392455502258e-06,0.0,0.0,0.0,1.7700392455502258e-06,0.0,24.868969310414975,2.731932937329212,0.0027304589151391405,0.0
8275,3.793103448275862,6.206896551724139,3.5714285714285716,0,312635.95751625474,436906.6476304406,207947.74984402492,80715.36767506134,-8868.729054807036,2.0842397167750317e-06,0.0,0.0,0.0,2.0842397167750317e-06,0.0,25.280862337854316,3.0120272213913353,-0.0003122476463942863,0.0
8276,3.793103448275862,6.206896551724139,3.928571428571429,0,268807.1048602763,269908.67890164815,162147.91157108452,-36058.93647442393,-33758.718608062285,1.7920473657351752e-06,0.0,0.0,0.0,1.7920473657351752e-06,0.0,24.21097635840059,3.3000604437316223,-0.0011445315358032733,0.0
8277,3.793103448275862,6.206896551724139,4.285714285714286,0,194824.62761061348,323144.1942974529,112512.07520509178,149401.39780868342,-4421.481593252314,1.2988308507374231e-06,0.0,0.0,0.0,1.2988308507374231e-06,0.0,24.62198277499028,3.5962757880924685,-0.00014814900483890156,0.0
8278,3.793103448275862,6.206896551724139,4.642857142857143,0,136752.46400504356,325391.2057914475,248996.42660516858,167510.4226290225,-10535.823890778458,9.116830933669571e-07,0.0,0.0,0.0,9.116830933669571e-07,0.0,24.388901308896504,3.8972690222138766,-0.00035174936081473236,0.0
8279,3.793103448275862,6.206896551724139,5.0,0,130037.12893437072,262552.37227621645,118916.55725921487,152836.9795636097,8511.20450417736,8.669141928958048e-07,0.0,0.0,0.0,8.669141928958048e-07,0.0,24.050180788367335,4.200160096239577,0.00028384320572393657,0.0
8280,4.137931034482759,6.206896551724139,0.0,0,334476.4166467932,364567.82832768577,199014.3553784322,-20398.433095622437,-1720.725056634531,2.2298427776452878e-06,0.0,0.0,0.0,2.2298427776452878e-06,0.0,24.269393055841025,-0.04983558630084781,-5.738507587321271e-05,0.0
8281,4.137931034482759,6.206896551724139,0.35714285714285715,0,94125.51637322716,120732.15674145715,147423.40351348478,42834.720984089014,13843.007374983,6.275034424881811e-07,0.0,0.0,0.0,6.275034424881811e-07,0.0,24.689117641158603,0.2544345445504983,0.00046216309672428686,0.0
8282,4.137931034482759,6.206896551724139,0.7142857142857143,0,92946.07302767881,218755.22900479817,247630.76070003514,143674.14073075898,-10411.925744530663,6.196404868511921e-07,0.0,0.0,0.0,6.196404868511921e-07,0.0,24.436060369405865,0.5606536960652228,-0.00034886867783478126,0.0
8283,4.137931034482759,6.206896551724139,1.0714285714285714,0,48429.00315030054,243698.99155454955,188882.42281809464,225868.08626950323,51179.52336943604,3.228600210020036e-07,0.0,0.0,0.0,3.228600210020036e-07,0.0,24.604086469284272,0.8717795869996491,0.0017351540846017436,0.0
8284,4.137931034482759,6.206896551724139,1.4285714285714286,0,135895.3922244695,289854.67126222054,233361.29616551046,134824.97398669733,24598.583988145587,9.059692814964634e-07,0.0,0.0,0.0,9.059692814964634e-07,0.0,24.957498540514052,1.1913082546131226,0.000866059827452667,0.0
8285,4.137931034482759,6.206896551724139,1.7857142857142858,0,209358.61640107594,530030.6845712806,337636.1251573055,307068.739470897,17216.83840910881,1.3957241093405063e-06,0.0,0.0,0.0,1.3957241093405063e-06,0.0,25.17745442427969,1.5189899570081002,0.0006800220475890527,0.0
8286,4.137931034482759,6.206896551724139,2.142857142857143,0,560005.1259748219,778489.6611498063,559591.7839818696,142098.0969920434,351180.27344796056,3.7333675064988124e-06,0.0,0.0,0.0,3.7333675064988124e-06,0.0,25.931554312941,1.8463979322686783,0.018825052067444534,0.0
8287,4.137931034482759,6.206896551724139,2.5,0,480473.06185953715,933986.7389454704,608288.0234048391,382171.28600223904,399463.52494998934,3.2031537457302478e-06,0.0,0.0,0.0,3.2031537457302478e-06,0.0,24.99500569501275,2.1601684047119956,0.039946352494998935,0.0
8288,4.137931034482759,6.206896551724139,2.857142857142857,0,494221.32162141614,823527.4960830959,508696.94773439993,253903.5258395556,214629.80616622278,3.294808810809441e-06,0.0,0.0,0.0,3.294808810809441e-06,0.0,24.305670467406866,2.453540789411535,0.011505251239299462,0.0
8289,4.137931034482759,6.206896551724139,3.2142857142857144,0,97503.30311606305,402260.695789137,296150.7812917809,316611.12775024236,12533.995576529087,6.500220207737537e-07,0.0,0.0,0.0,6.500220207737537e-07,0.0,25.170217110136463,2.7332756712938147,0.0004950614702821406,0.0
8290,4.137931034482759,6.206896551724139,3.5714285714285716,0,147523.42229315403,262225.98194228054,133495.36876873884,101245.55206180774,50411.830523926306,9.834894819543601e-07,0.0,0.0,0.0,9.834894819543601e-07,0.0,24.464644850877328,3.0127368260416945,0.0017748851424197805,0.0
8291,4.137931034482759,6.206896551724139,3.928571428571429,0,156297.996845159,321978.2742476361,142092.18457015144,219393.63642314638,-5141.526114880621,1.0419866456343935e-06,0.0,0.0,0.0,1.0419866456343935e-06,0.0,24.278733628524048,3.3003510155710782,-0.00017431463702628753,0.0
8292,4.137931034482759,6.206896551724139,4.285714285714286,0,150873.39280302465,253070.26380770103,244308.57618249053,98006.95492910198,-18200.78634535158,1.005822618686831e-06,0.0,0.0,0.0,1.005822618686831e-06,0.0,24.94446680813458,3.5963679817795087,-0.0006098472485929517,0.0
8293,4.137931034482759,6.206896551724139,4.642857142857143,0,137997.99366205858,197985.06783564412,184398.73119409633,53696.427417602725,4736.861779773254,9.199866244137239e-07,0.0,0.0,0.0,9.199866244137239e-07,0.0,25.34466374272381,3.8972916874076415,0.00015814502221903298,0.0
8294,4.137931034482759,6.206896551724139,5.0,0,252949.54251569213,344655.0297698972,163688.14925251796,55622.5724505473,15643.587848791476,1.6863302834379475e-06,0.0,0.0,0.0,1.6863302834379475e-06,0.0,24.339764914208484,4.200164413699152,0.0005217036110277516,0.0
8295,4.482758620689656,6.206896551724139,0.0,0,283057.55383104953,385117.21734561544,126118.42018762854,82958.33862187446,47850.77130515857,1.8870503588736635e-06,0.0,0.0,0.0,1.8870503588736635e-06,0.0,24.782538848556396,-0.049832302691019965,0.0015957925011616115,0.0
8296,4.482758620689656,6.206896551724139,0.35714285714285715,0,271694.36074840225,394954.68119654385,107235.23610769359,142785.37296919772,-45083.79504703297,1.8112957383226816e-06,0.0,0.0,0.0,1.8112957383226816e-06,0.0,24.857748784370084,0.2544517823848519,-0.0015051690551487124,0.0
8297,4.482758620689656,6.206896551724139,0.7142857142857143,0,200903.60422553943,313424.25051789125,168995.8516584187,83991.77481920777,38171.97168406849,1.339357361503596e-06,0.0,0.0,0.0,1.339357361503596e-06,0.0,24.16002636497269,0.5607238132467527,0.0012790146240490665,0.0
8298,4.482758620689656,6.206896551724139,1.0714285714285714,0,247442.15469058702,350232.4167889991,273170.4417780334,73429.08736469978,-64149.95538561145,1.6496143646039134e-06,0.0,0.0,0.0,1.6496143646039134e-06,0.0,23.923321284455064,0.8720005791203549,-0.002174894367633691,0.0
8299,4.482758620689656,6.206896551724139,1.4285714285714286,0,249864.91167729988,460826.8961907787,212905.69299478945,209062.60981846062,37329.41669067324,1.665766077848666e-06,0.0,0.0,0.0,1.665766077848666e-06,0.0,23.942351199512284,1.1918479388331729,0.001314283301575946,0.0
8300,4.482758620689656,6.206896551724139,1.7857142857142858,0,555001.5339307653,451691.7810683478,404217.7847326923,-125521.8357740578,114858.64528886072,3.7000102262051024e-06,0.0,0.0,0.0,3.7000102262051024e-06,0.0,25.287937756724627,1.5200111627344928,0.004536629159004738,0.0
8301,4.482758620689656,6.206896551724139,2.142857142857143,0,620898.6678615034,938245.3202879864,444801.820478016,241079.02315919992,382832.25260592176,4.139324452410023e-06,0.0,0.0,0.0,4.139324452410023e-06,0.0,24.4213218528172,1.847895192723929,0.020521759430406895,0.0
8302,4.482758620689656,6.206896551724139,2.5,0,751457.8838099607,953056.3259624696,747730.2010862752,120276.94541290989,572589.1860687016,5.009719225399738e-06,0.0,0.0,0.0,5.009719225399738e-06,0.0,24.342843683405587,2.161869356714028,0.05725891860687016,0.0
8303,4.482758620689656,6.206896551724139,2.857142857142857,0,638495.8959057679,908002.7732148105,483388.29668785946,173724.34912656483,207781.19747965428,4.256639306038453e-06,0.0,0.0,0.0,4.256639306038453e-06,0.0,24.821944574817017,2.455038049866786,0.011138130917168641,0.0
8304,4.482758620689656,6.206896551724139,3.2142857142857144,0,303668.2387982101,537448.7403555689,235050.92374984385,232525.8272945866,93292.55652771576,2.024454925321401e-06,0.0,0.0,0.0,2.024454925321401e-06,0.0,25.31785943555264,2.734296877020207,0.0036848226025766933,0.0
8305,4.482758620689656,6.206896551724139,3.5714285714285716,0,288118.66691199783,455501.4853419025,233749.47125370702,129842.10042833761,-34067.396981908256,1.920791112746652e-06,0.0,0.0,0.0,1.920791112746652e-06,0.0,24.08983779656059,3.0132765102617443,-0.0011994350555353745,0.0
8306,4.482758620689656,6.206896551724139,3.928571428571429,0,222593.14941236403,325181.20025288325,332058.72836344957,106106.51556712671,-29018.990965882524,1.4839543294157601e-06,0.0,0.0,0.0,1.4839543294157601e-06,0.0,23.732829730599466,3.300572007691784,-0.0009838391878331202,0.0
8307,4.482758620689656,6.206896551724139,4.285714285714286,0,118290.67352881319,212455.09690090147,319640.5550089473,192725.64908103086,-13780.665766236954,7.88604490192088e-07,0.0,0.0,0.0,7.88604490192088e-07,0.0,25.4194456423174,3.5964380989610385,-0.00046174384676874516,0.0
8308,4.482758620689656,6.206896551724139,4.642857142857143,0,233356.96208778262,388616.1509583544,240119.16379117343,119644.89199654374,-11027.070679971643,1.5557130805852174e-06,0.0,0.0,0.0,1.5557130805852174e-06,0.0,24.943289097512995,3.8973089252419952,-0.00036815014217671325,0.0
8309,4.482758620689656,6.206896551724139,5.0,0,36445.177995220896,244042.34791452382,202518.5165209028,229203.2329824642,7247.652936288124,2.4296785330147264e-07,0.0,0.0,0.0,2.4296785330147264e-07,0.0,24.154775632417817,4.20016769730898,0.00024170457217904183,0.0
8310,4.827586206896552,6.206896551724139,0.0,0,198035.0034042147,394283.531402865,239853.17027478426,171015.92790549822,-21924.06956879689,1.320233356028098e-06,0.0,0.0,0.0,1.320233356028098e-06,0.0,24.432518933343893,-0.04983048971069613,-0.0007311536441014455,0.0
8311,4.827586206896552,6.206896551724139,0.35714285714285715,0,218332.30957586423,309643.61907702446,240717.40069999453,65166.51102197557,10396.494347322907,1.4555487305057615e-06,0.0,0.0,0.0,1.4555487305057615e-06,0.0,24.155223459228885,0.2544612999146886,0.00034709770012249225,0.0
8312,4.827586206896552,6.206896551724139,0.7142857142857143,0,158972.04417855848,390745.92885357677,218915.6023403028,248903.44670835193,-43407.74329376173,1.0598136278570565e-06,0.0,0.0,0.0,1.0598136278570565e-06,0.0,24.98111256462491,0.5607625270639056,-0.0014544477536867866,0.0
8313,4.827586206896552,6.206896551724139,1.0714285714285714,0,218394.98445043602,399880.9752321512,256881.49577523975,148493.12892242245,1473.864405119741,1.4559665630029069e-06,0.0,0.0,0.0,1.4559665630029069e-06,0.0,25.17729036044351,0.8721225955557925,4.996884836602217e-05,0.0
8314,4.827586206896552,6.206896551724139,1.4285714285714286,0,124702.71800645381,411329.0058757406,280895.2316699637,293281.81697526213,-5558.379233350313,8.313514533763587e-07,0.0,0.0,0.0,8.313514533763587e-07,0.0,25.00525209337708,1.1921459148179372,-0.00019569780773038572,0.0
8315,4.827586206896552,6.206896551724139,1.7857142857142858,0,357867.5540195713,597727.9798944808,345496.99408013414,188144.9693308872,112155.13388785909,2.3857836934638087e-06,0.0,0.0,0.0,2.3857836934638087e-06,0.0,24.75855241008473,1.520575001310208,0.004429847221757954,0.0
8316,4.827586206896552,6.206896551724139,2.142857142857143,0,503887.75564429344,871781.3867778191,370527.35221987375,365300.5735180564,392761.10390101233,3.3592517042952896e-06,0.0,0.0,0.0,3.3592517042952896e-06,0.0,24.869130033510565,1.848721875517361,0.021053996451481177,0.0
8317,4.827586206896552,6.206896551724139,2.5,0,110244.97620621085,564871.2544033623,575041.6532890641,460063.8834941312,529657.8422308424,7.349665080414056e-07,0.0,0.0,0.0,7.349665080414056e-07,0.0,24.313977101485264,2.162808503772646,0.05296578422308425,0.0
8318,4.827586206896552,6.206896551724139,2.857142857142857,0,476375.7546471249,822860.1534818033,691222.0565573811,294507.41090185,145665.09624611685,3.175838364314166e-06,0.0,0.0,0.0,3.175838364314166e-06,0.0,24.467465524894987,2.455864732660218,0.007808391383489294,0.0
8319,4.827586206896552,6.206896551724139,3.2142857142857144,0,58724.42587744269,421443.62888035027,376369.0270090081,355034.1454797019,-22836.071798959216,3.914961725162846e-07,0.0,0.0,0.0,3.914961725162846e-07,0.0,24.697284185350547,2.7348607155959224,-0.0009019677094374663,0.0
8320,4.827586206896552,6.206896551724139,3.5714285714285716,0,99214.28419626277,391713.3079359649,287868.7055853036,297889.95533526345,47322.194306582576,6.614285613084184e-07,0.0,0.0,0.0,6.614285613084184e-07,0.0,24.560681611200174,3.0135744862465086,0.0016661061244659936,0.0
8321,4.827586206896552,6.206896551724139,3.928571428571429,0,252279.87537950222,251413.54025007744,209691.83498963714,-19126.32632428237,-4463.311739312648,1.681865835863348e-06,0.0,0.0,0.0,1.681865835863348e-06,0.0,24.704036614147405,3.300694024127222,-0.00015132094020133487,0.0
8322,4.827586206896552,6.206896551724139,4.285714285714286,0,77877.86001206479,241371.73669533743,154400.20135435098,178088.87049040187,55337.46793287978,5.191857334137653e-07,0.0,0.0,0.0,5.191857334137653e-07,0.0,23.89970796988737,3.5964768127781914,0.001854172777078195,0.0
8323,4.827586206896552,6.206896551724139,4.642857142857143,0,302692.12351867475,416553.35966797324,205684.8177723317,69720.32076689796,28275.905114736066,2.0179474901244985e-06,0.0,0.0,0.0,2.0179474901244985e-06,0.0,25.15384082010177,3.897318442771832,0.000944020292449246,0.0
8324,4.827586206896552,6.206896551724139,5.0,0,364175.93463652616,382706.04069111217,156220.33312572847,-37379.24752632834,8044.848711207089,2.427839564243508e-06,0.0,0.0,0.0,2.427839564243508e-06,0.0,24.181897631788814,4.200169510289304,0.00026829053944507544,0.0
8325,5.172413793103448,6.206896551724139,0.0,0,167359.36503387056,330205.0178544717,159536.06364421462,166364.2472683539,4248.29760330755,1.1157291002258038e-06,0.0,0.0,0.0,1.1157291002258038e-06,0.0,23.59759819057047,-0.04983048971069613,0.00014167799751495707,0.0
8326,5.172413793103448,6.206896551724139,0.35714285714285715,0,162704.44393577293,342759.0863204126,311084.21868244704,166546.27051735754,-37975.870039675996,1.0846962929051528e-06,0.0,0.0,0.0,1.0846962929051528e-06,0.0,24.29875260045192,0.2544612999146886,-0.0012678636385077616,0.0
8327,5.172413793103448,6.206896551724139,0.7142857142857143,0,126260.50728712024,315157.73905820615,204259.59146280156,177745.7691102833,-20929.70963472206,8.417367152474683e-07,0.0,0.0,0.0,8.417367152474683e-07,0.0,24.553320800349493,0.5607625270639056,-0.0007012843067543896,0.0
8328,5.172413793103448,6.206896551724139,1.0714285714285714,0,206604.92508715534,380570.901719599,188480.06213680844,162004.35280529267,14440.349158362513,1.3773661672477022e-06,0.0,0.0,0.0,1.3773661672477022e-06,0.0,25.674710912085505,0.8721225955557925,0.0004895753062087214,0.0
8329,5.172413793103448,6.206896551724139,1.4285714285714286,0,156411.15888333975,343333.17031363363,406380.0687922533,228284.90649957387,-8709.923034676784,1.042741059222265e-06,0.0,0.0,0.0,1.042741059222265e-06,0.0,24.426187998465316,1.1921459148179372,-0.00030665644998807316,0.0
8330,5.172413793103448,6.206896551724139,1.7857142857142858,0,458256.17471811955,681746.3700819929,490799.6102315867,158893.5067415735,86538.42519645239,3.055041164787464e-06,0.0,0.0,0.0,3.055041164787464e-06,0.0,24.78020835157543,1.520575001310208,0.003418051311098398,0.0
8331,5.172413793103448,6.206896551724139,2.142857142857143,0,367978.2800358649,799956.7088592415,527217.8149976322,381420.4027661447,404522.98969184654,2.453188533572433e-06,0.0,0.0,0.0,2.453188533572433e-06,0.0,24.840423944000484,1.848721875517361,0.02168449346160609,0.0
8332,5.172413793103448,6.206896551724139,2.5,0,328198.92996761703,908179.38142611,778794.5785567105,535008.1035318968,554242.9234901237,2.18799286645078e-06,0.0,0.0,0.0,2.18799286645078e-06,0.0,23.927377196230058,2.162808503772646,0.055424292349012375,0.0
8333,5.172413793103448,6.206896551724139,2.857142857142857,0,288989.38578269625,846266.3808159805,550089.6996611393,565045.04188677,281436.4152892376,1.926595905217975e-06,0.0,0.0,0.0,1.926595905217975e-06,0.0,24.63692363084024,2.455864732660218,0.015086425895957762,0.0
8334,5.172413793103448,6.206896551724139,3.2142857142857144,0,237789.15064772556,501476.45928929327,319313.2091767973,232473.24224065695,8932.212390243185,1.5852610043181704e-06,0.0,0.0,0.0,1.5852610043181704e-06,0.0,24.562063180048145,2.7348607155959224,0.000352800044629558,0.0
8335,5.172413793103448,6.206896551724139,3.5714285714285716,0,245840.42717074614,423112.0277029679,315601.41010168364,141829.5425942246,38136.57682528328,1.6389361811383077e-06,0.0,0.0,0.0,1.6389361811383077e-06,0.0,24.740848816485453,3.0135744862465086,0.0013427015620434556,0.0
8336,5.172413793103448,6.206896551724139,3.928571428571429,0,149001.57203861992,304916.9907534873,216984.7611528683,132878.97927760705,25961.022313387253,9.933438135907994e-07,0.0,0.0,0.0,9.933438135907994e-07,0.0,24.915284489033322,3.300694024127222,0.0008801639980573206,0.0
8337,5.172413793103448,6.206896551724139,4.285714285714286,0,269338.5978743034,362671.9443484347,237126.67423970695,53480.82547053404,72528.0640359344,1.795590652495356e-06,0.0,0.0,0.0,1.795590652495356e-06,0.0,25.133889236832072,3.5964768127781914,0.002430171941960325,0.0
8338,5.172413793103448,6.206896551724139,4.642857142857143,0,197321.10376085583,410933.0358909409,298902.1180805208,183096.67290151122,5846.0349393721035,1.3154740250723722e-06,0.0,0.0,0.0,1.3154740250723722e-06,0.0,24.284993512920018,3.897318442771832,0.0001951759135822831,0.0
8339,5.172413793103448,6.206896551724139,5.0,0,251490.5732163179,282934.7079796424,291562.50482828263,35869.054216784585,-3193.689340110394,1.6766038214421192e-06,0.0,0.0,0.0,1.6766038214421192e-06,0.0,24.959561159314216,4.200169510289304,-0.00010650748903264839,0.0
8340,5.517241379310345,6.206896551724139,0.0,0,155864.0752064878,337074.13860365923,204200.15833255782,165508.70814314272,16174.746478434396,1.0390938347099186e-06,0.0,0.0,0.0,1.0390938347099186e-06,0.0,24.260611601950547,-0.049832302691019965,0.0005394174103039625,0.0
8341,5.517241379310345,6.206896551724139,0.35714285714285715,0,203008.36603373752,378122.2464989418,275978.0176789294,144328.17372387846,-9968.423106772201,1.3533891068915834e-06,0.0,0.0,0.0,1.3533891068915834e-06,0.0,24.1744617169127,0.2544517823848519,-0.0003328060996925846,0.0
8342,5.517241379310345,6.206896551724139,0.7142857142857143,0,247707.67621152024,317013.12123121857,164762.75040159485,31188.242705537086,-30740.97824773377,1.6513845080768016e-06,0.0,0.0,0.0,1.6513845080768016e-06,0.0,25.510597293344905,0.5607238132467527,-0.0010300269805773648,0.0
8343,5.517241379310345,6.206896551724139,1.0714285714285714,0,314940.59824802814,391021.24258502823,282687.63460858725,36212.70419865243,3405.8289201230978,2.0996039883201876e-06,0.0,0.0,0.0,2.0996039883201876e-06,0.0,23.732420559393393,0.8720005791203549,0.00011546879636896974,0.0
8344,5.517241379310345,6.206896551724139,1.4285714285714286,0,318496.5645877972,461981.88194029476,303405.52855039906,95325.96738425527,24262.139691089928,2.1233104305853146e-06,0.0,0.0,0.0,2.1233104305853146e-06,0.0,24.385458315019484,1.1918479388331729,0.0008542143939921119,0.0
8345,5.517241379310345,6.206896551724139,1.7857142857142858,0,456731.00994608103,724662.153128738,462079.3317864661,197276.16802074292,93956.59703357826,3.0448733996405403e-06,0.0,0.0,0.0,3.0448733996405403e-06,0.0,24.759666142847802,1.5200111627344928,0.0037110505413973185,0.0
8346,5.517241379310345,6.206896551724139,2.142857142857143,0,190553.78312810042,775515.342105597,565231.0196751427,614282.8780795927,372020.3179037239,1.270358554187336e-06,0.0,0.0,0.0,1.270358554187336e-06,0.0,24.353514679205933,1.847895192723929,0.0199421846390317,0.0
8347,5.517241379310345,6.206896551724139,2.5,0,667815.6357868528,842548.4383641874,1159622.848106026,392336.4441255333,709583.8654237438,4.452104238579019e-06,0.0,0.0,0.0,4.452104238579019e-06,0.0,24.73315068398266,2.161869356714028,0.07095838654237438,0.0
8348,5.517241379310345,6.206896551724139,2.857142857142857,0,374221.70063271717,828183.3141488679,458654.38799907005,449439.0563056067,378767.08047040395,2.494811337551448e-06,0.0,0.0,0.0,2.494811337551448e-06,0.0,23.991281156394052,2.455038049866786,0.020303845490187846,0.0
8349,5.517241379310345,6.206896551724139,3.2142857142857144,0,125818.0062139167,480337.2563973562,532668.888806361,389130.925672948,78858.12825509423,8.38786708092778e-07,0.0,0.0,0.0,8.38786708092778e-07,0.0,23.74483538152106,2.734296877020207,0.003114698794913362,0.0
8350,5.517241379310345,6.206896551724139,3.5714285714285716,0,236375.4003308009,462738.57500443584,205261.70740079685,255561.77770419797,-47395.94680182316,1.5758360022053394e-06,0.0,0.0,0.0,1.5758360022053394e-06,0.0,24.23500302611584,3.0132765102617443,-0.0016687027809781346,0.0
8351,5.517241379310345,6.206896551724139,3.928571428571429,0,138374.58466650898,274661.1878363768,286546.8117164776,142612.78759114185,9026.725919737137,9.224972311100598e-07,0.0,0.0,0.0,9.224972311100598e-07,0.0,24.75298561395267,3.300572007691784,0.0003060356822229803,0.0
8352,5.517241379310345,6.206896551724139,4.285714285714286,0,363605.010684636,509331.67597801617,283093.453177172,89910.74658933768,-5928.56495556868,2.42403340456424e-06,0.0,0.0,0.0,2.42403340456424e-06,0.0,24.59588211551467,3.5964380989610385,-0.00019864630888222838,0.0
8353,5.517241379310345,6.206896551724139,4.642857142857143,0,235026.2142948048,435906.65204202314,246133.32051036812,173011.40499154833,-38828.158899452144,1.5668414286320322e-06,0.0,0.0,0.0,1.5668414286320322e-06,0.0,25.004470460178712,3.8973089252419952,-0.0012963181822400434,0.0
8354,5.517241379310345,6.206896551724139,5.0,0,221970.90033543267,346983.43611359654,207991.40169791845,90988.11227845178,17335.757213701243,1.4798060022362178e-06,0.0,0.0,0.0,1.4798060022362178e-06,0.0,23.978786102078598,4.20016769730898,0.0005781363729156942,0.0
8355,5.862068965517242,6.206896551724139,0.0,0,155104.45491686487,424328.3225309403,263325.8530924834,275885.6015084462,18737.937357041385,1.0340296994457657e-06,0.0,0.0,0.0,1.0340296994457657e-06,0.0,24.28842982503918,-0.04983558630084781,0.0006248981804474923,0.0
8356,5.862068965517242,6.206896551724139,0.35714285714285715,0,56426.737367593334,243273.69157548924,272483.0572102989,207439.43695999056,15385.6281334558,3.761782491172889e-07,0.0,0.0,0.0,3.761782491172889e-07,0.0,24.54500285847791,0.2544345445504983,0.0005136650837921679,0.0
8357,5.862068965517242,6.206896551724139,0.7142857142857143,0,335404.29815224564,545933.2940823914,383864.03601728217,160273.96166603494,20163.4288950256,2.2360286543483044e-06,0.0,0.0,0.0,2.2360286543483044e-06,0.0,24.101217742141728,0.5606536960652228,0.0006756088116473879,0.0
8358,5.862068965517242,6.206896551724139,1.0714285714285714,0,137732.53253676815,329678.4616985428,196445.5719333105,187848.9971145745,4871.5042774636495,9.182168835784544e-07,0.0,0.0,0.0,9.182168835784544e-07,0.0,24.6594326798896,0.8717795869996491,0.0001651600090954317,0.0
8359,5.862068965517242,6.206896551724139,1.4285714285714286,0,209494.24074584377,423930.0373144426,255781.54316789415,189249.018006771,-5257.439499498449,1.3966282716389585e-06,0.0,0.0,0.0,1.3966282716389585e-06,0.0,24.454563867558537,1.1913082546131226,-0.0001851024086578619,0.0
8360,5.862068965517242,6.206896551724139,1.7857142857142858,0,238313.33081039053,391290.91601815476,471024.5609539966,203067.508443497,175691.98480775824,1.588755538735937e-06,0.0,0.0,0.0,1.588755538735937e-06,0.0,24.84333320678158,1.5189899570081002,0.006939393889574225,0.0
8361,5.862068965517242,6.206896551724139,2.142857142857143,0,496654.69820599287,1011618.6865186209,598152.5249072603,460719.67312829033,361390.9341429804,3.311031321373286e-06,0.0,0.0,0.0,3.311031321373286e-06,0.0,24.749034741452277,1.8463979322686783,0.019372395508291992,0.0
8362,5.862068965517242,6.206896551724139,2.5,0,420347.37775900157,844757.9961448194,737646.735050229,381217.85211083945,350106.3599200114,2.802315851726677e-06,0.0,0.0,0.0,2.802315851726677e-06,0.0,23.682664430959793,2.1601684047119956,0.03501063599200114,0.0
8363,5.862068965517242,6.206896551724139,2.857142857142857,0,186269.07709470025,940696.3241108134,842728.982972395,725887.5374270272,123901.0888154404,1.2417938472980016e-06,0.0,0.0,0.0,1.2417938472980016e-06,0.0,25.350398783291624,2.453540789411535,0.006641729688468299,0.0
8364,5.862068965517242,6.206896551724139,3.2142857142857144,0,436161.65220600227,554531.7888968609,84595.38769886737,162697.97391128633,140527.63487406255,2.907744348040015e-06,0.0,0.0,0.0,2.907744348040015e-06,0.0,23.532702659130408,2.7332756712938147,0.005550490034183535,0.0
8365,5.862068965517242,6.206896551724139,3.5714285714285716,0,109780.6278010284,340764.6846541672,252129.4785168144,217963.73038837602,-74208.17031677048,7.31870852006856e-07,0.0,0.0,0.0,7.31870852006856e-07,0.0,23.847641414464544,3.0127368260416945,-0.0026126997883736884,0.0
8366,5.862068965517242,6.206896551724139,3.928571428571429,0,205466.2144937586,313668.6991092573,131401.63494728602,91004.16958003856,-20107.895492773012,1.369774763291724e-06,0.0,0.0,0.0,1.369774763291724e-06,0.0,24.590850676212636,3.3003510155710782,-0.0006817237578626271,0.0
8367,5.862068965517242,6.206896551724139,4.285714285714286,0,261092.3263338727,379209.10606916907,167202.99091384478,87573.99785640235,-44107.33184778104,1.7406155088924848e-06,0.0,0.0,0.0,1.7406155088924848e-06,0.0,24.781040284645222,3.5963679817795087,-0.0014778886175440102,0.0
8368,5.862068965517242,6.206896551724139,4.642857142857143,0,359659.2829557014,268974.762024124,427105.31452502526,15472.98324577435,-10943.101758103752,2.3977285530380094e-06,0.0,0.0,0.0,2.3977285530380094e-06,0.0,24.496653746315268,3.8972916874076415,-0.00036534675300643824,0.0
8369,5.862068965517242,6.206896551724139,5.0,0,127873.99773436307,307444.7464799601,296378.36893448624,174397.2025836385,13961.682076470077,8.524933182290872e-07,0.0,0.0,0.0,8.524933182290872e-07,0.0,24.371530637478084,4.200164413699152,0.00046561313336304633,0.0
8370,6.206896551724139,6.206896551724139,0.0,0,281566.8617851377,426347.99605796114,335126.9941160195,110480.31338951533,-25018.65994881593,1.8771124119009178e-06,0.0,0.0,0.0,1.8771124119009178e-06,0.0,24.471230506267432,-0.049839903760423694,-0.0008343562464400386,0.0
8371,6.206896551724139,6.206896551724139,0.35714285714285715,0,328356.9564502183,572450.4996205746,257478.81515435912,232172.64624464742,-30706.723325969288,2.1890463763347883e-06,0.0,0.0,0.0,2.1890463763347883e-06,0.0,24.780672912153832,0.2544118793567332,-0.0010251756687085696,0.0
8372,6.206896551724139,6.206896551724139,0.7142857142857143,0,201852.00440789794,413767.48892290186,321695.801454068,182296.1174208344,27549.580234379573,1.3456800293859863e-06,0.0,0.0,0.0,1.3456800293859863e-06,0.0,23.948548546878097,0.5605615023781827,0.0009230939469886189,0.0
8373,6.206896551724139,6.206896551724139,1.0714285714285714,0,169019.65737537527,317734.693320222,134902.74083768707,167183.2586563016,102660.99152751852,1.1267977158358352e-06,0.0,0.0,0.0,1.1267977158358352e-06,0.0,23.96939839511197,0.8714890151601928,0.003480545090121296,0.0
8374,6.206896551724139,6.206896551724139,1.4285714285714286,0,361480.76197111217,418996.3140363945,410441.8663298607,53314.25161072695,30122.0364941656,2.409871746474081e-06,0.0,0.0,0.0,2.409871746474081e-06,0.0,24.09850481004896,1.1905986499627639,0.0010605279450732585,0.0
8375,6.206896551724139,6.206896551724139,1.7857142857142858,0,310989.25018409104,651858.2109878522,347222.6399866522,334882.6276438376,9026.215383377566,2.0732616678939405e-06,0.0,0.0,0.0,2.0732616678939405e-06,0.0,25.196056167511106,1.5176472230434976,0.0003565129277008728,0.0
8376,6.206896551724139,6.206896551724139,2.142857142857143,0,550694.803409164,892657.6292636881,569826.0010050557,256795.22030122546,445577.6652008104,3.6712986893944265e-06,0.0,0.0,0.0,3.6712986893944265e-06,0.0,24.72721549937039,1.8444292569908542,0.023885233259659727,0.0
8377,6.206896551724139,6.206896551724139,2.5,0,1058035.9407220478,1333189.178350431,904552.1683789203,128091.79433989478,848523.5709741742,7.053572938146985e-06,0.0,0.0,0.0,7.053572938146985e-06,0.0,24.83167446828663,2.1579319052817043,0.08485235709741742,0.0
8378,6.206896551724139,6.206896551724139,2.857142857142857,0,463278.08271838515,1001471.3149786234,732550.336155262,466526.4784461884,464024.10241486336,3.088520551455901e-06,0.0,0.0,0.0,3.088520551455901e-06,0.0,25.345734750302753,2.4515721141337115,0.024874056286659424,0.0
8379,6.206896551724139,6.206896551724139,3.2142857142857144,0,580599.1727009818,765380.8929343389,464398.8229085794,96090.52823480546,-31762.87158172793,3.870661151339879e-06,0.0,0.0,0.0,3.870661151339879e-06,0.0,24.948657269139918,2.731932937329212,-0.001254553969611939,0.0
8380,6.206896551724139,6.206896551724139,3.5714285714285716,0,374404.7400597306,423759.80180506094,193260.71653140974,-8241.280915158693,29580.443474264317,2.496031600398204e-06,0.0,0.0,0.0,2.496031600398204e-06,0.0,24.637906917588,3.0120272213913353,0.0010414596947385516,0.0
8381,6.206896551724139,6.206896551724139,3.928571428571429,0,224828.84682160354,492275.20753545285,280151.6021425771,256595.91994797983,-17612.701492656644,1.4988589788106902e-06,0.0,0.0,0.0,1.4988589788106902e-06,0.0,25.343579574951878,3.3000604437316223,-0.0005971284788108248,0.0
8382,6.206896551724139,6.206896551724139,4.285714285714286,0,243534.53201959323,365115.23379143974,336943.011098067,108719.7897986736,1988.7575699647052,1.623563546797288e-06,0.0,0.0,0.0,1.623563546797288e-06,0.0,24.08332384371171,3.5962757880924685,6.663658971367109e-05,0.0
8383,6.206896551724139,6.206896551724139,4.642857142857143,0,253783.29663090614,303360.79940317076,223447.3845938671,19239.503556649222,-14086.246881361436,1.691888644206041e-06,0.0,0.0,0.0,1.691888644206041e-06,0.0,24.441235943093055,3.8972690222138766,-0.0004702838988353009,0.0
8384,6.206896551724139,6.206896551724139,5.0,0,403832.22646436625,540329.939156156,362482.7237225345,78099.16153358591,27958.173812757104,2.692214843095775e-06,0.0,0.0,0.0,2.692214843095775e-06,0.0,25.15675727989021,4.200160096239577,0.0009323871465319714,0.0
8385,6.551724137931035,6.206896551724139,0.0,0,131870.43174776807,247725.65258440506,204991.1946579359,99787.75028551629,-13769.115115847577,8.791362116517871e-07,0.0,0.0,0.0,8.791362116517871e-07,0.0,23.34135664751747,-0.049844903834056674,-0.00045919114886099624,0.0
8386,6.551724137931035,6.206896551724139,0.35714285714285715,0,77030.06149660453,332543.39876835357,273646.528266323,245371.49031993828,55322.95543293318,5.135337433106968e-07,0.0,0.0,0.0,5.135337433106968e-07,0.0,24.044688442772184,0.2543856306714265,0.0018470139984921813,0.0
8387,6.551724137931035,6.206896551724139,0.7142857142857143,0,344828.9653984215,342350.64851508563,394205.0524444869,26385.534139405976,-110.80977027678614,2.29885976932281e-06,0.0,0.0,0.0,2.29885976932281e-06,0.0,24.842599315094283,0.5604547323631786,-3.7128634026174384e-06,0.0
8388,6.551724137931035,6.206896551724139,1.0714285714285714,0,489063.507228073,605595.412705022,227339.05904243496,53321.65585431486,-8754.049823703217,3.2604233815204867e-06,0.0,0.0,0.0,3.2604233815204867e-06,0.0,24.505838675456168,0.871152502317995,-0.0002967910661996692,0.0
8389,6.551724137931035,6.206896551724139,1.4285714285714286,0,312235.79803716904,638017.8952073572,426852.4267009854,279357.9943453064,32687.686523270095,2.08157198691446e-06,0.0,0.0,0.0,2.08157198691446e-06,0.0,24.71418603706089,1.1897768529222248,0.0011508586089269577,0.0
8390,6.551724137931035,6.206896551724139,1.7857142857142858,0,607034.4072745662,871932.7053220075,735075.6490219324,208152.70012597955,94698.32480197227,4.046896048497109e-06,0.0,0.0,0.0,4.046896048497109e-06,0.0,23.50380204485549,1.516092195468941,0.003740346932745808,0.0
8391,6.551724137931035,6.206896551724139,2.142857142857143,0,422924.3575769728,928883.8133618196,730290.0274789006,443212.2403643138,434869.25096978754,2.8194957171798186e-06,0.0,0.0,0.0,2.8194957171798186e-06,0.0,24.046259089475516,1.8421493233457185,0.023311207693019687,0.0
8392,6.551724137931035,6.206896551724139,2.5,0,1249429.1637122035,1738231.357944366,695880.4780188181,353226.2371570656,659693.2301958753,8.329527758081356e-06,0.0,0.0,0.0,8.329527758081356e-06,0.0,24.796075399500562,2.1553418030155322,0.06596932301958752,0.0
8393,6.551724137931035,6.206896551724139,2.857142857142857,0,455040.9971482658,1067939.7628561778,542540.9276330096,799822.1310284804,507885.2817493767,3.033606647655105e-06,0.0,0.0,0.0,3.033606647655105e-06,0.0,24.02523359406727,2.4492921804885754,0.02722523899007539,0.0
8394,6.551724137931035,6.206896551724139,3.2142857142857144,0,643085.4654351866,802560.6852445791,645108.8063283447,95371.86285438205,137198.07167993934,4.287236436234578e-06,0.0,0.0,0.0,4.287236436234578e-06,0.0,24.893375410753304,2.7303779097546554,0.005418980617236989,0.0
8395,6.551724137931035,6.206896551724139,3.5714285714285716,0,254816.43402752798,485501.2276757405,447727.2749417377,213906.39345377943,5315.750985904544,1.6987762268501865e-06,0.0,0.0,0.0,1.6987762268501865e-06,0.0,24.629414801602575,3.0112054243507966,0.0001871554225988151,0.0
8396,6.551724137931035,6.206896551724139,3.928571428571429,0,116707.46784914553,399293.8255073385,399195.07700745674,282537.0147406543,33435.68888982636,7.780497856609702e-07,0.0,0.0,0.0,7.780497856609702e-07,0.0,23.904406136828246,3.2997239308894244,0.0011335797664599203,0.0
8397,6.551724137931035,6.206896551724139,4.285714285714286,0,212887.18780906993,371728.10509549506,271436.67943469674,127218.8741156046,-10289.586698308123,1.419247918727133e-06,0.0,0.0,0.0,1.419247918727133e-06,0.0,24.667906541813675,3.596169018077464,-0.0003447695071001412,0.0
8398,6.551724137931035,6.206896551724139,4.642857142857143,0,267270.8133661218,373833.5894520752,354124.6701419483,97253.88436248507,22251.516013393528,1.7818054224408118e-06,0.0,0.0,0.0,1.7818054224408118e-06,0.0,24.874365888381828,3.8972427735285695,0.00074288984098534,0.0
8399,6.551724137931035,6.206896551724139,5.0,0,200411.2773583882,437592.9183970819,269270.8730430485,215898.45659235033,32196.992711387484,1.3360751823892548e-06,0.0,0.0,0.0,1.3360751823892548e-06,0.0,24.68537470582992,4.200155096165943,0.0010737490353316039,0.0
8400,6.8965517241379315,6.206896551724139,0.0,0,207499.73418455478,431901.13909029204,210586.8080729438,241738.53445058363,10047.403227672201,1.3833315612303652e-06,0.0,0.0,0.0,1.3833315612303652e-06,0.0,24.626233523182414,-0.049850351211370436,0.00033507444685928746,0.0
8401,6.8965517241379315,6.206896551724139,0.35714285714285715,0,290443.24968080973,399899.02361379564,372183.38046686834,96591.44192838561,-33004.62510569277,1.9362883312053984e-06,0.0,0.0,0.0,1.9362883312053984e-06,0.0,23.498084561297674,0.25435703379399005,-0.0011018934926407093,0.0
8402,6.8965517241379315,6.206896551724139,0.7142857142857143,0,213421.67517282208,525600.8451447855,414525.94078357087,279549.38914967154,-48175.4038342559,1.422811167818814e-06,0.0,0.0,0.0,1.422811167818814e-06,0.0,25.49470706738929,0.560338410764695,-0.0016141960528908007,0.0
8403,6.8965517241379315,6.206896551724139,1.0714285714285714,0,36389.20098455632,169138.74421225238,206252.50296892173,170633.9521745667,12473.943191229677,2.425946732303755e-07,0.0,0.0,0.0,2.425946732303755e-07,0.0,25.782326339724328,0.8707858852325415,0.0004229076797592455,0.0
8404,6.8965517241379315,6.206896551724139,1.4285714285714286,0,292480.6094006752,532649.1077125233,237866.9187051876,242525.7370467242,-28912.85919535164,1.949870729337835e-06,0.0,0.0,0.0,1.949870729337835e-06,0.0,25.09101099925212,1.1888815383961318,-0.0010179555806121509,0.0
8405,6.8965517241379315,6.206896551724139,1.7857142857142858,0,305219.0734530981,791793.9392594894,490217.6165110777,483058.0841138104,145936.8620017834,2.034793823020654e-06,0.0,0.0,0.0,2.034793823020654e-06,0.0,24.439163504016694,1.5143980560314678,0.0057641409740286165,0.0
8406,6.8965517241379315,6.206896551724139,2.142857142857143,0,600249.7478177369,1261184.8381876582,914272.9434072715,568076.2542216766,232136.3364476033,4.001664985451579e-06,0.0,0.0,0.0,4.001664985451579e-06,0.0,24.18365929065858,1.839665428161964,0.012443690465488282,0.0
8407,6.8965517241379315,6.206896551724139,2.5,0,668800.686016418,1191387.598505514,571218.8516898571,482759.12249315,855463.9883692402,4.458671240109454e-06,0.0,0.0,0.0,4.458671240109454e-06,0.0,24.19895097727216,2.152519991706198,0.08554639883692403,0.0
8408,6.8965517241379315,6.206896551724139,2.857142857142857,0,695727.0013919742,1068519.5222827627,764679.3774223375,272552.141617926,392142.8536144856,4.638180009279828e-06,0.0,0.0,0.0,4.638180009279828e-06,0.0,24.787549961561098,2.446808285304821,0.02102085508587909,0.0
8409,6.8965517241379315,6.206896551724139,3.2142857142857144,0,370704.48548526055,828935.684855425,402918.4301348423,652035.0838763327,13785.000286037233,2.471363236568404e-06,0.0,0.0,0.0,2.471363236568404e-06,0.0,24.9348329551895,2.7286837703171822,0.0005444730267995786,0.0
8410,6.8965517241379315,6.206896551724139,3.5714285714285716,0,443347.949492068,627510.843267767,406100.48282182054,117067.63191162994,-15740.238212202126,2.9556529966137864e-06,0.0,0.0,0.0,2.9556529966137864e-06,0.0,24.080253178488082,3.0103101098247036,-0.000554177752536207,0.0
8411,6.8965517241379315,6.206896551724139,3.928571428571429,0,184212.70320074778,390932.0750555586,224779.40219907518,192837.10101796422,-8200.818178763971,1.2280846880049853e-06,0.0,0.0,0.0,1.2280846880049853e-06,0.0,24.399040009628102,3.299357313803971,-0.0002780346947985916,0.0
8412,6.8965517241379315,6.206896551724139,4.285714285714286,0,195253.15780286855,425273.3266017525,344919.7314203693,202664.97900377275,19506.211307306727,1.3016877186857904e-06,0.0,0.0,0.0,1.3016877186857904e-06,0.0,25.043001699543122,3.596052696478981,0.0006535876566273678,0.0
8413,6.8965517241379315,6.206896551724139,4.642857142857143,0,305076.3092907039,537534.4305070597,268968.2869626186,205828.65386863786,-49307.94213507816,2.0338420619380262e-06,0.0,0.0,0.0,2.0338420619380262e-06,0.0,24.367994608799755,3.8972141766511332,-0.0016461965679099879,0.0
8414,6.8965517241379315,6.206896551724139,5.0,0,115431.97941582136,231430.91900625257,206234.5298572757,332183.50013376185,-38589.33261811197,7.69546529438809e-07,0.0,0.0,0.0,7.69546529438809e-07,0.0,24.479967183004344,4.20014964878863,-0.0012869294671155186,0.0
8415,7.241379310344828,6.206896551724139,0.0,0,164884.86866762975,355902.2342140641,294275.85266910173,169080.51246074983,-13388.079264867249,1.0992324577841982e-06,0.0,0.0,0.0,1.0992324577841982e-06,0.0,24.96096586107164,-0.049856097368700156,-0.0004464838478691189,0.0
8416,7.241379310344828,6.206896551724139,0.35714285714285715,0,391625.95007534005,534029.6343256374,129011.70744682367,157333.28916039006,-1268.8875995957653,2.6108396671689336e-06,0.0,0.0,0.0,2.6108396671689336e-06,0.0,24.885171812304115,0.2543268684231292,-4.2363122877766e-05,0.0
8417,7.241379310344828,6.206896551724139,0.7142857142857143,0,239850.29730172138,504804.46142274135,243672.21364377462,294328.21931815095,29688.78529845227,1.5990019820114759e-06,0.0,0.0,0.0,1.5990019820114759e-06,0.0,24.684586860534623,0.5602157091108106,0.000994771527162732,0.0
8418,7.241379310344828,6.206896551724139,1.0714285714285714,0,270728.15093739715,471414.0467660473,327573.1489461984,159127.04694737657,11764.856460781786,1.8048543395826476e-06,0.0,0.0,0.0,1.8048543395826476e-06,0.0,23.752328240325017,0.8703991597807431,0.00039886730861721334,0.0
8419,7.241379310344828,6.206896551724139,1.4285714285714286,0,243947.17208946453,451504.33307984174,171443.8787637489,285304.8641168718,-13083.81722778425,1.6263144805964302e-06,0.0,0.0,0.0,1.6263144805964302e-06,0.0,23.763231914333677,1.187937117286633,-0.0004606512511524163,0.0
8420,7.241379310344828,6.206896551724139,1.7857142857142858,0,395272.20399011526,585209.6496785389,131995.07517081694,311831.3528403026,91644.04295316675,2.635148026600768e-06,0.0,0.0,0.0,2.635148026600768e-06,0.0,23.928477633861977,1.5126109957296925,0.003619710440296651,0.0
8421,7.241379310344828,6.206896551724139,2.142857142857143,0,592941.9540671133,928229.0108399387,244360.53833351596,614984.4090689927,414459.4837202464,3.952946360447423e-06,0.0,0.0,0.0,3.952946360447423e-06,0.0,24.040120005308466,1.8370452952623488,0.022217140172128683,0.0
8422,7.241379310344828,6.206896551724139,2.5,0,821438.0296853341,1622116.1476531713,1195808.3912875536,675166.1743184404,683511.2077864219,5.47625353123556e-06,0.0,0.0,0.0,5.47625353123556e-06,0.0,24.413798306990813,2.149543408516839,0.06835112077864218,0.0
8423,7.241379310344828,6.206896551724139,2.857142857142857,0,514290.03172788274,920391.1935874992,720731.9117983133,336210.0634506036,409277.90649743733,3.428600211519218e-06,0.0,0.0,0.0,3.428600211519218e-06,0.0,24.26398544073926,2.444188152405206,0.02193938123067914,0.0
8424,7.241379310344828,6.206896551724139,3.2142857142857144,0,610514.5586834057,724932.0956420306,421698.2390781338,22166.41471753721,-78026.94692220751,4.070097057889372e-06,0.0,0.0,0.0,4.070097057889372e-06,0.0,24.234495325028817,2.726896710015407,-0.0030818692115440727,0.0
8425,7.241379310344828,6.206896551724139,3.5714285714285716,0,399117.8823843174,421236.999759765,440964.3726142454,32348.623986523213,52536.15994118347,2.660785882562116e-06,0.0,0.0,0.0,2.660785882562116e-06,0.0,24.191056369322574,3.0093656887152047,0.0018496779178677081,0.0
8426,7.241379310344828,6.206896551724139,3.928571428571429,0,420214.3150182487,498758.36602575413,264246.3340818339,13625.807309619828,23660.960749745915,2.8014287667883246e-06,0.0,0.0,0.0,2.8014287667883246e-06,0.0,23.886054879127258,3.2989705883521725,0.000802184350060616,0.0
8427,7.241379310344828,6.206896551724139,4.285714285714286,0,189425.8376336252,369644.1349754174,312240.38844050776,158156.16985188777,62064.33077818298,1.2628389175575012e-06,0.0,0.0,0.0,1.2628389175575012e-06,0.0,24.098872019837383,3.5959299948250965,0.0020795673682804617,0.0
8428,7.241379310344828,6.206896551724139,4.642857142857143,0,389817.24873445707,404902.03445004055,291200.990406507,-29124.23155383784,-33489.13188733408,2.598781658229714e-06,0.0,0.0,0.0,2.598781658229714e-06,0.0,25.551006719421167,3.8971840112802725,-0.0011180692518902443,0.0
8429,7.241379310344828,6.206896551724139,5.0,0,111962.97056534575,273873.5869236095,250123.25408267617,151940.9444041738,23596.138252936118,7.464198037689717e-07,0.0,0.0,0.0,7.464198037689717e-07,0.0,24.68856503208926,4.2001439026313,0.0007869160611910293,0.0
8430,7.586206896551724,6.206896551724139,0.0,0,126369.81254564374,285547.0878688295,319907.029655912,179910.62939271206,-80310.23965774788,8.424654169709583e-07,0.0,0.0,0.0,8.424654169709583e-07,0.0,24.19460588062395,-0.04986204889988007,-0.002678294930608773,0.0
8431,7.586206896551724,6.206896551724139,0.35714285714285715,0,159743.83357707376,422310.32233517175,360375.4187168395,240873.12887925206,-74450.10907244725,1.0649588905138251e-06,0.0,0.0,0.0,1.0649588905138251e-06,0.0,23.439101098347585,0.2542956249094329,-0.0024855937751333745,0.0
8432,7.586206896551724,6.206896551724139,0.7142857142857143,0,87852.85538318731,310898.5991009597,280463.11969940714,211875.21881330243,-10017.212384840665,5.856857025545821e-07,0.0,0.0,0.0,5.856857025545821e-07,0.0,23.698831961390013,0.5600886219676963,-0.0003356431582433542,0.0
8433,7.586206896551724,6.206896551724139,1.0714285714285714,0,360513.1843968308,619292.0794220255,264923.42105557636,252933.50093510878,-24939.50157593256,2.4034212293122053e-06,0.0,0.0,0.0,2.4034212293122053e-06,0.0,24.177649238817178,0.8699986123448872,-0.0008455310870138697,0.0
8434,7.586206896551724,6.206896551724139,1.4285714285714286,0,67038.2435476189,297641.8138275804,319825.66815309325,244507.31688469177,59409.287347725825,4.4692162365079266e-07,0.0,0.0,0.0,4.4692162365079266e-07,0.0,24.883317084013544,1.186958941549767,0.0020916649988573653,0.0
8435,7.586206896551724,6.206896551724139,1.7857142857142858,0,404961.28911786905,609385.6218738382,174420.3320015015,243250.55301289188,161908.26496189088,2.6997419274524603e-06,0.0,0.0,0.0,2.6997419274524603e-06,0.0,24.32278419852753,1.5107600639684984,0.006394971436958212,0.0
8436,7.586206896551724,6.206896551724139,2.142857142857143,0,585619.2173007714,1078473.6249000449,813269.5271819952,407169.47136058117,543379.5312043839,3.904128115338476e-06,0.0,0.0,0.0,3.904128115338476e-06,0.0,24.320769152182997,1.8343315159916496,0.029127911618936447,0.0
8437,7.586206896551724,6.206896551724139,2.5,0,778715.757939768,1172370.975414693,579471.0822661052,290472.03943824593,805366.2164431085,5.1914383862651206e-06,0.0,0.0,0.0,5.1914383862651206e-06,0.0,24.772730183585587,2.1464604390392297,0.08053662164431084,0.0
8438,7.586206896551724,6.206896551724139,2.857142857142857,0,386131.4740979242,837517.8194994606,887793.1612940626,478986.6125937622,474305.1297772991,2.5742098273194945e-06,0.0,0.0,0.0,2.5742098273194945e-06,0.0,23.73682401426334,2.4414743731345068,0.025425171739428026,0.0
8439,7.586206896551724,6.206896551724139,3.2142857142857144,0,486808.61681929854,586496.0640868192,494722.2033041377,60332.340307228835,-16565.18813241528,3.2453907787953234e-06,0.0,0.0,0.0,3.2453907787953234e-06,0.0,24.930285567297616,2.725045778254213,-0.0006542834918252567,0.0
8440,7.586206896551724,6.206896551724139,3.5714285714285716,0,83029.29783640744,406111.4101507018,365166.997454494,310562.3724834165,77254.87622086251,5.535286522427163e-07,0.0,0.0,0.0,5.535286522427163e-07,0.0,24.040224871904023,3.0083875129783384,0.0027199673282803983,0.0
8441,7.586206896551724,6.206896551724139,3.928571428571429,0,300026.80045025545,410817.7803702336,366108.2149119789,90945.14598205386,54837.891405419,2.0001786696683695e-06,0.0,0.0,0.0,2.0001786696683695e-06,0.0,24.81572284262028,3.2985700409163163,0.001859184787169856,0.0
8442,7.586206896551724,6.206896551724139,4.285714285714286,0,389391.783405503,588146.2435971164,217720.9175069565,182219.35507717676,-58366.872316074965,2.5959452227033536e-06,0.0,0.0,0.0,2.5959452227033536e-06,0.0,25.07646487133266,3.595802907681982,-0.00195567794794895,0.0
8443,7.586206896551724,6.206896551724139,4.642857142857143,0,201822.89850640364,428235.87996262586,326303.9527990011,195776.4067721825,19735.878961849645,1.345485990042691e-06,0.0,0.0,0.0,1.345485990042691e-06,0.0,23.792507007907062,3.8971527677665763,0.0006589027001508288,0.0
8444,7.586206896551724,6.206896551724139,5.0,0,233366.00658493926,521317.1529900664,317670.5631990482,266668.00007547566,-23048.352164467156,1.5557733772329284e-06,0.0,0.0,0.0,1.5557733772329284e-06,0.0,24.25089033687736,4.20013795110012,-0.0007686477468383789,0.0
8445,7.931034482758621,6.206896551724139,0.0,0,386554.757639225,471897.73063193593,284084.0968580736,27321.39713426041,79247.5926455947,2.5770317175948334e-06,0.0,0.0,0.0,2.5770317175948334e-06,0.0,24.488902591004678,-0.04986814590960637,0.0026428563350099385,0.0
8446,7.931034482758621,6.206896551724139,0.35714285714285715,0,348456.90397642116,524006.0461235053,220424.65017670946,143521.30372594905,-41783.05234549662,2.3230460265094746e-06,0.0,0.0,0.0,2.3230460265094746e-06,0.0,23.955739887093788,0.2542636176828669,-0.0013949703514198558,0.0
8447,7.931034482758621,6.206896551724139,0.7142857142857143,0,150189.65600537093,189162.3241652034,352114.65335240687,219239.6893529765,3986.578905333575,1.0012643733691396e-06,0.0,0.0,0.0,1.0012643733691396e-06,0.0,23.974409425342714,0.5599584283210141,0.0001335768757780789,0.0
8448,7.931034482758621,6.206896551724139,1.0714285714285714,0,72468.15599955816,415945.849204074,372355.19945170754,332291.61167497403,8520.72995613036,4.831210399970544e-07,0.0,0.0,0.0,4.831210399970544e-07,0.0,23.909352067017206,0.8695882739733939,0.00028888075569686466,0.0
8449,7.931034482758621,6.206896551724139,1.4285714285714286,0,391136.059495212,649275.086877184,371994.8299737489,201888.84689348974,3723.695127485538,2.60757372996808e-06,0.0,0.0,0.0,2.60757372996808e-06,0.0,23.182988945182373,1.1859568553972437,0.00013110278059707048,0.0
8450,7.931034482758621,6.206896551724139,1.7857142857142858,0,392640.73085272976,653009.4722315214,358292.88264853443,207283.3802617874,236069.40299078845,2.617604872351532e-06,0.0,0.0,0.0,2.617604872351532e-06,0.0,24.64676271436281,1.5088638882433667,0.009324150867907855,0.0
8451,7.931034482758621,6.206896551724139,2.142857142857143,0,740236.3222001294,1477480.6336500237,649449.7470549253,879825.7315268309,596747.5988310403,4.93490881466753e-06,0.0,0.0,0.0,4.93490881466753e-06,0.0,23.61791569187213,1.8315514014113343,0.031988711976390416,0.0
8452,7.931034482758621,6.206896551724139,2.5,0,876030.3529984987,1666818.6235754744,884237.9098359316,720456.425196106,531159.2828784708,5.840202353323325e-06,0.0,0.0,0.0,5.840202353323325e-06,0.0,22.982858357472217,2.143302109808879,0.053115928287847086,0.0
8453,7.931034482758621,6.206896551724139,2.857142857142857,0,224963.27825542956,989914.7038834125,915111.8874519828,737079.1281039749,465229.0101730396,1.4997551883695303e-06,0.0,0.0,0.0,1.4997551883695303e-06,0.0,24.655669636156308,2.4386942585541913,0.02493864548200754,0.0
8454,7.931034482758621,6.206896551724139,3.2142857142857144,0,485325.73526225984,663121.417241672,282616.28588794946,116564.27249239993,76829.99585986185,3.235504901748399e-06,0.0,0.0,0.0,3.235504901748399e-06,0.0,24.37936645520165,2.7231496025290816,0.003034592638869176,0.0
8455,7.931034482758621,6.206896551724139,3.5714285714285716,0,134658.61161302304,410371.14940193226,302260.7147144345,259532.45146718997,49412.19144248741,8.977240774201535e-07,0.0,0.0,0.0,8.977240774201535e-07,0.0,23.482655415045862,3.0073854268258153,0.0017396901388861165,0.0
8456,7.931034482758621,6.206896551724139,3.928571428571429,0,267985.8312580224,387144.262958613,274370.98808196833,81201.9261058096,9713.364760653183,1.786572208386816e-06,0.0,0.0,0.0,1.786572208386816e-06,0.0,24.689534206450155,3.2981597025448233,0.0003293149961169661,0.0
8457,7.931034482758621,6.206896551724139,4.285714285714286,0,250464.8010507629,323927.56606056256,293779.6636479938,59753.34478118106,-34928.58984036969,1.6697653403384195e-06,0.0,0.0,0.0,1.6697653403384195e-06,0.0,24.483903235782968,3.5956727140352998,-0.0011703397868203325,0.0
8458,7.931034482758621,6.206896551724139,4.642857142857143,0,261974.90016321416,465291.774108072,188443.69886540115,221287.40810427992,-44460.655612422786,1.7464993344214277e-06,0.0,0.0,0.0,1.7464993344214277e-06,0.0,24.156059817632517,3.89712076054001,-0.0014843649016155055,0.0
8459,7.931034482758621,6.206896551724139,5.0,0,68066.56386312704,303684.54706035525,281277.5533224852,227239.1764456698,-17219.867702868567,4.5377709242084696e-07,0.0,0.0,0.0,4.5377709242084696e-07,0.0,23.98545003611252,4.200131854090394,-0.0005742715321345356,0.0
8460,8.275862068965518,6.206896551724139,0.0,0,308561.04446052405,486001.9826880514,276621.1928872503,131652.45655996262,-5227.038880904776,2.057073629736827e-06,0.0,0.0,0.0,2.057073629736827e-06,0.0,23.94135974583147,-0.04987434892611723,-0.00017431839073676106,0.0
8461,8.275862068965518,6.206896551724139,0.35714285714285715,0,243693.26558152644,488210.06330380286,213602.6329841387,297713.5187427116,8410.359959518737,1.6246217705435096e-06,0.0,0.0,0.0,1.6246217705435096e-06,0.0,24.110523701196527,0.25423105395675066,0.00028078855252808825,0.0
8462,8.275862068965518,6.206896551724139,0.7142857142857143,0,150534.67501879678,290549.86178314243,294312.43185165006,141931.742556534,-24819.499460807314,1.003564500125312e-06,0.0,0.0,0.0,1.003564500125312e-06,0.0,23.61768464076036,0.5598259710384721,-0.0008316181054173684,0.0
8463,8.275862068965518,6.206896551724139,1.0714285714285714,0,388921.22825590667,587227.340371638,265275.49941998505,155105.73789264137,76762.27889994322,2.592808188372711e-06,0.0,0.0,0.0,2.592808188372711e-06,0.0,24.575768255215277,0.8691708011780938,0.0026024935952435467,0.0
8464,8.275862068965518,6.206896551724139,1.4285714285714286,0,321401.97055982315,574458.2865523543,416296.73896614014,204623.45805220157,34432.13700645869,2.1426798037321545e-06,0.0,0.0,0.0,2.1426798037321545e-06,0.0,24.299297255433796,1.1849373462889363,0.001212276716782195,0.0
8465,8.275862068965518,6.206896551724139,1.7857142857142858,0,543327.0974580674,858137.5829164351,390237.65744728874,262239.30944995134,143825.7704953821,3.622180649720449e-06,0.0,0.0,0.0,3.622180649720449e-06,0.0,23.958701810005728,1.50693474430913,0.005680758140623424,0.0
8466,8.275862068965518,6.206896551724139,2.142857142857143,0,188386.2627002716,937874.4950520529,793809.9736518142,724691.8031465495,401664.2666953422,1.2559084180018107e-06,0.0,0.0,0.0,1.2559084180018107e-06,0.0,24.902495893426117,1.8287229498559139,0.021531251342602017,0.0
8467,8.275862068965518,6.206896551724139,2.5,0,1062416.748359317,1462846.476729008,700310.9934808034,249332.33241820458,615654.1394182141,7.082778322395447e-06,0.0,0.0,0.0,7.082778322395447e-06,0.0,23.88489996388593,2.140088867704627,0.061565413941821405,0.0
8468,8.275862068965518,6.206896551724139,2.857142857142857,0,950683.4686169355,1354712.2394672309,641323.229282224,275448.604386482,514668.1421627615,6.3378897907795705e-06,0.0,0.0,0.0,6.3378897907795705e-06,0.0,24.815059964792333,2.435865806998771,0.027588834869748564,0.0
8469,8.275862068965518,6.206896551724139,3.2142857142857144,0,547384.0195376312,731528.5647554891,566742.5744576864,120681.74201485462,4470.21386132398,3.649226796917541e-06,0.0,0.0,0.0,3.649226796917541e-06,0.0,24.191490815054635,2.7212204585948445,0.00017656226485405276,0.0
8470,8.275862068965518,6.206896551724139,3.5714285714285716,0,332926.49309038115,729524.3757272557,389117.08011997334,404620.3574506845,-98829.35791176473,2.2195099539358745e-06,0.0,0.0,0.0,2.2195099539358745e-06,0.0,24.428686348190936,3.006365917717508,-0.003479555437075928,0.0
8471,8.275862068965518,6.206896551724139,3.928571428571429,0,262724.823711133,452228.19718407275,276405.9545710282,150216.07810795648,25642.91273468127,1.7514988247408864e-06,0.0,0.0,0.0,1.7514988247408864e-06,0.0,23.87106558067592,3.297742229749523,0.0008693790376180005,0.0
8472,8.275862068965518,6.206896551724139,4.285714285714286,0,372100.29954795435,534385.653416928,281133.5020864725,107166.59079333923,-32871.54382062616,2.480668663653029e-06,0.0,0.0,0.0,2.480668663653029e-06,0.0,23.124519827426656,3.595540256752758,-0.0011014150804056525,0.0
8473,8.275862068965518,6.206896551724139,4.642857142857143,0,297161.8455407731,459144.2842266166,177515.27311226595,148568.217887081,-14497.771192212202,1.9810789702718206e-06,0.0,0.0,0.0,1.9810789702718206e-06,0.0,24.303741847796754,3.8970881968138937,-0.00048402306292935675,0.0
8474,8.275862068965518,6.206896551724139,5.0,0,213958.07535641588,484422.5325282867,425208.1904527255,247093.66238412829,30094.230197911205,1.4263871690427726e-06,0.0,0.0,0.0,1.4263871690427726e-06,0.0,23.474865054911703,4.200125651073883,0.0010036232555541015,0.0
8475,8.620689655172415,6.206896551724139,0.0,0,115748.22845517665,291198.02171870536,366326.44563444366,233031.13982267244,-40695.64001622842,7.716548563678444e-07,0.0,0.0,0.0,7.716548563678444e-07,0.0,23.603210780762325,-0.04988063117934759,-0.0013571734665198312,0.0
8476,8.620689655172415,6.206896551724139,0.35714285714285715,0,306213.8775460227,469962.74521737493,363248.2595981197,124670.65912754902,-70095.83047733955,2.0414258503068182e-06,0.0,0.0,0.0,2.0414258503068182e-06,0.0,23.952202953494353,0.25419807426481716,-0.002340221687623545,0.0
8477,8.620689655172415,6.206896551724139,0.7142857142857143,0,221740.8798995286,374377.5354881291,167215.23572123836,140481.9428706305,53525.72372337378,1.478272532663524e-06,0.0,0.0,0.0,1.478272532663524e-06,0.0,23.598148621776506,0.5596918217597012,0.0017934673108221382,0.0
8478,8.620689655172415,6.206896551724139,1.0714285714285714,0,287086.16944941576,375629.0843006564,262668.04445427586,49244.28264641061,-2346.755679250216,1.9139077963294386e-06,0.0,0.0,0.0,1.9139077963294386e-06,0.0,23.90790778325455,0.8687479956265896,-7.956273201334859e-05,0.0
8479,8.620689655172415,6.206896551724139,1.4285714285714286,0,440083.84379631875,708767.9744232553,332671.71895850933,224768.00172351257,72675.16009158031,2.9338922919754585e-06,0.0,0.0,0.0,2.9338922919754585e-06,0.0,24.028280391254793,1.1839048140720967,0.0025587260079418064,0.0
8480,8.620689655172415,6.206896551724139,1.7857142857142858,0,419755.95549018093,720547.8021010285,236197.4355888141,494139.800396722,126421.0147797578,2.7983730366012064e-06,0.0,0.0,0.0,2.7983730366012064e-06,0.0,23.196130255464144,1.5049809576810462,0.004993313829520154,0.0
8481,8.620689655172415,6.206896551724139,2.142857142857143,0,623626.2487365304,891458.0072219429,979172.3064759087,316332.64546998043,493746.7950645151,4.157508324910203e-06,0.0,0.0,0.0,4.157508324910203e-06,0.0,24.07506063751661,1.825858367940024,0.02646734406225328,0.0
8482,8.620689655172415,6.206896551724139,2.5,0,571732.0887265705,1217966.2181972486,1300115.295759682,691752.2694596562,778596.0323319065,3.8115472581771366e-06,0.0,0.0,0.0,3.8115472581771366e-06,0.0,23.632102947242007,2.136834579963485,0.07785960323319065,0.0
8483,8.620689655172415,6.206896551724139,2.857142857142857,0,801852.7583467527,825179.467417382,1240581.910989598,316257.7385007025,438760.8171074959,5.345685055645018e-06,0.0,0.0,0.0,5.345685055645018e-06,0.0,23.41341221974806,2.433001225082881,0.02351981546716085,0.0
8484,8.620689655172415,6.206896551724139,3.2142857142857144,0,743764.8659572285,968595.6489351487,369457.40297293564,136146.42921429145,164688.144957656,4.958432439714856e-06,0.0,0.0,0.0,4.958432439714856e-06,0.0,22.951483497060536,2.7192666719667606,0.006504769742654797,0.0
8485,8.620689655172415,6.206896551724139,3.5714285714285716,0,148393.9587833537,452360.16662009043,380160.708927215,281682.5951135896,49403.43057240928,9.892930585556913e-07,0.0,0.0,0.0,9.892930585556913e-07,0.0,23.179719389095915,3.005333385500668,0.001739381688707364,0.0
8486,8.620689655172415,6.206896551724139,3.928571428571429,0,93134.40767334947,500039.73031405814,436149.38156188256,393177.6993907974,-26344.212731653068,6.208960511556632e-07,0.0,0.0,0.0,6.208960511556632e-07,0.0,23.973622265292327,3.297319424198019,-0.0008931554128978746,0.0
8487,8.620689655172415,6.206896551724139,4.285714285714286,0,308483.0443909064,557929.583873491,284962.5364354419,223257.9375628305,21643.56730971048,2.056553629272709e-06,0.0,0.0,0.0,2.056553629272709e-06,0.0,23.98760776039647,3.595406107473987,0.0007252032809524376,0.0
8488,8.620689655172415,6.206896551724139,4.642857142857143,0,220999.89272460216,393732.9064404483,256636.12373840014,138786.2674746835,-27095.96092147508,1.4733326181640145e-06,0.0,0.0,0.0,1.4733326181640145e-06,0.0,24.23031050699132,3.8970552171219603,-0.0009046266370427735,0.0
8489,8.620689655172415,6.206896551724139,5.0,0,340281.74924795754,483951.5739940436,142943.80191833602,144400.5246874098,-13673.678002948662,2.2685449949863838e-06,0.0,0.0,0.0,2.2685449949863838e-06,0.0,24.833719754513904,4.200119368820652,-0.0004560083824197752,0.0
8490,8.965517241379311,6.206896551724139,0.0,0,61188.20085115802,349480.64485833724,407820.3977009156,344134.5705886515,25018.025473331352,4.079213390077201e-07,0.0,0.0,0.0,4.079213390077201e-07,0.0,24.493739588469182,-0.049886974009061495,0.0008343350870899834,0.0
8491,8.965517241379311,6.206896551724139,0.35714285714285715,0,410666.4689179855,655597.9508467234,306478.12755528395,203128.95256963366,-27930.986581132085,2.737776459453237e-06,0.0,0.0,0.0,2.737776459453237e-06,0.0,24.318302791444022,0.25416477656695613,-0.0009325048310115747,0.0
8492,8.965517241379311,6.206896551724139,0.7142857142857143,0,366835.9202345155,524365.3365411288,244734.5108668783,109007.65222128434,6525.551712996094,2.445572801563437e-06,0.0,0.0,0.0,2.445572801563437e-06,0.0,24.418368636346955,0.5595563789495683,0.00021864933098003566,0.0
8493,8.965517241379311,6.206896551724139,1.0714285714285714,0,229234.69924835104,437489.9718098872,344344.5180787642,176344.43521205938,17586.964376756805,1.5282313283223403e-06,0.0,0.0,0.0,1.5282313283223403e-06,0.0,23.920300666599328,0.8683211131821946,0.000596255905976234,0.0
8494,8.965517241379311,6.206896551724139,1.4285714285714286,0,189850.9043590415,447047.08909122343,386326.2797225032,234263.81476560485,-11296.536731168733,1.2656726957269433e-06,0.0,0.0,0.0,1.2656726957269433e-06,0.0,23.91598948982914,1.182862325686897,-0.0003977251965773114,0.0
8495,8.965517241379311,6.206896551724139,1.7857142857142858,0,317078.76016711275,740196.6004994765,555716.5373864312,374069.23830411525,134302.63465050113,2.113858401114085e-06,0.0,0.0,0.0,2.113858401114085e-06,0.0,24.6079884035989,1.5030083317099465,0.005304618097787308,0.0
8496,8.965517241379311,6.206896551724139,2.142857142857143,0,286859.9161560993,1045950.263907847,736854.1102662676,788284.354729748,373953.348058218,1.912399441040662e-06,0.0,0.0,0.0,1.912399441040662e-06,0.0,23.952300118816318,1.822966164358321,0.02004580490491114,0.0
8497,8.965517241379311,6.206896551724139,2.5,0,840990.527230136,1836237.3612139318,1352788.7869075278,865148.1627223442,886385.8262025953,5.606603514867573e-06,0.0,0.0,0.0,5.606603514867573e-06,0.0,23.96770710353137,2.1335489128269955,0.08863858262025953,0.0
8498,8.965517241379311,6.206896551724139,2.857142857142857,0,318038.2405010172,847186.5157094479,755582.015300287,493399.2268267299,437940.3281132067,2.120254936673448e-06,0.0,0.0,0.0,2.120254936673448e-06,0.0,24.436412531687,2.430109021501178,0.023475833076331748,0.0
8499,8.965517241379311,6.206896551724139,3.2142857142857144,0,480019.3261570214,777887.8174898119,775542.8007237044,296700.2789707051,92881.5024169217,3.200128841046809e-06,0.0,0.0,0.0,3.200128841046809e-06,0.0,23.720035732890953,2.717294045995661,0.003668586993491568,0.0
8500,8.965517241379311,6.206896551724139,3.5714285714285716,0,240117.6040598174,526839.3349988329,429803.68549724866,253389.2408339314,-40877.50374917714,1.6007840270654491e-06,0.0,0.0,0.0,1.6007840270654491e-06,0.0,23.795768795488712,3.0042908971154687,-0.0014392033240925176,0.0
8501,8.965517241379311,6.206896551724139,3.928571428571429,0,282685.40980516386,444333.0887830937,350470.2279373208,126655.71945788733,-10384.180033165268,1.8845693987010924e-06,0.0,0.0,0.0,1.8845693987010924e-06,0.0,23.187101093266556,3.296892541753624,-0.00035205783902526264,0.0
8502,8.965517241379311,6.206896551724139,4.285714285714286,0,154045.058421687,432059.9112123016,299152.2246720688,263226.67466388247,8612.08007280651,1.0269670561445798e-06,0.0,0.0,0.0,1.0269670561445798e-06,0.0,23.64121985180081,3.5952706646638544,0.00028856189163522567,0.0
8503,8.965517241379311,6.206896551724139,4.642857142857143,0,255713.93356300055,430028.61413379066,393930.6492417861,158183.81116220454,45100.04155824761,1.7047595570866704e-06,0.0,0.0,0.0,1.7047595570866704e-06,0.0,23.71238332532594,3.897021919424099,0.0015057114617031938,0.0
8504,8.965517241379311,6.206896551724139,5.0,0,262670.2997042967,517019.4982924117,318059.9655972201,219279.76470728123,-14159.305381609294,1.7511353313619778e-06,0.0,0.0,0.0,1.7511353313619778e-06,0.0,23.745332334571437,4.200113025990938,-0.0004722037437083792,0.0
8505,9.310344827586208,6.206896551724139,0.0,0,235400.84424940802,496325.20378458133,227224.37726634197,328576.65279554686,45160.00928330419,1.5693389616627202e-06,0.0,0.0,0.0,1.5693389616627202e-06,0.0,24.126345384675858,-0.04989336407656204,0.0015060573152959082,0.0
8506,9.310344827586208,6.206896551724139,0.35714285714285715,0,254478.40720742874,479601.0456656069,224316.74155634534,225936.26551817107,-33438.1057528591,1.6965227147161916e-06,0.0,0.0,0.0,1.6965227147161916e-06,0.0,23.221476231644292,0.25413123088678774,-0.0011163656916967097,0.0
8507,9.310344827586208,6.206896551724139,0.7142857142857143,0,163233.74466563354,174557.37132859026,348268.00603113434,198058.78634547797,14840.962688550659,1.0882249644375568e-06,0.0,0.0,0.0,1.0882249644375568e-06,0.0,24.475140354756846,0.5594199274384525,0.000497270837113848,0.0
8508,9.310344827586208,6.206896551724139,1.0714285714285714,0,311091.4703000575,484794.34366906196,237157.86772723394,135620.75357447224,-22885.326435412713,2.0739431353337166e-06,0.0,0.0,0.0,2.0739431353337166e-06,0.0,22.705228582341107,0.8678910515602497,-0.0007758877970630892,0.0
8509,9.310344827586208,6.206896551724139,1.4285714285714286,0,156409.8870020703,355514.32324554486,365443.8713036431,204305.77750286783,88755.73213911869,1.042732580013802e-06,0.0,0.0,0.0,1.042732580013802e-06,0.0,24.039143906655788,1.18181207344138,0.0031248861356769136,0.0
8510,9.310344827586208,6.206896551724139,1.7857142857142858,0,661109.4129208362,859802.8407031345,693952.8929720692,131559.3393019864,184029.57234286593,4.407396086138908e-06,0.0,0.0,0.0,4.407396086138908e-06,0.0,24.153104873479766,1.5010210147430372,0.007268707739936974,0.0
8511,9.310344827586208,6.206896551724139,2.142857142857143,0,786097.7275977073,1460729.2204166285,858224.2106198795,571522.2766272429,457691.2354287419,5.240651517318049e-06,0.0,0.0,0.0,5.240651517318049e-06,0.0,24.095497577069068,1.8200524212900042,0.024534582347592617,0.0
8512,9.310344827586208,6.206896551724139,2.5,0,990931.1726343384,1081423.1089950933,737413.811935088,-35667.668705513504,694833.6141118412,6.606207817562256e-06,0.0,0.0,0.0,6.606207817562256e-06,0.0,24.302032778144675,2.130238775911217,0.06948336141118412,0.0
8513,9.310344827586208,6.206896551724139,2.857142857142857,0,420011.8881492058,1069002.7285025378,1107755.833838527,669710.3979145944,254337.3296662162,2.800079254328039e-06,0.0,0.0,0.0,2.800079254328039e-06,0.0,23.653170631114357,2.427195278432861,0.013633776825368352,0.0
8514,9.310344827586208,6.206896551724139,3.2142857142857144,0,231996.80687173764,670115.4657192004,616396.967763692,415971.68002208346,109004.05964850669,1.5466453791449177e-06,0.0,0.0,0.0,1.5466453791449177e-06,0.0,24.390229456097188,2.7153067290287516,0.0043053876720176324,0.0
8515,9.310344827586208,6.206896551724139,3.5714285714285716,0,382701.54342523124,662842.7812183206,480253.2649382611,223042.25160740895,17712.0013200389,2.5513436228348747e-06,0.0,0.0,0.0,2.5513436228348747e-06,0.0,23.42305883719422,3.0032406448699516,0.0006235990175071338,0.0
8516,9.310344827586208,6.206896551724139,3.928571428571429,0,343103.08767922944,466063.4530701646,112736.5791130924,134191.0637731059,39542.85865531687,2.28735391786153e-06,0.0,0.0,0.0,2.28735391786153e-06,0.0,23.469736162814435,3.296462480131679,0.0013406328976009482,0.0
8517,9.310344827586208,6.206896551724139,4.285714285714286,0,367790.3782052184,597392.2355710894,340132.24318347743,176131.52578439697,-65091.20492831218,2.451935854701456e-06,0.0,0.0,0.0,2.451935854701456e-06,0.0,24.81242671108305,3.5951342131527384,-0.002180987759535418,0.0
8518,9.310344827586208,6.206896551724139,4.642857142857143,0,419836.96338755765,479144.5889726144,384302.8984643911,19999.483888404553,6262.64266938314,2.798913089250384e-06,0.0,0.0,0.0,2.798913089250384e-06,0.0,23.87106954942363,3.896988373743931,0.0002090847928745917,0.0
8519,9.310344827586208,6.206896551724139,5.0,0,212179.55307611724,463891.4903502215,460160.7197790035,249871.1528320767,18979.94677617664,1.4145303538407817e-06,0.0,0.0,0.0,1.4145303538407817e-06,0.0,24.26327154902541,4.200106635923438,0.0006329690391971585,0.0
8520,9.655172413793103,6.206896551724139,0.0,0,279127.03795197187,450990.5451780859,181188.06240648404,163390.68384583245,-40130.58327406488,1.8608469196798124e-06,0.0,0.0,0.0,1.8608469196798124e-06,0.0,23.874043398685387,-0.04989979162808768,-0.0013383291869548289,0.0
8521,9.655172413793103,6.206896551724139,0.35714285714285715,0,177526.72479711613,517812.10497962555,418852.941037375,312862.10485418036,5185.552733911886,1.1835114986474408e-06,0.0,0.0,0.0,1.1835114986474408e-06,0.0,23.99237258057664,0.25409748842824154,0.0001731250330808086,0.0
8522,9.655172413793103,6.206896551724139,0.7142857142857143,0,217565.69821868424,291278.93689009035,459321.1173527963,213571.23490933256,-32446.94905449095,1.4504379881245616e-06,0.0,0.0,0.0,1.4504379881245616e-06,0.0,22.632819097759587,0.5592826755051399,-0.001087188335199083,0.0
8523,9.655172413793103,6.206896551724139,1.0714285714285714,0,302891.95528297476,467788.81484367815,136391.0953007172,205264.33766421347,-37666.39336831907,2.019279701886498e-06,0.0,0.0,0.0,2.019279701886498e-06,0.0,23.82833704327495,0.867458467204292,-0.0012770145558699258,0.0
8524,9.655172413793103,6.206896551724139,1.4285714285714286,0,236509.99953359005,527008.7726463688,425308.7567136724,256659.7670767383,-21642.057312099576,1.5767333302239336e-06,0.0,0.0,0.0,1.5767333302239336e-06,0.0,23.652803805429844,1.1807556604344123,-0.0007619672917136355,0.0
8525,9.655172413793103,6.206896551724139,1.7857142857142858,0,633705.355729903,876741.682916696,630537.2430142402,156881.5487238541,60277.8034061635,4.224702371532686e-06,0.0,0.0,0.0,4.224702371532686e-06,0.0,24.136304244566144,1.499022040209279,0.0023808224438433023,0.0
8526,9.655172413793103,6.206896551724139,2.142857142857143,0,641184.2914286078,1091810.3941736592,719885.9527868552,351437.26720302564,568371.530483647,4.274561942857385e-06,0.0,0.0,0.0,4.274561942857385e-06,0.0,23.25653375712069,1.8171215862554009,0.03046761012501265,0.0
8527,9.655172413793103,6.206896551724139,2.5,0,422798.08291058935,1057462.7744560712,803496.5114580012,569392.2963814937,727204.3344500626,2.8186538860705956e-06,0.0,0.0,0.0,2.8186538860705956e-06,0.0,24.255753875703455,2.12690922178972,0.07272043344500626,0.0
8528,9.655172413793103,6.206896551724139,2.857142857142857,0,676146.7836386886,1136063.6989641157,945599.3480120623,385112.8556988812,331896.91016087774,4.5076452242579245e-06,0.0,0.0,0.0,4.5076452242579245e-06,0.0,23.060654810012863,2.424264443398258,0.017791365538441434,0.0
8529,9.655172413793103,6.206896551724139,3.2142857142857144,0,332330.30299654644,599840.3069977551,441787.02538968634,217980.70824583364,142891.35353081854,2.2155353533103097e-06,0.0,0.0,0.0,2.2155353533103097e-06,0.0,23.44273828338657,2.713307754494994,0.00564385100805672,0.0
8530,9.655172413793103,6.206896551724139,3.5714285714285716,0,157377.6009703045,328687.4346903616,350923.8743503808,183610.6966932917,61648.23721403035,1.0491840064686968e-06,0.0,0.0,0.0,1.0491840064686968e-06,0.0,22.88418009427447,3.0021842318629837,0.0021704932979099176,0.0
8531,9.655172413793103,6.206896551724139,3.928571428571429,0,296015.7751797642,526824.5101042462,396690.7310481921,188034.6971358919,37984.316201697315,1.973438501198428e-06,0.0,0.0,0.0,1.973438501198428e-06,0.0,23.137782482481715,3.296029895775721,0.001287793185028748,0.0
8532,9.655172413793103,6.206896551724139,4.285714285714286,0,101189.62270238734,498132.0689826982,469112.46651099145,385603.2045655453,61134.430641200495,6.745974846825823e-07,0.0,0.0,0.0,6.745974846825823e-07,0.0,23.686269886254085,3.594996961219426,0.0020484095364569034,0.0
8533,9.655172413793103,6.206896551724139,4.642857142857143,0,295258.2954539866,486581.25028834725,359388.10166251496,149043.28034238907,8555.790452430901,1.9683886363599106e-06,0.0,0.0,0.0,1.9683886363599106e-06,0.0,24.371734258166438,3.896954631285385,0.000285643899718316,0.0
8534,9.655172413793103,6.206896551724139,5.0,0,384130.76083083893,560861.3158778743,323322.8681805197,117687.93697623293,6923.247874122687,2.5608717388722594e-06,0.0,0.0,0.0,2.5608717388722594e-06,0.0,23.709751581773943,4.200100208371913,0.0002308858716351979,0.0
8535,10.0,6.206896551724139,0.0,0,193470.76814903354,388806.02254567033,267601.1904797228,165682.9012438719,-31565.488894972448,1.289805120993557e-06,0.0,0.0,0.0,1.289805120993557e-06,0.0,22.88842874492651,-0.049906249384656744,-0.0010526887885016557,0.0
8536,10.0,6.206896551724139,0.35714285714285715,0,93966.19232633014,320158.9854192221,223320.04921745727,314122.42220688827,62751.91043714403,6.264412821755343e-07,0.0,0.0,0.0,6.264412821755343e-07,0.0,22.479691820884124,0.25406358740349455,0.0020950373331019914,0.0
8537,10.0,6.206896551724139,0.7142857142857143,0,110552.17722895065,443671.57835495827,414837.9729225331,321559.597991895,-4140.856039078331,7.37014514859671e-07,0.0,0.0,0.0,7.37014514859671e-07,0.0,23.876671017629324,0.5591447785827378,-0.00013874618460627002,0.0
8538,10.0,6.206896551724139,1.0714285714285714,0,104966.75023463114,431369.8821673068,310285.01587977045,366151.97878873657,-13776.202690381364,6.997783348975409e-07,0.0,0.0,0.0,6.997783348975409e-07,0.0,23.215911892275322,0.8670238500012687,-0.0004670585576963757,0.0
8539,10.0,6.206896551724139,1.4285714285714286,0,256634.80515190502,447984.0778530166,501103.70433826244,222065.86793935124,-14400.955072607881,1.7108987010127e-06,0.0,0.0,0.0,1.7108987010127e-06,0.0,23.28748691745066,1.179694283017494,-0.0005070246592790411,0.0
8540,10.0,6.206896551724139,1.7857142857142858,0,318811.26314762153,759410.8119353248,489349.3426603054,407721.9973202954,130418.68743895272,2.1254084209841435e-06,0.0,0.0,0.0,2.1254084209841435e-06,0.0,24.092401289051693,1.497013671878776,0.005151211898997198,0.0
8541,10.0,6.206896551724139,2.142857142857143,0,682218.6375678581,1003539.1923207039,651901.3556501203,217240.6319733558,440798.9032725073,4.548124250452387e-06,0.0,0.0,0.0,4.548124250452387e-06,0.0,23.491367733189275,1.8141769783246733,0.023629067270508407,0.0
8542,10.0,6.206896551724139,2.5,0,539735.9840502953,851335.6969388875,1054968.909087984,443039.50307491084,801761.2265606321,3.5982398936686354e-06,0.0,0.0,0.0,3.5982398936686354e-06,0.0,23.41422595414976,2.1235640210683577,0.08017612265606322,0.0
8543,10.0,6.206896551724139,2.857142857142857,0,745070.8176506808,1042512.8125598951,782878.5861131428,202362.62629423017,394138.99896997446,4.967138784337872e-06,0.0,0.0,0.0,4.967138784337872e-06,0.0,23.649058436173924,2.4213198354675303,0.021127858648130243,0.0
8544,10.0,6.206896551724139,3.2142857142857144,0,229643.45632686856,596339.1292660906,354144.91134354577,381740.2147745743,65988.51605543052,1.5309563755124571e-06,0.0,0.0,0.0,1.5309563755124571e-06,0.0,24.313989344078696,2.7112993861644905,0.0026063813075945406,0.0
8545,10.0,6.206896551724139,3.5714285714285716,0,348774.3555643706,563699.3103298394,572935.4916919712,219634.77911138142,-1204.933822974448,2.3251623704291372e-06,0.0,0.0,0.0,2.3251623704291372e-06,0.0,23.704756131913182,3.0011228544460655,-4.242296139160011e-05,0.0
8546,10.0,6.206896551724139,3.928571428571429,0,174288.01363945482,402763.22303860786,266379.9571861443,206407.57295097085,66199.6133109377,1.1619200909296988e-06,0.0,0.0,0.0,1.1619200909296988e-06,0.0,22.502834084582236,3.295595278572698,0.002244384509139973,0.0
8547,10.0,6.206896551724139,4.285714285714286,0,392969.0430729682,550014.9209218504,398460.1183328298,103835.00185399048,-81044.4381983758,2.6197936204864544e-06,0.0,0.0,0.0,2.6197936204864544e-06,0.0,23.178241332541003,3.5948590642970237,-0.0027155270498334222,0.0
8548,10.0,6.206896551724139,4.642857142857143,0,293626.2683589627,592422.1576485669,389500.94480822294,255730.55517353298,20103.317620449696,1.957508455726418e-06,0.0,0.0,0.0,1.957508455726418e-06,0.0,23.449699447325656,3.896920730260638,0.0006711700192177614,0.0
8549,10.0,6.206896551724139,5.0,0,474087.9086589129,509387.29565776273,200955.19706146067,-36506.65134868699,48798.98359286063,3.160586057726086e-06,0.0,0.0,0.0,3.160586057726086e-06,0.0,24.02840830583107,4.200093750615343,0.001627414772171089,0.0
8550,0.0,6.551724137931035,0.0,0,132433.57453705088,309340.6359894159,224012.42666250453,156776.69427213332,-82449.37446168822,8.828904969136725e-07,0.0,0.0,0.0,8.828904969136725e-07,0.0,22.882912150005076,-0.04990801869620095,-0.002749633702920972,0.0
8551,0.0,6.551724137931035,0.35714285714285715,0,369369.5860598505,583570.6251954831,286931.4306032822,169849.85555872944,-3206.055694971643,2.4624639070656702e-06,0.0,0.0,0.0,2.4624639070656702e-06,0.0,23.58336546861689,0.2540542991198927,-0.00010703748023253868,0.0
8552,0.0,6.551724137931035,0.7142857142857143,0,517423.5919009828,591780.5055522969,237078.05576866824,-1944.1125142423984,44198.70391043166,3.4494906126732184e-06,0.0,0.0,0.0,3.4494906126732184e-06,0.0,23.47276611086429,0.5591069972551037,0.0014809501886183815,0.0
8553,0.0,6.551724137931035,1.0714285714285714,0,254454.3863492438,465331.5875223925,484585.92466913385,221051.31703942135,-34609.71479963293,1.6963625756616253e-06,0.0,0.0,0.0,1.6963625756616253e-06,0.0,24.02668421268349,0.8669047725435793,-0.0011733831041761465,0.0
8554,0.0,6.551724137931035,1.4285714285714286,0,427780.0981554692,681282.2779859017,355549.28242211026,196827.0302784494,21239.318335641095,2.8518673210364615e-06,0.0,0.0,0.0,2.8518673210364615e-06,0.0,23.02469035697882,1.179403484301805,0.0007477877743630357,0.0
8555,0.0,6.551724137931035,1.7857142857142858,0,286871.36683240195,686585.858960551,677544.8535605131,395300.860071921,9368.03943116375,1.91247577888268e-06,0.0,0.0,0.0,1.91247577888268e-06,0.0,23.611528920868725,1.4964634143343525,0.00037001412248282293,0.0
8556,0.0,6.551724137931035,2.142857142857143,0,199651.761760084,716627.634533129,917839.5649930774,914681.7667768599,435029.32933142973,1.3310117450672267e-06,0.0,0.0,0.0,1.3310117450672267e-06,0.0,24.299178822245683,1.8133702076219869,0.023319788708870033,0.0
8557,0.0,6.551724137931035,2.5,0,464709.8029732012,1140779.7817368472,1012785.090333424,625486.2802695471,948146.9805002847,3.0980653531546746e-06,0.0,0.0,0.0,3.0980653531546746e-06,0.0,23.986829775532957,2.1226474949976244,0.09481469805002848,0.0
8558,0.0,6.551724137931035,2.857142857142857,0,802080.5794873182,1538858.1431210462,809601.5073276026,679788.9032183343,625122.75248017,5.3472038632487875e-06,0.0,0.0,0.0,5.3472038632487875e-06,0.0,23.841733406185686,2.420513064764844,0.033509764795280485,0.0
8559,0.0,6.551724137931035,3.2142857142857144,0,200178.5146781127,541591.4933005219,731162.1918250163,521840.16531728226,100989.5737036247,1.334523431187418e-06,0.0,0.0,0.0,1.334523431187418e-06,0.0,23.391555501826712,2.710749128620067,0.003988835526199216,0.0
8560,0.0,6.551724137931035,3.5714285714285716,0,260883.5960505972,538688.1265765938,288215.7258072596,268510.7897677711,-62130.99287578637,1.7392239736706481e-06,0.0,0.0,0.0,1.7392239736706481e-06,0.0,23.627256281046154,3.0008320557303767,-0.0021874900195636396,0.0
8561,0.0,6.551724137931035,3.928571428571429,0,370832.5502214836,466755.12046699674,484574.7001114225,105153.60514489815,-14096.003548655286,2.4722170014765572e-06,0.0,0.0,0.0,2.4722170014765572e-06,0.0,23.499897250659174,3.2954762011150085,-0.00047790085807279,0.0
8562,0.0,6.551724137931035,4.285714285714286,0,322222.3616606717,403808.8891354826,199138.35978858545,32383.061329793352,-81581.60166656761,2.1481490777378113e-06,0.0,0.0,0.0,2.1481490777378113e-06,0.0,23.989316868728682,3.5948212829693893,-0.0027335255943416424,0.0
8563,0.0,6.551724137931035,4.642857142857143,0,184659.07239222305,408754.31718444254,384087.5009659688,213001.62396595304,-13186.46071436449,1.2310604826148203e-06,0.0,0.0,0.0,1.2310604826148203e-06,0.0,23.82899519288858,3.896911441977036,-0.00044024360845154343,0.0
8564,0.0,6.551724137931035,5.0,0,291793.8978883054,454933.22242256673,187887.1739978824,143481.8843857473,43262.20282381496,1.945292652588703e-06,0.0,0.0,0.0,1.945292652588703e-06,0.0,23.25673977175036,4.2000919813038,0.0014427666883299328,0.0
8565,0.3448275862068966,6.551724137931035,0.0,0,98883.493688927,363582.61635930144,260882.48281809734,269018.4633193797,-55829.03953023447,6.592232912595134e-07,0.0,0.0,0.0,6.592232912595134e-07,0.0,24.470722482472453,-0.04990168163448198,-0.001861862624141208,0.0
8566,0.3448275862068966,6.551724137931035,0.35714285714285715,0,168869.72263873435,293191.17600790114,294450.52851397067,124954.65153523661,-8484.186006668344,1.1257981509248958e-06,0.0,0.0,0.0,1.1257981509248958e-06,0.0,24.20491674407764,0.2540875665377429,-0.0002832533113514662,0.0
8567,0.3448275862068966,6.551724137931035,0.7142857142857143,0,234914.34566503903,428705.3548996776,247710.82018948605,163235.27936281209,-33541.907472038205,1.5660956377669268e-06,0.0,0.0,0.0,1.5660956377669268e-06,0.0,23.17418025328793,0.5592423168972693,-0.0011238767158873947,0.0
8568,0.3448275862068966,6.551724137931035,1.0714285714285714,0,383956.08467660815,514372.3135498872,281039.7293541959,71226.0008924196,76227.95910705604,2.5597072311773877e-06,0.0,0.0,0.0,2.5597072311773877e-06,0.0,23.44026227903358,0.8673312667928175,0.0025843783977959394,0.0
8569,0.3448275862068966,6.551724137931035,1.4285714285714286,0,394138.8283263245,577696.9535925161,207969.27394661214,163003.83327599918,25805.659387233798,2.6275921888421634e-06,0.0,0.0,0.0,2.6275921888421634e-06,0.0,23.537734750003533,1.1804450246767326,0.0009085581888364153,0.0
8570,0.3448275862068966,6.551724137931035,1.7857142857142858,0,382870.57135238557,590778.1464254478,354240.0111825386,149047.86422091897,134202.57203280093,2.5524704756825703e-06,0.0,0.0,0.0,2.5524704756825703e-06,0.0,24.029818598969012,1.4984342464536358,0.005300665874704375,0.0
8571,0.3448275862068966,6.551724137931035,2.142857142857143,0,571015.5027697781,783073.0923706135,835189.0799719279,239902.09246076288,424481.68800467835,3.8067700184651875e-06,0.0,0.0,0.0,3.8067700184651875e-06,0.0,23.22185818576816,1.8162597811132801,0.022754381389104253,0.0
8572,0.3448275862068966,6.551724137931035,2.5,0,591320.6382580112,1159060.7820228422,867529.0879933704,478582.8154876193,802598.4757425514,3.942137588386741e-06,0.0,0.0,0.0,3.942137588386741e-06,0.0,23.296554904092407,2.125930174238767,0.08025984757425514,0.0
8573,0.3448275862068966,6.551724137931035,2.857142857142857,0,967544.9914160515,1371932.1131093241,586864.6738416399,290997.96693178226,506788.2421740127,6.450299942773676e-06,0.0,0.0,0.0,6.450299942773676e-06,0.0,24.07506611469299,2.423402638256137,0.027166432078959597,0.0
8574,0.3448275862068966,6.551724137931035,3.2142857142857144,0,131716.35809223587,795963.1050961774,680166.5748219215,652668.2845752718,76956.30202044634,8.781090539482391e-07,0.0,0.0,0.0,8.781090539482391e-07,0.0,23.91995516195231,2.71271996073935,0.0030395814162453016,0.0
8575,0.3448275862068966,6.551724137931035,3.5714285714285716,0,313238.45854746766,561397.4453354765,224409.69403991068,279115.28592894285,-19954.45678983062,2.088256390316451e-06,0.0,0.0,0.0,2.088256390316451e-06,0.0,22.67111812824225,3.001873596105304,-0.0007025507408329167,0.0
8576,0.3448275862068966,6.551724137931035,3.928571428571429,0,235338.6488841439,498830.3119269584,265801.66881523025,261247.75227478557,-39332.92482888064,1.5689243258942927e-06,0.0,0.0,0.0,1.5689243258942927e-06,0.0,23.97888662989088,3.2959026953642465,-0.0013335154507695766,0.0
8577,0.3448275862068966,6.551724137931035,4.285714285714286,0,257224.35165647033,445617.9134544629,246152.12370695124,155295.3648074956,72294.62798776395,1.7148290110431355e-06,0.0,0.0,0.0,1.7148290110431355e-06,0.0,22.91768755700245,3.594956602611555,0.0024223502836540328,0.0
8578,0.3448275862068966,6.551724137931035,4.642857142857143,0,217867.75657675383,419603.62984207243,337203.03153224895,172553.95516120727,33624.937684559314,1.4524517105116922e-06,0.0,0.0,0.0,1.4524517105116922e-06,0.0,23.34224607547332,3.8969447093948864,0.0011226032686756542,0.0
8579,0.3448275862068966,6.551724137931035,5.0,0,290380.68415098015,463900.78113179706,290693.5173147253,128660.11547980658,-91071.10756795503,1.935871227673201e-06,0.0,0.0,0.0,1.935871227673201e-06,0.0,23.481872322541605,4.2000983183655185,-0.0030371629665613712,0.0
8580,0.6896551724137931,6.551724137931035,0.0,0,87151.32141920242,335561.3601231846,255548.07606629518,348410.7357837105,-9215.238147923721,5.810088094613494e-07,0.0,0.0,0.0,5.810088094613494e-07,0.0,23.456459021897455,-0.04989539155445671,-0.0003073222757287038,0.0
8581,0.6896551724137931,6.551724137931035,0.35714285714285715,0,137413.88990193588,270195.4909624544,124774.94502057972,142510.44421793352,15677.465522367533,9.160925993462392e-07,0.0,0.0,0.0,9.160925993462392e-07,0.0,23.371158391232072,0.2541205873176866,0.0005234083763980163,0.0
8582,0.6896551724137931,6.551724137931035,0.7142857142857143,0,289739.66546368087,432644.99017805175,329986.2504860658,105553.1117913844,63214.57641096582,1.9315977697578723e-06,0.0,0.0,0.0,1.9315977697578723e-06,0.0,23.181682941782476,0.5593766333069808,0.0021181082379466685,0.0
8583,0.6896551724137931,6.551724137931035,1.0714285714285714,0,338593.5974185916,485826.7862216882,255632.4278395717,97044.4919080724,-42691.411952903356,2.2572906494572773e-06,0.0,0.0,0.0,2.2572906494572773e-06,0.0,23.96151295340334,0.8677545990999644,-0.001447379204624121,0.0
8584,0.6896551724137931,6.551724137931035,1.4285714285714286,0,129613.98102734554,351341.4727807839,327255.9429510505,211374.12259251147,24983.236568355336,8.640932068489703e-07,0.0,0.0,0.0,8.640932068489703e-07,0.0,22.903497432894117,1.181478843282007,0.0008796025641974414,0.0
8585,0.6896551724137931,6.551724137931035,1.7857142857142858,0,362576.8480883887,754841.1288325235,356737.48798031174,443552.5536205171,42373.64875671384,2.4171789872559247e-06,0.0,0.0,0.0,2.4171789872559247e-06,0.0,23.448931598772106,1.5003904672222537,0.0016736531241482104,0.0
8586,0.6896551724137931,6.551724137931035,2.142857142857143,0,742230.4448368223,1283351.8359434577,498331.2636332488,592994.1743928641,247293.42408634178,4.948202965578816e-06,0.0,0.0,0.0,4.948202965578816e-06,0.0,24.115053434799652,1.8191279318912221,0.013256187594636835,0.0
8587,0.6896551724137931,6.551724137931035,2.5,0,848688.1216546008,1129615.9231647875,1129962.636103126,281101.2110950981,804131.5347928496,5.657920811030673e-06,0.0,0.0,0.0,5.657920811030673e-06,0.0,23.92297645650482,2.129188516360047,0.08041315347928496,0.0
8588,0.6896551724137931,6.551724137931035,2.857142857142857,0,527216.0649580959,803347.221616804,331704.85778034985,234176.53898503078,269649.71419422125,3.514773766387306e-06,0.0,0.0,0.0,3.514773766387306e-06,0.0,23.036690940990873,2.426270789034079,0.014454598659084312,0.0
8589,0.6896551724137931,6.551724137931035,3.2142857142857144,0,308601.11278760707,664224.8972671358,317110.2826350774,420894.88722735096,131220.63128305614,2.0573407519173806e-06,0.0,0.0,0.0,2.0573407519173806e-06,0.0,22.768933022916954,2.714676181507968,0.0051828866746999255,0.0
8590,0.6896551724137931,6.551724137931035,3.5714285714285716,0,69404.26790914412,402724.2030635632,450787.73918336537,371218.8234135791,-66474.87913174232,4.6269511939429416e-07,0.0,0.0,0.0,4.6269511939429416e-07,0.0,23.193837955977884,3.0029074147105783,-0.002340428309959551,0.0
8591,0.6896551724137931,6.551724137931035,3.928571428571429,0,188182.58357317877,341391.3645812475,322502.3995453613,144476.6443982787,-18832.784465114524,1.2545505571545252e-06,0.0,0.0,0.0,1.2545505571545252e-06,0.0,22.654143541580925,3.2963260276713937,-0.00063849330235425,0.0
8592,0.6896551724137931,6.551724137931035,4.285714285714286,0,169548.52733651904,410735.82500084763,239987.50086073836,242413.12180745267,21627.480112167654,1.1303235155767935e-06,0.0,0.0,0.0,1.1303235155767935e-06,0.0,23.793757700509815,3.5950909190212665,0.0007246642529690906,0.0
8593,0.6896551724137931,6.551724137931035,4.642857142857143,0,280765.3756717573,255932.92855285716,357689.4968885867,40234.025443743936,27007.1602411343,1.8717691711450488e-06,0.0,0.0,0.0,1.8717691711450488e-06,0.0,23.52290281557912,3.89697773017483,0.0009016619346261811,0.0
8594,0.6896551724137931,6.551724137931035,5.0,0,197167.80338117693,267921.991566261,297364.8725714909,87131.33459472383,16457.810050245655,1.3144520225411796e-06,0.0,0.0,0.0,1.3144520225411796e-06,0.0,23.566128347744428,4.200104608445543,0.0005488573986871743,0.0
8595,1.0344827586206897,6.551724137931035,0.0,0,248981.2903057069,350626.2407294431,260747.70463836976,69185.24016406013,34418.57548713292,1.6598752687047126e-06,0.0,0.0,0.0,1.6598752687047126e-06,0.0,24.0385377429066,-0.04988915924157275,0.001147837394569027,0.0
8596,1.0344827586206897,6.551724137931035,0.35714285714285715,0,155248.7430936678,347789.1141773386,260303.38036614482,168540.31745019706,-10082.179205076094,1.034991620624452e-06,0.0,0.0,0.0,1.034991620624452e-06,0.0,24.22488707048725,0.25415330483979365,-0.0003366039645090414,0.0
8597,1.0344827586206897,6.551724137931035,0.7142857142857143,0,215502.78874993185,374543.73410135857,277933.93088157295,127640.33954558894,48802.93555925678,1.436685258332879e-06,0.0,0.0,0.0,1.436685258332879e-06,0.0,23.911948056881638,0.5595097161751492,0.0016352225343095176,0.0
8598,1.0344827586206897,6.551724137931035,1.0714285714285714,0,292717.0244904264,496484.14044454653,289265.10565358127,161620.52007626375,13107.695526977192,1.951446829936176e-06,0.0,0.0,0.0,1.951446829936176e-06,0.0,23.68609958959294,0.8681740435873838,0.00044439396727428135,0.0
8599,1.0344827586206897,6.551724137931035,1.4285714285714286,0,188019.1991722179,428369.31924382166,478004.38628550986,270147.2686655221,36106.72704701976,1.253461327814786e-06,0.0,0.0,0.0,1.253461327814786e-06,0.0,23.451079464353807,1.182503167453947,0.0012712351983875261,0.0
8600,1.0344827586206897,6.551724137931035,1.7857142857142858,0,443055.4159552005,672976.0077088521,397318.58558821445,161907.64062362854,85168.83591585058,2.95370277303467e-06,0.0,0.0,0.0,2.95370277303467e-06,0.0,23.631585428571643,1.5023287223559145,0.0033639559606734254,0.0
8601,1.0344827586206897,6.551724137931035,2.142857142857143,0,301819.5082724919,716790.0904090431,594160.1407968635,372957.0857934657,379641.48243082245,2.012130055149946e-06,0.0,0.0,0.0,2.012130055149946e-06,0.0,23.915399140836314,1.8219697420072585,0.02035071789071063,0.0
8602,1.0344827586206897,6.551724137931035,2.5,0,947888.703333796,1208761.5210225454,474269.41697575874,138746.65514389973,499693.98746498657,6.319258022225307e-06,0.0,0.0,0.0,6.319258022225307e-06,0.0,24.279211497822,2.1324169343612813,0.04996939874649866,0.0
8603,1.0344827586206897,6.551724137931035,2.857142857142857,0,212544.1048117729,796785.9209556653,614134.9262645008,563495.7903594595,252019.0917354102,1.4169606987451528e-06,0.0,0.0,0.0,1.4169606987451528e-06,0.0,23.12646106838069,2.4291125991501157,0.01350950745988358,0.0
8604,1.0344827586206897,6.551724137931035,3.2142857142857144,0,256741.11322856648,609653.3750070219,644691.5383325493,372230.8073558223,30785.747062656148,1.7116074215237766e-06,0.0,0.0,0.0,1.7116074215237766e-06,0.0,23.26199590236149,2.716614436641629,0.0012159599954792016,0.0
8605,1.0344827586206897,6.551724137931035,3.5714285714285716,0,197416.2481679611,410463.9873629065,376336.6647785483,198208.95989222202,26854.99875129399,1.3161083211197408e-06,0.0,0.0,0.0,1.3161083211197408e-06,0.0,23.827615055993167,3.003931738882519,0.0009455030255398297,0.0
8606,1.0344827586206897,6.551724137931035,3.928571428571429,0,257738.2525442808,435662.2304139645,213487.12167446798,153088.0217033488,-21021.509269066137,1.718255016961872e-06,0.0,0.0,0.0,1.718255016961872e-06,0.0,22.77987703045649,3.296745472158813,-0.0007126982682002935,0.0
8607,1.0344827586206897,6.551724137931035,4.285714285714286,0,148856.013437697,258643.40680348212,247429.84377497743,104497.7255366123,-10371.473277086916,9.9237342291798e-07,0.0,0.0,0.0,9.9237342291798e-07,0.0,23.9828230069406,3.5952240018894353,-0.00034751325145367513,0.0
8608,1.0344827586206897,6.551724137931035,4.642857142857143,0,133324.46177582082,189818.9223025911,153961.8820052434,42232.71204782252,-2537.6574159428,8.888297451721388e-07,0.0,0.0,0.0,8.888297451721388e-07,0.0,24.373111197712543,3.8970104476969367,-8.472231344013976e-05,0.0
8609,1.0344827586206897,6.551724137931035,5.0,0,166003.933158031,334369.16477203555,176796.52189781851,161055.3209556651,49523.21887177819,1.1066928877202066e-06,0.0,0.0,0.0,1.1066928877202066e-06,0.0,25.02883294487232,4.200110840758428,0.0016515675537386607,0.0
8610,1.3793103448275863,6.551724137931035,0.0,0,156576.81111834935,357643.7721453102,238674.67126479716,180256.45432127686,19711.185152710063,1.0438454074556624e-06,0.0,0.0,0.0,1.0438454074556624e-06,0.0,23.915551248426162,-0.04988299890030544,0.0006573553695739864,0.0
8611,1.3793103448275863,6.551724137931035,0.35714285714285715,0,121673.31514463238,337026.84078264475,196602.58347448794,262920.28176271665,-47794.356356376644,8.111554342975492e-07,0.0,0.0,0.0,8.111554342975492e-07,0.0,24.30890629716428,0.2541856445354015,-0.0015956639436258524,0.0
8612,1.3793103448275863,6.551724137931035,0.7142857142857143,0,279886.431953983,408970.40473164077,161128.5477275624,105418.67366637461,5244.162968268163,1.8659095463598864e-06,0.0,0.0,0.0,1.8659095463598864e-06,0.0,23.89493018102521,0.5596412621838326,0.00017571429589294534,0.0
8613,1.3793103448275863,6.551724137931035,1.0714285714285714,0,185667.09761168758,367608.4263634005,269744.0791451953,153481.8270214244,-10040.194916306915,1.2377806507445838e-06,0.0,0.0,0.0,1.2377806507445838e-06,0.0,24.698512720885873,0.8685886442714812,-0.00034039561278195567,0.0
8614,1.3793103448275863,6.551724137931035,1.4285714285714286,0,94218.17449980414,348536.4947577076,268523.41034943133,244690.35552569744,-4031.5580771775903,6.281211633320276e-07,0.0,0.0,0.0,6.281211633320276e-07,0.0,23.681841933820614,1.1835156625877772,-0.00014194193024966268,0.0
8615,1.3793103448275863,6.551724137931035,1.7857142857142858,0,119127.99122120463,301014.0848113674,217490.06940653804,353905.56320634787,59312.55664826167,7.941866081413643e-07,0.0,0.0,0.0,7.941866081413643e-07,0.0,24.062861904376767,1.5042445942495117,0.002342697611563421,0.0
8616,1.3793103448275863,6.551724137931035,2.142857142857143,0,560565.6752636366,794170.3033706682,237591.88546048533,229700.68834062305,408320.9826166409,3.7371045017575777e-06,0.0,0.0,0.0,3.7371045017575777e-06,0.0,24.20476231193479,1.8247787345045319,0.02188808523474034,0.0
8617,1.3793103448275863,6.551724137931035,2.5,0,754931.4806361827,1182682.7861699276,574862.3975402169,337628.13625189435,486230.98605648516,5.032876537574551e-06,0.0,0.0,0.0,5.032876537574551e-06,0.0,24.10194111741412,2.135608070142083,0.04862309860564852,0.0
8618,1.3793103448275863,6.551724137931035,2.857142857142857,0,490092.51467166666,768368.406728513,318778.62367926515,245928.6879844403,331453.4846038066,3.2672834311444443e-06,0.0,0.0,0.0,3.2672834311444443e-06,0.0,23.526571141857925,2.431921591647389,0.017767595669143415,0.0
8619,1.3793103448275863,6.551724137931035,3.2142857142857144,0,415594.64179112064,565918.8768105534,183572.99782522093,123593.33848066627,75631.27217722927,2.7706309452741377e-06,0.0,0.0,0.0,2.7706309452741377e-06,0.0,23.230239649751685,2.718530308535226,0.0029872460521273253,0.0
8620,1.3793103448275863,6.551724137931035,3.5714285714285716,0,133431.72645137768,425941.68126064225,363685.64929487,272759.7202915213,-3758.479508154871,8.895448430091845e-07,0.0,0.0,0.0,8.895448430091845e-07,0.0,24.43246980890479,3.0049442340163486,-0.00013232745900681344,0.0
8621,1.3793103448275863,6.551724137931035,3.928571428571429,0,115406.74792146152,269397.0392679147,230021.0452281804,139455.3992885296,-21361.121325578653,7.693783194764101e-07,0.0,0.0,0.0,7.693783194764101e-07,0.0,24.05220056834763,3.2971600728429107,-0.0007242122333223212,0.0
8622,1.3793103448275863,6.551724137931035,4.285714285714286,0,213095.75484124935,369008.6160437125,212258.24017157516,126372.08000858674,-24778.818574334226,1.420638365608329e-06,0.0,0.0,0.0,1.420638365608329e-06,0.0,23.968981884571477,3.5953555478981185,-0.0008302550254814145,0.0
8623,1.3793103448275863,6.551724137931035,4.642857142857143,0,259427.53290051207,434155.90793393756,216622.23853774558,147029.96403163677,-13757.651121046334,1.7295168860034137e-06,0.0,0.0,0.0,1.7295168860034137e-06,0.0,24.382025649905714,3.897042787392545,-0.0004593133900402143,0.0
8624,1.3793103448275863,6.551724137931035,5.0,0,172186.27740121767,315699.62035023083,154486.5669303851,134316.7190251406,24120.458253804554,1.1479085160081178e-06,0.0,0.0,0.0,1.1479085160081178e-06,0.0,24.363381241843157,4.200117001099695,0.0008044017965882495,0.0
8625,1.7241379310344829,6.551724137931035,0.0,0,130775.7164253165,239664.8436432648,242143.91382982838,110146.28657849939,-11093.047045937106,8.718381095021099e-07,0.0,0.0,0.0,8.718381095021099e-07,0.0,24.14346228803797,-0.049876929541597524,-0.0003699459968585921,0.0
8626,1.7241379310344829,6.551724137931035,0.35714285714285715,0,198934.73693910477,305506.5935959806,208647.8858941005,76692.03353961991,-3069.6075541993728,1.3262315795940318e-06,0.0,0.0,0.0,1.3262315795940318e-06,0.0,24.286872441222528,0.25421750660352915,-0.00010248201814447046,0.0
8627,1.7241379310344829,6.551724137931035,0.7142857142857143,0,50114.345580947884,172432.04935085383,170380.4360856145,221489.08204733062,-35933.430653506,3.3409563720631924e-07,0.0,0.0,0.0,3.3409563720631924e-07,0.0,23.711244128967,0.5597708653792806,-0.001204008629118544,0.0
8628,1.7241379310344829,6.551724137931035,1.0714285714285714,0,218837.6762647675,341581.3171713963,185122.33683481725,91507.80133741283,-14974.926895324696,1.4589178417651168e-06,0.0,0.0,0.0,1.4589178417651168e-06,0.0,24.245459170224002,0.8689971216858228,-0.0005076992488084101,0.0
8629,1.7241379310344829,6.551724137931035,1.4285714285714286,0,291727.15847478725,405534.6773333943,169029.33228054593,79547.43543333774,13204.346281797465,1.9448477231652485e-06,0.0,0.0,0.0,1.9448477231652485e-06,0.0,23.19859051434962,1.1845132041022122,0.00046489480321102356,0.0
8630,1.7241379310344829,6.551724137931035,1.7857142857142858,0,457221.76068412873,711266.4719702019,329629.3596690495,204510.30436932234,-32702.12655530124,3.0481450712275247e-06,0.0,0.0,0.0,3.0481450712275247e-06,0.0,23.99789959049301,1.5061321704820738,-0.0012916521914317829,0.0
8631,1.7241379310344829,6.551724137931035,2.142857142857143,0,212213.1343674095,758672.2341673815,514679.80019621336,656302.1100598782,380164.71242188127,1.4147542291160635e-06,0.0,0.0,0.0,1.4147542291160635e-06,0.0,24.36636540335423,1.8275462407730971,0.020378765684307416,0.0
8632,1.7241379310344829,6.551724137931035,2.5,0,681720.5889318472,1004574.299151457,569798.9606995303,218881.4608665679,480801.94061555725,4.544803926212315e-06,0.0,0.0,0.0,4.544803926212315e-06,0.0,23.638074505140967,2.1387520757902956,0.048080194061555726,0.0
8633,1.7241379310344829,6.551724137931035,2.857142857142857,0,196463.18050359527,653333.8326561812,561213.9259976197,427737.745383057,436843.64124774875,1.309754536690635e-06,0.0,0.0,0.0,1.309754536690635e-06,0.0,24.073435925173182,2.434689097915954,0.023417045072264123,0.0
8634,1.7241379310344829,6.551724137931035,3.2142857142857144,0,267712.68369567225,494756.9870404098,364548.0073390208,186847.43707897238,78490.321770289,1.784751224637815e-06,0.0,0.0,0.0,1.784751224637815e-06,0.0,24.157597711798154,2.7204178847677882,0.003100171358866715,0.0
8635,1.7241379310344829,6.551724137931035,3.5714285714285716,0,102342.24269211924,258453.20780505313,277490.806723749,166966.5024153544,-63562.358556947154,6.822816179474615e-07,0.0,0.0,0.0,6.822816179474615e-07,0.0,23.56633667410785,3.0059417755307836,-0.002237885128300191,0.0
8636,1.7241379310344829,6.551724137931035,3.928571428571429,0,110766.19944423037,307551.02898843325,284374.45146066934,187030.258246522,9086.498850454549,7.384413296282025e-07,0.0,0.0,0.0,7.384413296282025e-07,0.0,24.580970672697802,3.2975685502572523,0.0003080621810657748,0.0
8637,1.7241379310344829,6.551724137931035,4.285714285714286,0,257591.46249037932,291652.4459448032,254274.5299902718,17414.02094186654,-9874.107127753949,1.7172764166025287e-06,0.0,0.0,0.0,1.7172764166025287e-06,0.0,24.1813368266023,3.5954851510935666,-0.0003308481814968791,0.0
8638,1.7241379310344829,6.551724137931035,4.642857142857143,0,238012.02727145853,328159.2423783169,275855.76911491295,68345.38827930312,8978.834647774234,1.5867468484763903e-06,0.0,0.0,0.0,1.5867468484763903e-06,0.0,23.18793031270094,3.8970746494606723,0.00029976766705260515,0.0
8639,1.7241379310344829,6.551724137931035,5.0,0,99777.77693763618,270960.32682916813,164212.20355466788,180046.5075522401,50049.23490719442,6.651851795842412e-07,0.0,0.0,0.0,6.651851795842412e-07,0.0,24.07598476402483,4.200123070458402,0.0016691098507991364,0.0
8640,2.0689655172413794,6.551724137931035,0.0,0,157501.76833688674,301633.4102147095,177501.55231700873,124457.67099586043,20915.672048479915,1.0500117889125784e-06,0.0,0.0,0.0,1.0500117889125784e-06,0.0,24.779328572714604,-0.049870977046245824,0.0006975242342252808,0.0
8641,2.0689655172413794,6.551724137931035,0.35714285714285715,0,133101.70908847637,276960.7467889891,246513.1622360435,131273.2683449018,-6698.297971430951,8.873447272565092e-07,0.0,0.0,0.0,8.873447272565092e-07,0.0,24.055193374521103,0.25424875517879925,-0.00022362959502955103,0.0
8642,2.0689655172413794,6.551724137931035,0.7142857142857143,0,104906.73216606825,277956.9160480941,248364.76748203888,161432.5221524996,-41580.00092620533,6.99378214440455e-07,0.0,0.0,0.0,6.99378214440455e-07,0.0,23.73658525797463,0.5598979731110191,-0.0013932062428618592,0.0
8643,2.0689655172413794,6.551724137931035,1.0714285714285714,0,211562.27454205643,311631.1804229847,173064.3861530854,68112.22820890947,26964.81687539087,1.4104151636137096e-06,0.0,0.0,0.0,1.4104151636137096e-06,0.0,23.79433050232677,0.8693977340119609,0.0009141959334817474,0.0
8644,2.0689655172413794,6.551724137931035,1.4285714285714286,0,122653.52549403017,359308.3662350207,293089.9273581559,217777.62642056745,22648.09131172052,8.176901699602011e-07,0.0,0.0,0.0,8.176901699602011e-07,0.0,23.991324273995684,1.185491538307449,0.0007973874456762829,0.0
8645,2.0689655172413794,6.551724137931035,1.7857142857142858,0,314661.00872690044,588290.8654246851,261048.64969091263,287936.62479814596,112899.68687426668,2.0977400581793365e-06,0.0,0.0,0.0,2.0977400581793365e-06,0.0,23.469927357318554,1.5079834021015954,0.004459255202150426,0.0
8646,2.0689655172413794,6.551724137931035,2.142857142857143,0,351879.07460954686,738199.9043038259,602295.5432746401,338635.9226753288,274497.30240170687,2.345860497396979e-06,0.0,0.0,0.0,2.345860497396979e-06,0.0,24.782071357038614,1.8302604596868617,0.014714454087498545,0.0
8647,2.0689655172413794,6.551724137931035,2.5,0,336723.2354920928,827773.4773292441,618358.9199201692,439355.61602487776,539829.3160044479,2.244821569947285e-06,0.0,0.0,0.0,2.244821569947285e-06,0.0,24.54762065704863,2.1418355447212565,0.05398293160044479,0.0
8648,2.0689655172413794,6.551724137931035,2.857142857142857,0,357175.2339148306,729097.6060456944,320064.5998373711,478830.1729373216,266675.5524042577,2.3811682260988707e-06,0.0,0.0,0.0,2.3811682260988707e-06,0.0,24.628964539056224,2.4374033168297187,0.014295168432541805,0.0
8649,2.0689655172413794,6.551724137931035,3.2142857142857144,0,255603.27342200413,437588.5779965189,313070.97346815426,143587.33679218014,58215.40725471884,1.704021822813361e-06,0.0,0.0,0.0,1.704021822813361e-06,0.0,23.343284907886027,2.72226911638731,0.0022993629551427996,0.0
8650,2.0689655172413794,6.551724137931035,3.5714285714285716,0,189455.90464520187,330763.84796483436,405054.4728347218,189712.03052035754,-49500.37348276985,1.2630393643013458e-06,0.0,0.0,0.0,1.2630393643013458e-06,0.0,24.164065055055975,3.0069201097360208,-0.0017427948266449012,0.0
8651,2.0689655172413794,6.551724137931035,3.928571428571429,0,202900.72958289596,431293.7048404349,227129.82682573432,229680.1665755105,9957.933701526461,1.3526715305526397e-06,0.0,0.0,0.0,1.3526715305526397e-06,0.0,24.64358828131902,3.29796916258339,0.00033760668718371836,0.0
8652,2.0689655172413794,6.551724137931035,4.285714285714286,0,163120.13125142895,243354.19464816788,345351.82092063193,157219.7135208606,11387.82614622386,1.087467541676193e-06,0.0,0.0,0.0,1.087467541676193e-06,0.0,23.63582183894216,3.5956122588253048,0.0003815678241013574,0.0
8653,2.0689655172413794,6.551724137931035,4.642857142857143,0,167059.63261872885,280208.5627709122,122026.57394955042,105499.76321864907,-14951.601814963204,1.113730884124859e-06,0.0,0.0,0.0,1.113730884124859e-06,0.0,24.077876988391687,3.8971058980359423,-0.0004991746669354316,0.0
8654,2.0689655172413794,6.551724137931035,5.0,0,19771.27774685015,273695.25934040535,252228.7301643663,256231.87457561406,17998.756032691992,1.3180851831233436e-07,0.0,0.0,0.0,1.3180851831233436e-07,0.0,23.56901075048051,4.200129022953754,0.0006002469578606517,0.0
8655,2.413793103448276,6.551724137931035,0.0,0,192392.7543257056,273820.93379255757,55634.023389158756,128522.14730531775,25135.106231383153,1.2826183621713708e-06,0.0,0.0,0.0,1.2826183621713708e-06,0.0,24.55524542215091,-0.04986517726846455,0.0008382396552010775,0.0
8656,2.413793103448276,6.551724137931035,0.35714285714285715,0,70457.88565572929,269030.85244749405,201669.07090555402,195839.12212966318,40341.310468637006,4.6971923770486195e-07,0.0,0.0,0.0,4.6971923770486195e-07,0.0,24.035699459398,0.25427920203878646,0.0013468363099910627,0.0
8657,2.413793103448276,6.551724137931035,0.7142857142857143,0,189667.84381660787,305180.06702633115,238815.6575641218,91247.44086946515,-29479.326390086477,1.2644522921107191e-06,0.0,0.0,0.0,1.2644522921107191e-06,0.0,24.10151534225889,0.5600218197593247,-0.000987753262317665,0.0
8658,2.413793103448276,6.551724137931035,1.0714285714285714,0,69974.18843285758,195931.23973846727,258350.58410598352,182708.30977713238,20124.038015247093,4.6649458955238387e-07,0.0,0.0,0.0,4.6649458955238387e-07,0.0,23.588177157755137,0.8697880682047247,0.0006822710424397908,0.0
8659,2.413793103448276,6.551724137931035,1.4285714285714286,0,284089.00094924564,417839.9205853027,186920.80040097955,100603.67598694233,50648.74360823864,1.893926672994971e-06,0.0,0.0,0.0,1.893926672994971e-06,0.0,24.93121924037129,1.186444772312842,0.001783226309741432,0.0
8660,2.413793103448276,6.551724137931035,1.7857142857142858,0,289526.1494895653,558435.9644129042,450022.9162214845,230349.26674736876,34827.84555615719,1.9301743299304353e-06,0.0,0.0,0.0,1.9301743299304353e-06,0.0,24.187419635916847,1.509787138413932,0.001375612774275857,0.0
8661,2.413793103448276,6.551724137931035,2.142857142857143,0,306149.7364846414,551889.4820076402,435721.4990292188,204657.7584718868,379459.1069198778,2.0409982432309424e-06,0.0,0.0,0.0,2.0409982432309424e-06,0.0,24.56244527478393,1.8329050424407223,0.020340941634044356,0.0
8662,2.413793103448276,6.551724137931035,2.5,0,175193.90692278103,471999.9399147208,576561.8636666964,674257.5936425846,435898.7452475284,1.1679593794852067e-06,0.0,0.0,0.0,1.1679593794852067e-06,0.0,24.36345147115986,2.1448399039921795,0.04358987452475284,0.0
8663,2.413793103448276,6.551724137931035,2.857142857142857,0,286507.1085661599,590933.1076319816,450468.2899752617,261300.33351968517,282128.16731477744,1.9100473904410662e-06,0.0,0.0,0.0,1.9100473904410662e-06,0.0,23.721630959829273,2.4400478995835795,0.015123507329293106,0.0
8664,2.413793103448276,6.551724137931035,3.2142857142857144,0,335009.6051809905,471660.37981999305,234337.46815124445,88443.0465961273,-33394.910420547676,2.2333973678732697e-06,0.0,0.0,0.0,2.2333973678732697e-06,0.0,23.36030243251081,2.724072852699647,-0.0013190154210438055,0.0
8665,2.413793103448276,6.551724137931035,3.5714285714285716,0,329165.87726334314,524641.146830632,350881.4085264422,145005.68035734002,-60267.7279655804,2.194439181755621e-06,0.0,0.0,0.0,2.194439181755621e-06,0.0,24.089934915425655,3.0078733437414136,-0.0021218887277409375,0.0
8666,2.413793103448276,6.551724137931035,3.928571428571429,0,157797.0112108276,330138.3030433587,211308.36775660922,151101.08994839483,-46066.12236212671,1.0519800747388507e-06,0.0,0.0,0.0,1.0519800747388507e-06,0.0,24.743607452310403,3.298359496776154,-0.0015617929811777508,0.0
8667,2.413793103448276,6.551724137931035,4.285714285714286,0,130958.92010722215,184545.500139883,265181.7502951559,114077.41160624931,41010.80933242537,8.73059467381481e-07,0.0,0.0,0.0,8.73059467381481e-07,0.0,23.210326659223355,3.5957361054736108,0.0013741345433867652,0.0
8668,2.413793103448276,6.551724137931035,4.642857142857143,0,187115.25277468076,248377.61679754904,261882.6751657538,68380.77417605146,-22346.082511664008,1.2474350184978717e-06,0.0,0.0,0.0,1.2474350184978717e-06,0.0,25.17394546433666,3.8971363448959297,-0.0007460470411878077,0.0
8669,2.413793103448276,6.551724137931035,5.0,0,127088.62116357875,284995.35002415394,145877.55298140744,174986.52518962743,-22268.585617783043,8.472574744238583e-07,0.0,0.0,0.0,8.472574744238583e-07,0.0,24.621424744159327,4.200134822731536,-0.0007426430331438046,0.0
8670,2.7586206896551726,6.551724137931035,0.0,0,101303.19155201464,297756.7312953937,267290.29625147453,184716.64351162603,11568.935422123923,6.753546103467643e-07,0.0,0.0,0.0,6.753546103467643e-07,0.0,24.316464084485304,-0.049859580724213204,0.0003858165686674739,0.0
8671,2.7586206896551726,6.551724137931035,0.35714285714285715,0,198582.73971011653,208905.91041110753,226941.62910479814,19956.24931791339,-21074.89795393183,1.3238849314007768e-06,0.0,0.0,0.0,1.3238849314007768e-06,0.0,24.167929084940837,0.25430858199189144,-0.0007036072319906159,0.0
8672,2.7586206896551726,6.551724137931035,0.7142857142857143,0,186785.52297113815,276663.3496670424,139843.97960459042,63861.22517520285,34266.659756647176,1.2452368198075877e-06,0.0,0.0,0.0,1.2452368198075877e-06,0.0,24.65995183792165,0.5601413266221331,0.0011481607318795455,0.0
8673,2.7586206896551726,6.551724137931035,1.0714285714285714,0,134361.1999061715,250898.07463542835,231358.14622901095,107836.79249053884,54782.038493143256,8.9574133270781e-07,0.0,0.0,0.0,8.9574133270781e-07,0.0,23.62496761744631,0.8701647244603615,0.0018572911898385054,0.0
8674,2.7586206896551726,6.551724137931035,1.4285714285714286,0,143799.71751561822,265280.5712072718,168651.89310235382,100023.79895221647,-71353.16062126723,9.58664783437455e-07,0.0,0.0,0.0,9.58664783437455e-07,0.0,24.46125743852634,1.1873646034674605,-0.002512181433111661,0.0
8675,2.7586206896551726,6.551724137931035,1.7857142857142858,0,259473.28235622274,512981.0434843236,498045.1955007243,246362.44017550923,76739.90364237202,1.7298218823748183e-06,0.0,0.0,0.0,1.7298218823748183e-06,0.0,24.398878964148835,1.5115276689084567,0.0030310342216526417,0.0
8676,2.7586206896551726,6.551724137931035,2.142857142857143,0,252338.8916052064,834347.1434344505,623358.5405255571,554819.0139509132,123632.23988695955,1.6822592773680425e-06,0.0,0.0,0.0,1.6822592773680425e-06,0.0,25.147232815303113,1.8354569547667678,0.00662731801600379,0.0
8677,2.7586206896551726,6.551724137931035,2.5,0,623775.9641294213,993129.7025702181,582994.3749961036,275287.0264899093,374896.6870620606,4.158506427529475e-06,0.0,0.0,0.0,4.158506427529475e-06,0.0,24.071633020425825,2.147738985688204,0.037489668706206056,0.0
8678,2.7586206896551726,6.551724137931035,2.857142857142857,0,251486.9134322905,805519.9632338692,688532.1887640965,516849.91933596623,307016.9574715599,1.6765794228819365e-06,0.0,0.0,0.0,1.6765794228819365e-06,0.0,24.281314980674306,2.442599811909625,0.01645767330051062,0.0
8679,2.7586206896551726,6.551724137931035,3.2142857142857144,0,340461.83884118707,439152.4045700503,187068.3690396096,51854.77829060483,5348.162654860993,2.2697455922745804e-06,0.0,0.0,0.0,2.2697455922745804e-06,0.0,24.23043853152615,2.7258133831941715,0.00021123904592574555,0.0
8680,2.7586206896551726,6.551724137931035,3.5714285714285716,0,212549.91706149926,389082.4142371251,187282.10836640914,167207.28597333678,13161.760963766323,1.4169994470766617e-06,0.0,0.0,0.0,1.4169994470766617e-06,0.0,24.010014904626463,3.008793174896032,0.0004633954716558478,0.0
8681,2.7586206896551726,6.551724137931035,3.928571428571429,0,198178.495799834,311050.7450116659,190271.59672496238,82334.06609359679,1097.6449239627996,1.3211899719988933e-06,0.0,0.0,0.0,1.3211899719988933e-06,0.0,25.0123187013327,3.2987361530317907,3.721377120901094e-05,0.0
8682,2.7586206896551726,6.551724137931035,4.285714285714286,0,170773.78003437858,291956.97951143386,326176.88575315865,140884.19731194302,-46857.06466809974,1.1384918668958571e-06,0.0,0.0,0.0,1.1384918668958571e-06,0.0,23.79060816091612,3.5958556123364187,-0.0015700229332278692,0.0
8683,2.7586206896551726,6.551724137931035,4.642857142857143,0,203595.9005671625,248760.04614747418,137722.08791587164,13785.725507460862,18633.42565734712,1.3573060037810834e-06,0.0,0.0,0.0,1.3573060037810834e-06,0.0,23.523848159389363,3.897165724849035,0.0006220961580894846,0.0
8684,2.7586206896551726,6.551724137931035,5.0,0,191617.5985228116,255218.15904653966,101602.37431188149,40501.06802329861,8472.966252893457,1.277450656818744e-06,0.0,0.0,0.0,1.277450656818744e-06,0.0,24.40936253408392,4.200140419275787,0.0002825679845939104,0.0
8685,3.1034482758620694,6.551724137931035,0.0,0,159889.41640430706,286477.7280245339,116062.45367987058,139759.10662471043,1096.100772394845,1.0659294426953805e-06,0.0,0.0,0.0,1.0659294426953805e-06,0.0,23.937512176031053,-0.049854259600803745,3.65542570244124e-05,0.0
8686,3.1034482758620694,6.551724137931035,0.35714285714285715,0,296856.4279549888,420147.36710725905,248829.4667561847,77367.10007395921,-18298.41051468159,1.9790428530332587e-06,0.0,0.0,0.0,1.9790428530332587e-06,0.0,24.431675201848822,0.254336516079288,-0.0006109113315854084,0.0
8687,3.1034482758620694,6.551724137931035,0.7142857142857143,0,180864.6792800147,300329.49353895854,164621.74046707843,94999.84994497006,11041.874380945537,1.2057645285334313e-06,0.0,0.0,0.0,1.2057645285334313e-06,0.0,24.626033907159357,0.5602549522340678,0.0003699761418411707,0.0
8688,3.1034482758620694,6.551724137931035,1.0714285714285714,0,52994.57297203525,256161.22757627926,194998.68283705067,223911.99080213925,-37573.263720013274,3.5329715314690163e-07,0.0,0.0,0.0,3.5329715314690163e-07,0.0,24.387134652590248,0.8705228444589131,-0.0012738571546473925,0.0
8689,3.1034482758620694,6.551724137931035,1.4285714285714286,0,141034.77962957614,282682.6232634377,289141.3911568611,144988.18983658665,-29923.462178217815,9.402318641971742e-07,0.0,0.0,0.0,9.402318641971742e-07,0.0,24.330796743023345,1.1882391672821586,-0.0010535365980148608,0.0
8690,3.1034482758620694,6.551724137931035,1.7857142857142858,0,139722.2257322954,438033.92870072793,324710.8554562763,281920.3374671921,66765.37368560616,9.314815048819693e-07,0.0,0.0,0.0,9.314815048819693e-07,0.0,23.292639929472138,1.513182543263654,0.0026370652406026898,0.0
8691,3.1034482758620694,6.551724137931035,2.142857142857143,0,743672.0995138001,1033218.9094554317,533236.4272328562,178610.9883739521,345622.7395611435,4.957813996758668e-06,0.0,0.0,0.0,4.957813996758668e-06,0.0,24.60804258664189,1.837883280693472,0.018527139933147443,0.0
8692,3.1034482758620694,6.551724137931035,2.5,0,625327.9519586291,779284.61734934,683494.133498312,111588.45181733204,448259.28741876286,4.168853013057527e-06,0.0,0.0,0.0,4.168853013057527e-06,0.0,24.431125860277664,2.150495395855945,0.044825928741876284,0.0
8693,3.1034482758620694,6.551724137931035,2.857142857142857,0,511758.28004286427,850333.1202305197,441849.45400938304,276290.85713732557,304369.0001258177,3.4117218669524286e-06,0.0,0.0,0.0,3.4117218669524286e-06,0.0,25.27485683568702,2.445026137836329,0.0163157292943267,0.0
8694,3.1034482758620694,6.551724137931035,3.2142857142857144,0,354148.42592516687,449289.1434850164,323910.9668503578,49507.57200750203,61131.39289680249,2.360989506167779e-06,0.0,0.0,0.0,2.360989506167779e-06,0.0,24.91109373298859,2.7274682575493685,0.002414537093387653,0.0
8695,3.1034482758620694,6.551724137931035,3.5714285714285716,0,234691.03591217523,356858.0672219425,253811.08798327728,88272.66848479738,18313.834771109352,1.564606906081168e-06,0.0,0.0,0.0,1.564606906081168e-06,0.0,23.606224927473693,3.0096677387107302,0.000644788195511872,0.0
8696,3.1034482758620694,6.551724137931035,3.928571428571429,0,180824.80745484494,338046.09287956165,254956.9890236338,130610.72864905979,-20001.58075086951,1.205498716365633e-06,0.0,0.0,0.0,1.205498716365633e-06,0.0,24.88230298326473,3.2990942730303425,-0.0006781193386237913,0.0
8697,3.1034482758620694,6.551724137931035,4.285714285714286,0,127178.14223307688,250863.48708858993,153394.4864120089,107002.09627138058,-4223.669301784917,8.478542815538459e-07,0.0,0.0,0.0,8.478542815538459e-07,0.0,23.706878659484428,3.5959692379483537,-0.0001415209790272547,0.0
8698,3.1034482758620694,6.551724137931035,4.642857142857143,0,189791.25112114317,246156.7691967078,27074.21544071533,131835.84986939316,-1079.5638999265923,1.265275007474288e-06,0.0,0.0,0.0,1.265275007474288e-06,0.0,24.778271563229776,3.8971936589364313,-3.604235565195852e-05,0.0
8699,3.1034482758620694,6.551724137931035,5.0,0,200070.2227090414,375967.7512120575,235984.26606647452,146817.0882806581,42300.37669865839,1.3338014847269427e-06,0.0,0.0,0.0,1.3338014847269427e-06,0.0,25.092955240786978,4.200145740399196,0.0014106904045819064,0.0
8700,3.4482758620689657,6.551724137931035,0.0,0,261928.22955907622,340491.2491265914,251913.2964313623,45758.95152206366,-31419.953817162415,1.7461881970605082e-06,0.0,0.0,0.0,1.7461881970605082e-06,0.0,25.3065145505985,-0.049849317810151256,-0.001047835287095291,0.0
8701,3.4482758620689657,6.551724137931035,0.35714285714285715,0,233759.0585968911,329523.42441888794,210553.77691405563,60210.1833690601,-39941.93551450509,1.558393723979274e-06,0.0,0.0,0.0,1.558393723979274e-06,0.0,24.179710170531955,0.2543624587987778,-0.0013335027647175628,0.0
8702,3.4482758620689657,6.551724137931035,0.7142857142857143,0,300037.4924012568,330381.5563850446,215122.7132655628,-10194.938244030667,85617.92051264888,2.000249949341712e-06,0.0,0.0,0.0,2.000249949341712e-06,0.0,24.735484670632662,0.5603604776924599,0.0028687690885522764,0.0
8703,3.4482758620689657,6.551724137931035,1.0714285714285714,0,198346.16006565487,321104.65889160393,172662.46653642162,95837.59004548822,9274.493163945019,1.3223077337710325e-06,0.0,0.0,0.0,1.3223077337710325e-06,0.0,24.891957217807125,0.8708554347645933,0.0003144358062865538,0.0
8704,3.4482758620689657,6.551724137931035,1.4285714285714286,0,260397.08059898627,479659.1545640937,273409.21812756703,187054.99916575645,23040.72628792695,1.735980537326575e-06,0.0,0.0,0.0,1.735980537326575e-06,0.0,24.627258087318477,1.1890513851075906,0.0008112112243096017,0.0
8705,3.4482758620689657,6.551724137931035,1.7857142857142858,0,131916.5752386586,493844.02780458325,426214.2186720636,341827.43327485083,83004.04862185224,8.794438349243907e-07,0.0,0.0,0.0,8.794438349243907e-07,0.0,23.560962566104315,1.5147194447767873,0.0032784522779833055,0.0
8706,3.4482758620689657,6.551724137931035,2.142857142857143,0,428113.72831057716,809047.4283257088,515911.57622346084,317755.12900341704,329543.69232431956,2.8540915220705145e-06,0.0,0.0,0.0,2.8540915220705145e-06,0.0,24.47864473237844,1.8401366384643476,0.017665221071771067,0.0
8707,3.4482758620689657,6.551724137931035,2.5,0,432624.1691606359,605767.5624742127,1022602.1013365653,575751.6187187864,569141.1874886799,2.8841611277375725e-06,0.0,0.0,0.0,2.8841611277375725e-06,0.0,24.69067164488536,2.1530553067907623,0.05691411874886799,0.0
8708,3.4482758620689657,6.551724137931035,2.857142857142857,0,297657.66463129444,605638.5009850847,280877.102501886,345802.11512036447,329875.3038223268,1.9843844308752964e-06,0.0,0.0,0.0,1.9843844308752964e-06,0.0,24.410089958762587,2.4472794956072046,0.01768299713776378,0.0
8709,3.4482758620689657,6.551724137931035,3.2142857142857144,0,159386.2595206735,371974.0199840378,358636.9214040401,206338.2694382703,106739.77477350307,1.0625750634711568e-06,0.0,0.0,0.0,1.0625750634711568e-06,0.0,23.986285440797985,2.7290051590625017,0.004215954083780535,0.0
8710,3.4482758620689657,6.551724137931035,3.5714285714285716,0,306942.3202759813,428827.040684443,158956.04556291315,94917.11644906874,10016.26674937475,2.046282135173209e-06,0.0,0.0,0.0,2.046282135173209e-06,0.0,24.319913458342832,3.010479956536162,0.00035264982150451585,0.0
8711,3.4482758620689657,6.551724137931035,3.928571428571429,0,244146.28107780358,143947.2283731333,257600.41864445922,-22653.168638491563,31719.89500933446,1.627641873852024e-06,0.0,0.0,0.0,1.627641873852024e-06,0.0,24.87568874663589,3.2994268633360226,0.0010754087135843454,0.0
8712,3.4482758620689657,6.551724137931035,4.285714285714286,0,132471.02929490875,262470.9610398092,109523.91106669312,184004.0643258964,54008.442995375466,8.831401952993916e-07,0.0,0.0,0.0,8.831401952993916e-07,0.0,24.62659073722383,3.5960747634067456,0.0018096416130905784,0.0
8713,3.4482758620689657,6.551724137931035,4.642857142857143,0,11177.896279072605,114169.93300524999,123262.64577254305,110782.98641193072,5574.418739455627,7.45193085271507e-08,0.0,0.0,0.0,7.45193085271507e-08,0.0,24.667292739210094,3.897219601655921,0.00018610772625322477,0.0
8714,3.4482758620689657,6.551724137931035,5.0,0,64568.955482650286,237177.36805908958,163106.2925696005,192775.9057971318,13677.059018836308,4.3045970321766855e-07,0.0,0.0,0.0,4.3045970321766855e-07,0.0,24.314990831406444,4.200150682189849,0.000456121137128898,0.0
8715,3.793103448275862,6.551724137931035,0.0,0,182570.41801445285,261052.71288455275,218023.85762525673,60811.270662040326,-16784.139169655864,1.2171361200963522e-06,0.0,0.0,0.0,1.2171361200963522e-06,0.0,24.651576279965713,-0.049844903834056674,-0.0005597402653048195,0.0
8716,3.793103448275862,6.551724137931035,0.35714285714285715,0,174981.74891243718,369726.9875891161,168191.74546535942,256458.48299669125,-4772.25916117809,1.1665449927495813e-06,0.0,0.0,0.0,1.1665449927495813e-06,0.0,23.389870427259762,0.2543856306714265,-0.0001593268003516918,0.0
8717,3.793103448275862,6.551724137931035,0.7142857142857143,0,187353.69195378508,313498.7199561965,169311.36326291724,101730.74005029515,10252.950278646278,1.2490246130252338e-06,0.0,0.0,0.0,1.2490246130252338e-06,0.0,24.42579015392365,0.5604547323631786,0.0003435419436693568,0.0
8718,3.793103448275862,6.551724137931035,1.0714285714285714,0,152223.10735717101,249383.77703757488,198646.5533653755,78271.64042592737,-11455.911618902413,1.0148207157144734e-06,0.0,0.0,0.0,1.0148207157144734e-06,0.0,24.26207035264143,0.871152502317995,-0.0003883930628835423,0.0
8719,3.793103448275862,6.551724137931035,1.4285714285714286,0,261979.27842028975,421895.3825291811,226581.28168655004,124182.23039976569,7587.295386551377,1.7465285228019317e-06,0.0,0.0,0.0,1.7465285228019317e-06,0.0,24.470850109386333,1.1897768529222248,0.00026713130058526077,0.0
8720,3.793103448275862,6.551724137931035,1.7857142857142858,0,282185.4441392928,499931.4734146984,496904.3991122779,216244.6694574959,69477.40968872461,1.8812362942619522e-06,0.0,0.0,0.0,1.8812362942619522e-06,0.0,23.875609461449628,1.516092195468941,0.0027441838783079796,0.0
8721,3.793103448275862,6.551724137931035,2.142857142857143,0,410544.29272360425,743610.3846781325,617894.9213438919,284907.56589116756,390601.2039858424,2.736961951490695e-06,0.0,0.0,0.0,2.736961951490695e-06,0.0,24.65187154574309,1.8421493233457185,0.020938214810433023,0.0
8722,3.793103448275862,6.551724137931035,2.5,0,360030.11823362065,659537.1210901386,551521.8184498709,257864.10360310655,426066.1116279914,2.400200788224138e-06,0.0,0.0,0.0,2.400200788224138e-06,0.0,25.432675566197357,2.1553418030155322,0.042606611162799145,0.0
8723,3.793103448275862,6.551724137931035,2.857142857142857,0,709662.4647582065,591926.127909245,826191.7503192609,29014.435052696128,309380.1223707956,4.731083098388043e-06,0.0,0.0,0.0,4.731083098388043e-06,0.0,24.516597757162952,2.4492921804885754,0.016584350980424954,0.0
8724,3.793103448275862,6.551724137931035,3.2142857142857144,0,288129.44240738184,415949.5878558087,397693.05773754336,119125.99799451765,22377.24175885672,1.9208629493825458e-06,0.0,0.0,0.0,1.9208629493825458e-06,0.0,24.504212140774385,2.7303779097546554,0.0008838450706607214,0.0
8725,3.793103448275862,6.551724137931035,3.5714285714285716,0,159449.34464853196,350987.7090643414,176036.86260038675,213830.85569991262,31010.68339594516,1.0629956309902131e-06,0.0,0.0,0.0,1.0629956309902131e-06,0.0,25.739555342101877,3.0112054243507966,0.0010918151680610712,0.0
8726,3.793103448275862,6.551724137931035,3.928571428571429,0,208866.65188856312,303908.1670398684,224824.9107133456,67047.86972000304,25493.084234535698,1.3924443459237543e-06,0.0,0.0,0.0,1.3924443459237543e-06,0.0,24.016661681509156,3.2997239308894244,0.0008642993589320399,0.0
8727,3.793103448275862,6.551724137931035,4.285714285714286,0,317050.74748260784,380156.77500744903,234429.3568929939,16442.90489379116,48727.25510186063,2.1136716498840523e-06,0.0,0.0,0.0,2.1136716498840523e-06,0.0,24.74260786470743,3.596169018077464,0.0016326867362489528,0.0
8728,3.793103448275862,6.551724137931035,4.642857142857143,0,223621.0810498792,311830.91968419944,162855.4477164332,54692.91829152308,-12325.063785712193,1.4908072069991947e-06,0.0,0.0,0.0,1.4908072069991947e-06,0.0,25.29008161631591,3.8972427735285695,-0.00041148498243403586,0.0
8729,3.793103448275862,6.551724137931035,5.0,0,27666.073006817853,132721.0954377922,141698.14922739856,110658.33282412779,4213.599843014167,1.8444048671211901e-07,0.0,0.0,0.0,1.8444048671211901e-07,0.0,24.30945262802284,4.200155096165943,0.000140520849486346,0.0
8730,4.137931034482759,6.551724137931035,0.0,0,207759.96131426468,312472.08142999257,212947.85763724317,73671.88293691426,23870.74079623964,1.3850664087617645e-06,0.0,0.0,0.0,1.3850664087617645e-06,0.0,24.919258675764183,-0.04984122224463713,0.0007960738797057838,0.0
8731,4.137931034482759,6.551724137931035,0.35714285714285715,0,98767.11669677812,210823.8336036788,186462.85426938385,102155.77813139491,19557.364053377925,6.584474446451875e-07,0.0,0.0,0.0,6.584474446451875e-07,0.0,24.58095815033151,0.25440495776322464,0.0006529427955812594,0.0
8732,4.137931034482759,6.551724137931035,0.7142857142857143,0,202851.50372053866,240334.79646879653,296640.8187201311,71584.38848916267,-74103.47291500011,1.3523433581369245e-06,0.0,0.0,0.0,1.3523433581369245e-06,0.0,23.96498029339209,0.5605333478769525,-0.002482958604694405,0.0
8733,4.137931034482759,6.551724137931035,1.0714285714285714,0,74001.29103797747,257047.2025714141,260320.28585929584,184736.76138555733,-20900.89634768821,4.933419402531831e-07,0.0,0.0,0.0,4.933419402531831e-07,0.0,24.424876327567542,0.871400279092962,-0.0007086090936748887,0.0
8734,4.137931034482759,6.551724137931035,1.4285714285714286,0,120687.5952301975,309331.9941075787,203947.12616475465,177671.09903331156,24816.11944311001,8.045839682013167e-07,0.0,0.0,0.0,8.045839682013167e-07,0.0,24.495871546999684,1.1903819478691287,0.0008737187528071556,0.0
8735,4.137931034482759,6.551724137931035,1.7857142857142858,0,52485.66480275307,370381.07511420106,401145.68450681964,430983.9405818747,43097.33887230723,3.499044320183538e-07,0.0,0.0,0.0,3.499044320183538e-07,0.0,24.198527795343725,1.5172371732204346,0.0017022370733339915,0.0
8736,4.137931034482759,6.551724137931035,2.142857142857143,0,512924.7578322244,787740.2114464118,721681.8523924312,244986.56998281047,346908.25260574394,3.419498385548163e-06,0.0,0.0,0.0,3.419498385548163e-06,0.0,23.71793370357154,1.8438280545407626,0.018596049982565605,0.0
8737,4.137931034482759,6.551724137931035,2.5,0,305015.68365710723,639326.6296049447,375166.54468449106,305506.27280986175,606701.0947828459,2.0334378910473815e-06,0.0,0.0,0.0,2.0334378910473815e-06,0.0,24.320013317535686,2.157248913550023,0.06067010947828459,0.0
8738,4.137931034482759,6.551724137931035,2.857142857142857,0,393500.1017842092,810930.5405079855,375019.4948208305,481941.2377137493,269326.7672325679,2.623334011894728e-06,0.0,0.0,0.0,2.623334011894728e-06,0.0,23.78316235084553,2.4509709116836196,0.01443728705638961,0.0
8739,4.137931034482759,6.551724137931035,3.2142857142857144,0,449683.9086534789,739461.4062732888,356482.8618279264,244309.1735619203,84511.17810498817,2.997892724356526e-06,0.0,0.0,0.0,2.997892724356526e-06,0.0,24.806287434514417,2.731522887506149,0.0033379801223383807,0.0
8740,4.137931034482759,6.551724137931035,3.5714285714285716,0,181698.6891379324,261825.05499770818,252192.7899131206,75501.82001463338,56416.005433748025,1.2113245942528828e-06,0.0,0.0,0.0,1.2113245942528828e-06,0.0,24.814770792425247,3.0118105192977005,0.001986278395336362,0.0
8741,4.137931034482759,6.551724137931035,3.928571428571429,0,115347.59347015571,289434.6910269053,211624.60616687094,156912.02023602868,31454.338499826477,7.689839564677047e-07,0.0,0.0,0.0,7.689839564677047e-07,0.0,23.90754749329683,3.2999717076643913,0.0010664054749484704,0.0
8742,4.137931034482759,6.551724137931035,4.285714285714286,0,45032.36295655379,147544.6407558543,190003.89023123114,142777.67314105193,-22952.209925380863,3.0021575304369194e-07,0.0,0.0,0.0,3.0021575304369194e-07,0.0,24.59064274104033,3.596247633591238,-0.0007690515017608695,0.0
8743,4.137931034482759,6.551724137931035,4.642857142857143,0,235008.77682716036,279064.61980717134,188491.60942192437,12245.899060887301,-5497.246503424964,1.5667251788477358e-06,0.0,0.0,0.0,1.5667251788477358e-06,0.0,23.88236200145296,3.897262100620368,-0.00018353125145848298,0.0
8744,4.137931034482759,6.551724137931035,5.0,0,222003.94372819742,335039.24030305323,230629.8295839218,80079.12257223799,815.8391253937647,1.4800262915213162e-06,0.0,0.0,0.0,1.4800262915213162e-06,0.0,24.378173871707,4.200158777755363,2.7207711034686383e-05,0.0
8745,4.482758620689656,6.551724137931035,0.0,0,191794.16694983956,350345.78321994963,283793.8502487571,134140.50623619577,-28637.750384904713,1.278627779665597e-06,0.0,0.0,0.0,1.278627779665597e-06,0.0,24.198258432591565,-0.049838530269078814,-0.0009550505889012139,0.0
8746,4.482758620689656,6.551724137931035,0.35714285714285715,0,115246.71518863451,311011.5882909725,184930.35688278123,211100.28400209686,32771.04854397448,7.683114345908967e-07,0.0,0.0,0.0,7.683114345908967e-07,0.0,24.77750967710225,0.2544190897189657,0.0010940952979159831,0.0
8747,4.482758620689656,6.551724137931035,0.7142857142857143,0,197630.54485673338,361895.8068385618,364915.2138984298,165792.26525034988,-19812.00050802631,1.3175369657115558e-06,0.0,0.0,0.0,1.3175369657115558e-06,0.0,23.732484232895235,0.560590831484565,-0.0006638336261788923,0.0
8748,4.482758620689656,6.551724137931035,1.0714285714285714,0,340580.71676254045,477736.7640705251,345713.5173980389,90909.584091485,-3007.6833243899273,2.2705381117502696e-06,0.0,0.0,0.0,2.2705381117502696e-06,0.0,25.03841733160682,0.8715814532941336,-0.00010197035185013761,0.0
8749,4.482758620689656,6.551724137931035,1.4285714285714286,0,350691.2711317489,493839.58810965816,355299.3676600361,95040.53661211247,44052.88899104396,2.3379418075449927e-06,0.0,0.0,0.0,2.3379418075449927e-06,0.0,25.16548970433463,1.1908243928628246,0.0015510013688902272,0.0
8750,4.482758620689656,6.551724137931035,1.7857142857142858,0,161604.86970288097,471886.0953254829,434472.731892443,294855.96591672883,31742.401915570088,1.0773657980192065e-06,0.0,0.0,0.0,1.0773657980192065e-06,0.0,24.484234216048087,1.5180743801358676,0.0012537454690055353,0.0
8751,4.482758620689656,6.551724137931035,2.142857142857143,0,817773.5173502463,554149.7903965439,860056.3226050375,-66569.626772649,268182.7854915665,5.451823449001642e-06,0.0,0.0,0.0,5.451823449001642e-06,0.0,23.888328424963532,1.8450555415935117,0.014375963806005653,0.0
8752,4.482758620689656,6.551724137931035,2.5,0,544325.7381437675,844008.9049521437,589738.9011870738,219078.17880639163,561103.47125578,3.628838254291783e-06,0.0,0.0,0.0,3.628838254291783e-06,0.0,23.519098799537854,2.158643391412922,0.056110347125578,0.0
8753,4.482758620689656,6.551724137931035,2.857142857142857,0,187530.73758784865,632866.8527739259,416506.0628329464,532353.5284519352,262537.62664636737,1.2502049172523244e-06,0.0,0.0,0.0,1.2502049172523244e-06,0.0,25.118181069458615,2.452198398736369,0.014073354527453402,0.0
8754,4.482758620689656,6.551724137931035,3.2142857142857144,0,303141.5372207204,574523.089459089,313435.8441773128,242063.94153120954,136269.43550812162,2.020943581471469e-06,0.0,0.0,0.0,2.020943581471469e-06,0.0,25.567236119299167,2.732360094421582,0.005382301811522541,0.0
8755,4.482758620689656,6.551724137931035,3.5714285714285716,0,164242.51565497264,280958.3142267288,183714.2017578765,91328.13449836054,-29051.67363860337,1.0949501043664842e-06,0.0,0.0,0.0,1.0949501043664842e-06,0.0,24.601794320781142,3.012252964291396,-0.001022842919364189,0.0
8756,4.482758620689656,6.551724137931035,3.928571428571429,0,231444.1063382748,311937.03356413386,229294.3465471736,50515.68080829994,-72438.8250530638,1.5429607089218322e-06,0.0,0.0,0.0,1.5429607089218322e-06,0.0,24.003376556335834,3.300152881865563,-0.0024559142973503588,0.0
8757,4.482758620689656,6.551724137931035,4.285714285714286,0,162962.4562249626,358746.5280834756,233499.94939673386,174501.96989981428,25905.399364405457,1.086416374833084e-06,0.0,0.0,0.0,1.086416374833084e-06,0.0,24.041909728163226,3.5963051171988507,0.0008680029657135728,0.0
8758,4.482758620689656,6.551724137931035,4.642857142857143,0,150238.29681256067,300104.62890953606,226693.2481857696,127275.38175342367,-10951.31275454658,1.001588645417071e-06,0.0,0.0,0.0,1.001588645417071e-06,0.0,25.18502968288849,3.897276232576109,-0.00036562088560208124,0.0
8759,4.482758620689656,6.551724137931035,5.0,0,125477.21173734657,248257.54627430945,213587.13948533914,109090.47990796297,-24730.627824094645,8.365147449156439e-07,0.0,0.0,0.0,8.365147449156439e-07,0.0,24.68342837428231,4.200161469730921,-0.0008247505600072617,0.0
8760,4.827586206896552,6.551724137931035,0.0,0,212610.75103584505,391481.4172318063,230340.9415160418,150509.67760227944,12170.018689330744,1.4174050069056338e-06,0.0,0.0,0.0,1.4174050069056338e-06,0.0,24.069271806837122,-0.0498370942513687,0.00040586230971238275,0.0
8761,4.827586206896552,6.551724137931035,0.35714285714285715,0,172644.19685293795,197910.87009950797,332047.1239642945,137262.05314293582,13297.311117696625,1.1509613123529196e-06,0.0,0.0,0.0,1.1509613123529196e-06,0.0,25.708251775911506,0.25442662832334123,0.00044394446364069115,0.0
8762,4.827586206896552,6.551724137931035,0.7142857142857143,0,149954.66242856943,297220.9296797682,262095.87573186675,132821.50774091444,-24229.04984672273,9.996977495237962e-07,0.0,0.0,0.0,9.996977495237962e-07,0.0,25.0860978670152,0.5606214957594755,-0.0008118341210471428,0.0
8763,4.827586206896552,6.551724137931035,1.0714285714285714,0,264867.8257270731,324967.52192909556,289849.371184582,44292.499260591816,39104.13624440727,1.7657855048471541e-06,0.0,0.0,0.0,1.7657855048471541e-06,0.0,24.842861530904134,0.8716780995510784,0.0013257587656595254,0.0
8764,4.827586206896552,6.551724137931035,1.4285714285714286,0,271851.03470611764,382031.16438329435,281104.95486105414,74151.25705406016,37608.85177709455,1.8123402313741176e-06,0.0,0.0,0.0,1.8123402313741176e-06,0.0,24.2938756321596,1.1910604124079263,0.0013241215712441056,0.0
8765,4.827586206896552,6.551724137931035,1.7857142857142858,0,322973.1429385948,565210.0775285229,205595.80517098447,299846.92229087866,165179.3968718066,2.1531542862572985e-06,0.0,0.0,0.0,2.1531542862572985e-06,0.0,25.197087270971043,1.5185209829862827,0.006524172964350018,0.0
8766,4.827586206896552,6.551724137931035,2.142857142857143,0,576889.5092742398,906913.2363716821,272556.582856537,413680.27884152037,267767.0547920828,3.845930061828265e-06,0.0,0.0,0.0,3.845930061828265e-06,0.0,25.02327490570262,1.8457103369690635,0.014353678522191224,0.0
8767,4.827586206896552,6.551724137931035,2.5,0,559319.9317084745,944254.1400674095,1061837.679878085,453073.7566953598,563581.3679931506,3.7287995447231635e-06,0.0,0.0,0.0,3.7287995447231635e-06,0.0,24.533819578625426,2.1593872670032117,0.05635813679931506,0.0
8768,4.827586206896552,6.551724137931035,2.857142857142857,0,450640.208810589,748741.5227579653,479798.33185124403,228486.6100842582,323694.30681529175,3.0042680587372597e-06,0.0,0.0,0.0,3.0042680587372597e-06,0.0,25.13597654608925,2.4528531941119205,0.01735166420341718,0.0
8769,4.827586206896552,6.551724137931035,3.2142857142857144,0,193238.04310731913,501047.9217530332,314572.422923457,301691.8065567195,39627.45981343615,1.288253620715461e-06,0.0,0.0,0.0,1.288253620715461e-06,0.0,25.119408798551824,2.732806697271997,0.0015651855307434823,0.0
8770,4.827586206896552,6.551724137931035,3.5714285714285716,0,190453.51244209806,334244.07065655943,285284.319740307,124090.42889259163,20142.257153165843,1.2696900829473203e-06,0.0,0.0,0.0,1.2696900829473203e-06,0.0,24.738242208635537,3.012488983836498,0.0007091627616851754,0.0
8771,4.827586206896552,6.551724137931035,3.928571428571429,0,144772.07614004257,379313.16146787605,265461.71196185687,216381.11796955744,15887.888646310004,9.651471742669504e-07,0.0,0.0,0.0,9.651471742669504e-07,0.0,24.032567840082887,3.300249528122508,0.0005386516533447397,0.0
8772,4.827586206896552,6.551724137931035,4.285714285714286,0,191853.71602269466,276944.7976146931,265709.84416350524,79720.48328295058,15236.337268068195,1.279024773484631e-06,0.0,0.0,0.0,1.279024773484631e-06,0.0,24.100063159523053,3.5963357814737615,0.0005105185119619155,0.0
8773,4.827586206896552,6.551724137931035,4.642857142857143,0,260994.61499321437,370756.9665463695,334462.79648841056,93514.84302705312,-10351.790927121621,1.7399640999547626e-06,0.0,0.0,0.0,1.7399640999547626e-06,0.0,23.823083937867793,3.8972837711804846,-0.0003456052302743774,0.0
8774,4.827586206896552,6.551724137931035,5.0,0,200429.05788972465,318203.08360450773,317045.2337557566,117197.60908063821,-6635.476839065892,1.336193719264831e-06,0.0,0.0,0.0,1.336193719264831e-06,0.0,25.282515717755658,4.200162905748631,-0.00022128889237510305,0.0
8775,5.172413793103448,6.551724137931035,0.0,0,112830.71852586341,294480.0366376762,176807.66562512505,187211.62148753632,-18643.410276707866,7.522047901724228e-07,0.0,0.0,0.0,7.522047901724228e-07,0.0,23.823521863186567,-0.0498370942513687,-0.0006217457630080546,0.0
8776,5.172413793103448,6.551724137931035,0.35714285714285715,0,212787.5182620829,369486.58652327623,293879.9948471659,129220.30542747649,-24688.335195512132,1.4185834550805525e-06,0.0,0.0,0.0,1.4185834550805525e-06,0.0,24.575707736245754,0.25442662832334123,-0.000824245565854804,0.0
8777,5.172413793103448,6.551724137931035,0.7142857142857143,0,127714.5858098445,281874.9578180737,205567.52941215874,134433.10287634595,-2104.867242630321,8.5143057206563e-07,0.0,0.0,0.0,8.5143057206563e-07,0.0,23.76793588226764,0.5606214957594755,-7.052703505304174e-05,0.0
8778,5.172413793103448,6.551724137931035,1.0714285714285714,0,237868.37497465537,383226.1540985169,228547.80595194182,109323.19833066483,51756.9898672712,1.5857891664977024e-06,0.0,0.0,0.0,1.5857891664977024e-06,0.0,25.40995200691337,0.8716780995510784,0.0017547320971831916,0.0
8779,5.172413793103448,6.551724137931035,1.4285714285714286,0,227339.79302408826,411743.08690054365,190046.10801058545,179152.16994759033,85494.65645316438,1.5155986201605884e-06,0.0,0.0,0.0,1.5155986201605884e-06,0.0,23.991598109793987,1.1910604124079263,0.0030100711265183076,0.0
8780,5.172413793103448,6.551724137931035,1.7857142857142858,0,287148.4057380242,498271.5321691495,204452.0301960667,218294.94792538285,133924.61013995507,1.9143227049201613e-06,0.0,0.0,0.0,1.9143227049201613e-06,0.0,24.738987803287415,1.5185209829862827,0.005289687075285269,0.0
8781,5.172413793103448,6.551724137931035,2.142857142857143,0,626367.2562592938,926827.6299638641,581453.5676403523,203801.1512614,277256.2658922276,4.175781708395292e-06,0.0,0.0,0.0,4.175781708395292e-06,0.0,23.798354567984955,1.8457103369690635,0.014862348588665414,0.0
8782,5.172413793103448,6.551724137931035,2.5,0,637345.655055923,1094066.1064804436,501808.15555281454,419608.73703737976,609273.5914263194,4.248971033706153e-06,0.0,0.0,0.0,4.248971033706153e-06,0.0,25.022466120879365,2.1593872670032117,0.06092735914263195,0.0
8783,5.172413793103448,6.551724137931035,2.857142857142857,0,583506.9784877962,1032254.7054255961,742284.5231611055,360564.41781995253,144565.21548491486,3.890046523251974e-06,0.0,0.0,0.0,3.890046523251974e-06,0.0,25.134183647831666,2.4528531941119205,0.007749432170335552,0.0
8784,5.172413793103448,6.551724137931035,3.2142857142857144,0,270597.82252742053,675063.6691256334,364217.8322186745,492175.66711519746,50824.4658069544,1.803985483516137e-06,0.0,0.0,0.0,1.803985483516137e-06,0.0,24.605327748556945,2.732806697271997,0.0020074392571042274,0.0
8785,5.172413793103448,6.551724137931035,3.5714285714285716,0,282125.78706767457,433745.0431394751,300833.1258982602,109712.3456234403,-10381.15949970505,1.8808385804511639e-06,0.0,0.0,0.0,1.8808385804511639e-06,0.0,24.56836876686048,3.012488983836498,-0.00036549685987640276,0.0
8786,5.172413793103448,6.551724137931035,3.928571428571429,0,225866.12358128256,263206.8084590036,330844.67643726815,78887.38063813384,63916.956072632034,1.5057741572085503e-06,0.0,0.0,0.0,1.5057741572085503e-06,0.0,25.01148507248846,3.300249528122508,0.002166994924985363,0.0
8787,5.172413793103448,6.551724137931035,4.285714285714286,0,350098.92063742306,491409.5965506358,132917.19402095288,150355.94110688302,8594.666003874883,2.333992804249487e-06,0.0,0.0,0.0,2.333992804249487e-06,0.0,24.305937937162327,3.5963357814737615,0.0002879784046460785,0.0
8788,5.172413793103448,6.551724137931035,4.642857142857143,0,150717.037674713,236511.08205098793,182519.10337278986,66234.68538328512,1667.8599823790316,1.0047802511647533e-06,0.0,0.0,0.0,1.0047802511647533e-06,0.0,25.159905818494156,3.8972837711804846,5.568322789106036e-05,0.0
8789,5.172413793103448,6.551724137931035,5.0,0,286424.0214790095,391167.4279241709,242020.18598434565,60947.47851100544,-2249.789648509008,1.9094934765267297e-06,0.0,0.0,0.0,1.9094934765267297e-06,0.0,24.768474092740966,4.200162905748631,-7.502904033429134e-05,0.0
8790,5.517241379310345,6.551724137931035,0.0,0,292860.11519224045,370417.9923243214,260017.3063269453,38403.96926466906,-9918.532209737194,1.9524007679482695e-06,0.0,0.0,0.0,1.9524007679482695e-06,0.0,23.74615037425182,-0.049838530269078814,-0.00033077668115084674,0.0
8791,5.517241379310345,6.551724137931035,0.35714285714285715,0,209020.56861968577,260978.26548829826,314024.43844751676,83591.62744040423,18129.949986489413,1.393470457464572e-06,0.0,0.0,0.0,1.393470457464572e-06,0.0,25.460747983466153,0.2544190897189657,0.0006052871028845116,0.0
8792,5.517241379310345,6.551724137931035,0.7142857142857143,0,232666.30469363037,333654.28275611374,298853.42115864594,85547.79576499316,-22660.008971515887,1.5511086979575358e-06,0.0,0.0,0.0,1.5511086979575358e-06,0.0,24.634143893458155,0.560590831484565,-0.0007592608287443543,0.0
8793,5.517241379310345,6.551724137931035,1.0714285714285714,0,262509.01873837993,346961.3813516453,253593.65838903864,50531.97706612978,19609.530217909607,1.750060124922533e-06,0.0,0.0,0.0,1.750060124922533e-06,0.0,24.377773861366045,0.8715814532941336,0.0006648275367692644,0.0
8794,5.517241379310345,6.551724137931035,1.4285714285714286,0,323782.5326042668,516626.534201989,311619.06229720166,143357.06783483448,63802.45896175517,2.1585502173617785e-06,0.0,0.0,0.0,2.1585502173617785e-06,0.0,24.634292221134267,1.1908243928628246,0.002246338513879603,0.0
8795,5.517241379310345,6.551724137931035,1.7857142857142858,0,521387.46611779276,503109.8774169082,449636.5556384976,-42953.600340268415,68424.60378636124,3.475916440785285e-06,0.0,0.0,0.0,3.475916440785285e-06,0.0,24.197145783228518,1.5180743801358676,0.0027026006788594555,0.0
8796,5.517241379310345,6.551724137931035,2.142857142857143,0,436297.2581594549,823893.8050241771,353043.89827272104,433289.6924112404,300590.71911814995,2.9086483877296993e-06,0.0,0.0,0.0,2.9086483877296993e-06,0.0,24.48463500597427,1.8450555415935117,0.016113194180390915,0.0
8797,5.517241379310345,6.551724137931035,2.5,0,341252.71067346033,545042.6237555501,684108.67119912,295281.28739826713,582568.3680571441,2.2750180711564023e-06,0.0,0.0,0.0,2.2750180711564023e-06,0.0,24.96047907164885,2.158643391412922,0.05825683680571441,0.0
8798,5.517241379310345,6.551724137931035,2.857142857142857,0,778065.1385298249,1171098.552272059,651816.8038982975,276520.508634647,432312.7925684833,5.187100923532166e-06,0.0,0.0,0.0,5.187100923532166e-06,0.0,24.914394910671156,2.452198398736369,0.023174168496483093,0.0
8799,5.517241379310345,6.551724137931035,3.2142857142857144,0,159311.95595828944,461191.88832454645,464597.7328848403,303610.1613807983,69984.20842317549,1.0620797063885963e-06,0.0,0.0,0.0,1.0620797063885963e-06,0.0,24.885129544274953,2.732360094421582,0.0027642011605132004,0.0
8800,5.517241379310345,6.551724137931035,3.5714285714285716,0,234216.18998327284,436442.3752454192,211026.04617130058,194320.79335783148,-19812.465192518044,1.5614412665551524e-06,0.0,0.0,0.0,1.5614412665551524e-06,0.0,24.27950131737771,3.012252964291396,-0.000697551541760014,0.0
8801,5.517241379310345,6.551724137931035,3.928571428571429,0,224652.60759783257,345364.145874213,157305.8496046361,96595.37125789346,28732.07067507801,1.497684050652217e-06,0.0,0.0,0.0,1.497684050652217e-06,0.0,24.1543523046308,3.300152881865563,0.0009741116467821638,0.0
8802,5.517241379310345,6.551724137931035,4.285714285714286,0,147913.28635861824,335454.04484477267,223462.7634003794,167781.16856519566,-24312.277951810913,9.860885757241216e-07,0.0,0.0,0.0,9.860885757241216e-07,0.0,24.783433001582914,3.5963051171988507,-0.0008146228154436679,0.0
8803,5.517241379310345,6.551724137931035,4.642857142857143,0,143977.54196116244,396315.76790308,372952.64575422765,242085.42226080265,-7961.5071376983315,9.59850279741083e-07,0.0,0.0,0.0,9.59850279741083e-07,0.0,24.97961147451747,3.897276232576109,-0.00026580313754659776,0.0
8804,5.517241379310345,6.551724137931035,5.0,0,344706.9303469866,454985.5485605933,182829.50914223335,67369.88656834193,7814.54827982303,2.298046202313244e-06,0.0,0.0,0.0,2.298046202313244e-06,0.0,24.23265486629258,4.200161469730921,0.0002606101679193327,0.0
8805,5.862068965517242,6.551724137931035,0.0,0,160040.29068443694,371082.9774234825,330270.8370800151,194588.24160687273,-28513.335544959427,1.0669352712295796e-06,0.0,0.0,0.0,1.0669352712295796e-06,0.0,24.378930671849893,-0.04984122224463713,-0.0009509014338677086,0.0
8806,5.862068965517242,6.551724137931035,0.35714285714285715,0,318760.4239718196,399680.30425198836,359370.8665448156,62682.45415757356,-63128.46867699436,2.125069493145464e-06,0.0,0.0,0.0,2.125069493145464e-06,0.0,24.693802990819712,0.25440495776322464,-0.002107609118806648,0.0
8807,5.862068965517242,6.551724137931035,0.7142857142857143,0,141404.13323498226,377829.01228766324,251380.6307509157,225144.02563086993,15938.161289977916,9.426942215665485e-07,0.0,0.0,0.0,9.426942215665485e-07,0.0,24.454420258730956,0.5605333478769525,0.0005340342788434599,0.0
8808,5.862068965517242,6.551724137931035,1.0714285714285714,0,305309.5087108107,439564.83576278994,206004.68732083842,94090.33899489949,-79819.97146531119,2.0353967247387377e-06,0.0,0.0,0.0,2.0353967247387377e-06,0.0,25.08563055512031,0.871400279092962,-0.0027061594247581497,0.0
8809,5.862068965517242,6.551724137931035,1.4285714285714286,0,259670.9124510146,385147.3154124184,340643.199783569,106100.552547027,-33992.08537887256,1.7311394163400974e-06,0.0,0.0,0.0,1.7311394163400974e-06,0.0,23.857790312474577,1.1903819478691287,-0.001196783506407111,0.0
8810,5.862068965517242,6.551724137931035,1.7857142857142858,0,327723.9275662278,738777.5155593219,449316.91609993845,382949.1492352273,111359.94269610525,2.184826183774852e-06,0.0,0.0,0.0,2.184826183774852e-06,0.0,23.79000617337213,1.5172371732204346,0.004398439158930627,0.0
8811,5.862068965517242,6.551724137931035,2.142857142857143,0,617960.6825775531,1100896.496457541,475796.29157051473,490331.78766164824,377518.00523866183,4.119737883850354e-06,0.0,0.0,0.0,4.119737883850354e-06,0.0,25.069169472128042,1.8438280545407626,0.020236888693204814,0.0
8812,5.862068965517242,6.551724137931035,2.5,0,892993.6544106049,1289409.7921876286,602292.6703088518,280013.2536340338,594838.7483902635,5.953291029404032e-06,0.0,0.0,0.0,5.953291029404032e-06,0.0,24.83452460445753,2.157248913550023,0.059483874839026354,0.0
8813,5.862068965517242,6.551724137931035,2.857142857142857,0,368773.3745941252,781888.2436857527,712295.6064791253,383276.7928455995,259087.279475509,2.458489163960835e-06,0.0,0.0,0.0,2.458489163960835e-06,0.0,24.57597087062708,2.4509709116836196,0.013888398338130903,0.0
8814,5.862068965517242,6.551724137931035,3.2142857142857144,0,408611.64951513405,587538.1157191468,539113.6686259807,156871.97742666092,37839.475962394135,2.724077663434227e-06,0.0,0.0,0.0,2.724077663434227e-06,0.0,24.368491945243292,2.731522887506149,0.0014945646414402246,0.0
8815,5.862068965517242,6.551724137931035,3.5714285714285716,0,356511.06862216245,444771.7550976732,269709.33904164325,34571.97885517393,29803.859849649416,2.376740457481083e-06,0.0,0.0,0.0,2.376740457481083e-06,0.0,24.775508808011814,3.0118105192977005,0.0010493256738375667,0.0
8816,5.862068965517242,6.551724137931035,3.928571428571429,0,98736.66491891745,265100.43872441456,250615.76497576048,159921.51691316586,-4600.42826636639,6.58244432792783e-07,0.0,0.0,0.0,6.58244432792783e-07,0.0,24.639338167298796,3.2999717076643913,-0.00015596964121143044,0.0
8817,5.862068965517242,6.551724137931035,4.285714285714286,0,304047.06693780504,467592.96397079644,295564.7685499392,116532.9383560429,-43782.653043051236,2.0269804462520336e-06,0.0,0.0,0.0,2.0269804462520336e-06,0.0,24.699371656960473,3.596247633591238,-0.001467009720776372,0.0
8818,5.862068965517242,6.551724137931035,4.642857142857143,0,241736.250931976,352514.11676366325,235176.4998448399,74504.64231523377,-31094.962328695947,1.6115750062131733e-06,0.0,0.0,0.0,1.6115750062131733e-06,0.0,24.520580715699083,3.897262100620368,-0.001038137428744439,0.0
8819,5.862068965517242,6.551724137931035,5.0,0,143672.93685445757,373374.8560426222,226167.13475377997,233518.9925673819,-15355.71933916775,9.57819579029717e-07,0.0,0.0,0.0,9.57819579029717e-07,0.0,24.826656407663464,4.200158777755363,-0.0005121033810534316,0.0
8820,6.206896551724139,6.551724137931035,0.0,0,211004.3804148751,323129.3469026174,200515.6723099027,79484.18764288555,13405.222484214315,1.4066958694325007e-06,0.0,0.0,0.0,1.4066958694325007e-06,0.0,24.897511197685123,-0.049844903834056674,0.0004470555632277983,0.0
8821,6.206896551724139,6.551724137931035,0.35714285714285715,0,97668.4448042469,268399.22970065003,199288.03302048473,156662.95385280735,3820.2595297423477,6.51122965361646e-07,0.0,0.0,0.0,6.51122965361646e-07,0.0,24.89504531663363,0.2543856306714265,0.00012754330953741613,0.0
8822,6.206896551724139,6.551724137931035,0.7142857142857143,0,196812.26980593047,322244.0199119459,452206.3450356393,225771.1175435626,-45680.16481213304,1.312081798706203e-06,0.0,0.0,0.0,1.312081798706203e-06,0.0,24.676435808731082,0.5604547323631786,-0.0015305889700236348,0.0
8823,6.206896551724139,6.551724137931035,1.0714285714285714,0,227693.4248714424,394167.2856177985,249511.07047330582,131707.03900867113,51108.5351148256,1.517956165809616e-06,0.0,0.0,0.0,1.517956165809616e-06,0.0,24.45069737002105,0.871152502317995,0.0017327473494108563,0.0
8824,6.206896551724139,6.551724137931035,1.4285714285714286,0,356692.06598557904,497928.99279827485,426982.28353369766,111095.20603047054,-27084.35519484146,2.377947106570527e-06,0.0,0.0,0.0,2.377947106570527e-06,0.0,24.679534106419144,1.1897768529222248,-0.0009535781408399463,0.0
8825,6.206896551724139,6.551724137931035,1.7857142857142858,0,361476.8700655708,648950.6061913376,651741.8598586099,288877.4456177824,93940.31295333586,2.4098458004371388e-06,0.0,0.0,0.0,2.4098458004371388e-06,0.0,25.059533925258044,1.516092195468941,0.003710407360963931,0.0
8826,6.206896551724139,6.551724137931035,2.142857142857143,0,478915.20839630096,995930.9558155817,617747.0634869845,457421.6595945545,263035.3369893438,3.19276805597534e-06,0.0,0.0,0.0,3.19276805597534e-06,0.0,24.389504119918552,1.8421493233457185,0.014100034337879671,0.0
8827,6.206896551724139,6.551724137931035,2.5,0,339759.6196511051,1021976.4217504505,847837.5326746149,630451.1764317971,904281.2860267735,2.2650641310073672e-06,0.0,0.0,0.0,2.2650641310073672e-06,0.0,24.335248504841115,2.1553418030155322,0.09042812860267735,0.0
8828,6.206896551724139,6.551724137931035,2.857142857142857,0,330577.86453962146,1023782.8007117257,671031.4254143966,721087.7758934954,474672.7922462104,2.203852430264143e-06,0.0,0.0,0.0,2.203852430264143e-06,0.0,24.723004146595837,2.4492921804885754,0.025444880321155997,0.0
8829,6.206896551724139,6.551724137931035,3.2142857142857144,0,600564.8465012637,815034.5253940691,237340.15569635096,193952.41422385926,17535.298086978015,4.003765643341758e-06,0.0,0.0,0.0,4.003765643341758e-06,0.0,24.850107325643616,2.7303779097546554,0.0006926004082074919,0.0
8830,6.206896551724139,6.551724137931035,3.5714285714285716,0,319393.25195868406,500681.36129853956,170968.76473970138,192719.32536487735,9397.904446715953,2.129288346391227e-06,0.0,0.0,0.0,2.129288346391227e-06,0.0,24.435438361895162,3.0112054243507966,0.0003308787004756796,0.0
8831,6.206896551724139,6.551724137931035,3.928571428571429,0,332840.8418426855,438751.0575273788,268017.8657472267,55188.78944038947,-38622.89248070302,2.218938945617903e-06,0.0,0.0,0.0,2.218938945617903e-06,0.0,24.715675480482624,3.2997239308894244,-0.0013094430200779785,0.0
8832,6.206896551724139,6.551724137931035,4.285714285714286,0,179522.36626982494,388074.7779325113,225417.41574205138,195457.20752191285,-13042.564306382246,1.1968157751321662e-06,0.0,0.0,0.0,1.1968157751321662e-06,0.0,24.074995375242484,3.596169018077464,-0.0004370125447286112,0.0
8833,6.206896551724139,6.551724137931035,4.642857142857143,0,204107.43236202528,255518.43176247418,393968.90059690917,159566.65596016208,15452.629168528374,1.3607162157468353e-06,0.0,0.0,0.0,1.3607162157468353e-06,0.0,24.494408152474815,3.8972427735285695,0.0005159019825392447,0.0
8834,6.206896551724139,6.551724137931035,5.0,0,137770.32211029914,288963.50975770864,238415.12852861578,133058.8957314841,30868.1737316258,9.184688140686609e-07,0.0,0.0,0.0,9.184688140686609e-07,0.0,25.28109362726927,4.200155096165943,0.0010294337755047199,0.0
8835,6.551724137931035,6.551724137931035,0.0,0,306616.93022983015,410850.385923489,410553.1205338228,104084.93107349334,-46636.405939613665,2.044112868198868e-06,0.0,0.0,0.0,2.044112868198868e-06,0.0,24.676871044356123,-0.049849317810151256,-0.0015552941958856415,0.0
8836,6.551724137931035,6.551724137931035,0.35714285714285715,0,218882.71611589464,375840.52159004,227777.26040949902,124417.80771002662,-28195.4636771742,1.4592181074392976e-06,0.0,0.0,0.0,1.4592181074392976e-06,0.0,24.05422641485379,0.2543624587987778,-0.0009413346719853191,0.0
8837,6.551724137931035,6.551724137931035,0.7142857142857143,0,241062.46410442438,411107.5237942806,409018.4881493115,169007.33076863384,35591.49002605742,1.607083094029496e-06,0.0,0.0,0.0,1.607083094029496e-06,0.0,24.12590722670737,0.5603604776924599,0.0011925513466212454,0.0
8838,6.551724137931035,6.551724137931035,1.0714285714285714,0,380656.0211522524,519827.31180945685,311940.80211410794,80494.12605377461,51789.531713362914,2.5377068076816825e-06,0.0,0.0,0.0,2.5377068076816825e-06,0.0,23.765463247816143,0.8708554347645933,0.0017558353727404673,0.0
8839,6.551724137931035,6.551724137931035,1.4285714285714286,0,317653.34295479435,518101.4548159467,367653.5465065608,153174.69353927544,-29290.15847356221,2.1176889530319625e-06,0.0,0.0,0.0,2.1176889530319625e-06,0.0,25.203695169473015,1.1890513851075906,-0.0010312394244278164,0.0
8840,6.551724137931035,6.551724137931035,1.7857142857142858,0,498947.9264112174,811235.915178192,387315.62160426436,261388.6248178156,130275.93779817688,3.3263195094081163e-06,0.0,0.0,0.0,3.3263195094081163e-06,0.0,23.899391371335167,1.5147194447767873,0.005145573645288455,0.0
8841,6.551724137931035,6.551724137931035,2.142857142857143,0,810104.806209721,978357.1568518939,782910.8037224609,88409.05052897207,243502.08244528138,5.400698708064807e-06,0.0,0.0,0.0,5.400698708064807e-06,0.0,23.13690373264335,1.8401366384643476,0.013052952364201809,0.0
8842,6.551724137931035,6.551724137931035,2.5,0,868309.1855425575,947369.4439206612,1173305.7698961273,214361.5882464521,618261.9809909986,5.78872790361705e-06,0.0,0.0,0.0,5.78872790361705e-06,0.0,23.702867495358614,2.1530553067907623,0.06182619809909985,0.0
8843,6.551724137931035,6.551724137931035,2.857142857142857,0,600470.8499556235,949062.6878543426,644310.5628632809,257326.0331929554,252257.3869468592,4.003138999704157e-06,0.0,0.0,0.0,4.003138999704157e-06,0.0,24.437391605851584,2.4472794956072046,0.01352228129743119,0.0
8844,6.551724137931035,6.551724137931035,3.2142857142857144,0,117004.45522369744,543760.6452525824,409656.72369128285,462490.87139801594,41970.86133479522,7.800297014913163e-07,0.0,0.0,0.0,7.800297014913163e-07,0.0,24.05711494786483,2.7290051590625017,0.0016577440285937496,0.0
8845,6.551724137931035,6.551724137931035,3.5714285714285716,0,425878.82095502305,593405.6577138546,294358.4465248169,105797.97345237914,92063.86526521537,2.839192139700154e-06,0.0,0.0,0.0,2.839192139700154e-06,0.0,24.485034689578896,3.010479956536162,0.0032413579295719787,0.0
8846,6.551724137931035,6.551724137931035,3.928571428571429,0,277081.2667783439,450840.70306207135,398652.6445703416,151376.35115363286,-1887.7941900082271,1.8472084451889592e-06,0.0,0.0,0.0,1.8472084451889592e-06,0.0,24.595847901276,3.2994268633360226,-6.400242878456314e-05,0.0
8847,6.551724137931035,6.551724137931035,4.285714285714286,0,310188.40492915176,417204.00201407,329148.7800901567,72507.87761673679,-10647.986578951906,2.0679226995276782e-06,0.0,0.0,0.0,2.0679226995276782e-06,0.0,24.11783491838311,3.5960747634067456,-0.00035677828391667005,0.0
8848,6.551724137931035,6.551724137931035,4.642857142857143,0,339633.8241140735,469771.8007738646,372723.1732877184,92177.11855371209,-21273.003095730248,2.264225494093823e-06,0.0,0.0,0.0,2.264225494093823e-06,0.0,23.974708014914505,3.897219601655921,-0.0007102211767304,0.0
8849,6.551724137931035,6.551724137931035,5.0,0,220545.82335834793,224443.4184870649,287234.470522384,42102.13663337302,-11290.850211848934,1.4703054890556529e-06,0.0,0.0,0.0,1.4703054890556529e-06,0.0,24.894733595195472,4.200150682189849,-0.00037654260544521463,0.0
8850,6.8965517241379315,6.551724137931035,0.0,0,200832.87847438004,432501.62513004435,273930.4911563323,206671.72464979324,-31287.786331940228,1.338885856495867e-06,0.0,0.0,0.0,1.338885856495867e-06,0.0,24.449071558466564,-0.049854259600803745,-0.0010434275863192698,0.0
8851,6.8965517241379315,6.551724137931035,0.35714285714285715,0,242978.06676964313,285599.1687521965,303759.16495657107,52210.60840915776,5295.152555692312,1.6198537784642875e-06,0.0,0.0,0.0,1.6198537784642875e-06,0.0,22.966577254696983,0.254336516079288,0.00017678413631339163,0.0
8852,6.8965517241379315,6.551724137931035,0.7142857142857143,0,148315.37772480678,387730.6966943431,354913.17911209975,225755.0832471684,-1260.183908256387,9.887691848320451e-07,0.0,0.0,0.0,9.887691848320451e-07,0.0,23.540734058155483,0.5602549522340678,-4.2224532203662055e-05,0.0
8853,6.8965517241379315,6.551724137931035,1.0714285714285714,0,156034.93924058884,375104.00834283466,260258.72104523666,197453.15563741126,-18041.900563438012,1.0402329282705923e-06,0.0,0.0,0.0,1.0402329282705923e-06,0.0,23.417678039748555,0.8705228444589131,-0.0006116797382158373,0.0
8854,6.8965517241379315,6.551724137931035,1.4285714285714286,0,317101.31061141385,526419.7710636901,452682.2782165211,178946.24714475434,-19505.4501377428,2.1140087374094255e-06,0.0,0.0,0.0,2.1140087374094255e-06,0.0,24.239066812527817,1.1882391672821586,-0.0006867422445463144,0.0
8855,6.8965517241379315,6.551724137931035,1.7857142857142858,0,265526.60363482044,696342.7259763827,514890.31273878575,391582.30822410143,82325.01144721567,1.7701773575654696e-06,0.0,0.0,0.0,1.7701773575654696e-06,0.0,24.424951564412837,1.513182543263654,0.0032516320082617086,0.0
8856,6.8965517241379315,6.551724137931035,2.142857142857143,0,938068.3154070236,1252108.1313326894,215828.64418707264,1007035.7471448584,300173.3151375806,6.253788769380157e-06,0.0,0.0,0.0,6.253788769380157e-06,0.0,24.24252906289457,1.837883280693472,0.01609081920018423,0.0
8857,6.8965517241379315,6.551724137931035,2.5,0,444247.47258763516,1021184.0497538354,1017791.9284192564,575250.229508254,641982.449771935,2.9616498172509012e-06,0.0,0.0,0.0,2.9616498172509012e-06,0.0,24.018806442504143,2.150495395855945,0.0641982449771935,0.0
8858,6.8965517241379315,6.551724137931035,2.857142857142857,0,851716.3117712619,1126603.0798764976,439600.2360088799,173642.06524962466,327613.27957682515,5.678108745141746e-06,0.0,0.0,0.0,5.678108745141746e-06,0.0,24.84871558811645,2.445026137836329,0.017561741112243595,0.0
8859,6.8965517241379315,6.551724137931035,3.2142857142857144,0,193049.2987794684,687556.9654024973,580598.6043344261,464702.5697173997,-76766.04094114888,1.286995325196456e-06,0.0,0.0,0.0,1.286995325196456e-06,0.0,24.50272670091556,2.7274682575493685,-0.00303206657956937,0.0
8860,6.8965517241379315,6.551724137931035,3.5714285714285716,0,178510.13910866764,312845.65974690975,409246.5361272038,203261.36154145567,45828.708158271074,1.1900675940577844e-06,0.0,0.0,0.0,1.1900675940577844e-06,0.0,23.891157401890684,3.0096677387107302,0.0016135238962965617,0.0
8861,6.8965517241379315,6.551724137931035,3.928571428571429,0,21410.57235617163,326546.0412692439,306424.5870185081,328925.4876854919,-73057.6192469985,1.427371490411442e-07,0.0,0.0,0.0,1.427371490411442e-07,0.0,23.928371935942987,3.2990942730303425,-0.0024768934546860605,0.0
8862,6.8965517241379315,6.551724137931035,4.285714285714286,0,235649.249501248,376654.8125721302,314027.5402546138,116018.39655482376,-68655.97870421884,1.5709949966749867e-06,0.0,0.0,0.0,1.5709949966749867e-06,0.0,23.975600370182693,3.5959692379483537,-0.002300431361467936,0.0
8863,6.8965517241379315,6.551724137931035,4.642857142857143,0,189900.322734467,473162.92792728194,356006.38957876636,254060.85454847847,34654.82534516738,1.2660021515631133e-06,0.0,0.0,0.0,1.2660021515631133e-06,0.0,24.187708499158564,3.8971936589364313,0.0011569871317778971,0.0
8864,6.8965517241379315,6.551724137931035,5.0,0,238902.61788622057,422872.36325047654,232527.5297222014,154780.61820083638,-42895.573114318395,1.5926841192414706e-06,0.0,0.0,0.0,1.5926841192414706e-06,0.0,24.38374903608112,4.200145740399196,-0.0014305398229072935,0.0
8865,7.241379310344828,6.551724137931035,0.0,0,56708.157300423176,303763.6246522489,340296.9435054887,369091.9730050556,-82290.95771164655,3.780543820028212e-07,0.0,0.0,0.0,3.780543820028212e-07,0.0,24.42780639131568,-0.049859580724213204,-0.0027443506060161656,0.0
8866,7.241379310344828,6.551724137931035,0.35714285714285715,0,241609.63934985056,385254.4521800884,369664.07124095736,136227.1683991344,53010.69047599142,1.6107309289990038e-06,0.0,0.0,0.0,1.6107309289990038e-06,0.0,23.814185029791975,0.25430858199189144,0.0017698166450559258,0.0
8867,7.241379310344828,6.551724137931035,0.7142857142857143,0,151116.92138613938,558117.0863895569,418327.5778447119,397776.24925658334,-25364.872022350584,1.0074461425742625e-06,0.0,0.0,0.0,1.0074461425742625e-06,0.0,23.552401242490447,0.5601413266221331,-0.0008498917090850582,0.0
8868,7.241379310344828,6.551724137931035,1.0714285714285714,0,220773.35211126725,418788.6891290603,196170.67574669572,199907.43652513067,50027.18819750913,1.4718223474084483e-06,0.0,0.0,0.0,1.4718223474084483e-06,0.0,24.43206486198796,0.8701647244603615,0.001696086134203571,0.0
8869,7.241379310344828,6.551724137931035,1.4285714285714286,0,151213.33027920395,444919.17521667946,372158.1231250543,271080.1346000427,-37590.39528849457,1.0080888685280264e-06,0.0,0.0,0.0,1.0080888685280264e-06,0.0,24.654505865226078,1.1873646034674605,-0.0013234717605338639,0.0
8870,7.241379310344828,6.551724137931035,1.7857142857142858,0,351477.6233784623,749057.0867594348,346245.38482245686,504714.42963645176,-40244.92989682709,2.343184155856415e-06,0.0,0.0,0.0,2.343184155856415e-06,0.0,25.099866136308826,1.5115276689084567,-0.001589574054376854,0.0
8871,7.241379310344828,6.551724137931035,2.142857142857143,0,821329.4224715851,1164698.4604555687,504421.29193988116,244977.34103391325,348594.15948482405,5.4755294831439006e-06,0.0,0.0,0.0,5.4755294831439006e-06,0.0,24.451896859504632,1.8354569547667678,0.018686423181686222,0.0
8872,7.241379310344828,6.551724137931035,2.5,0,325187.9902964798,1080423.312671014,917591.999087386,705985.9817311328,542371.0868882847,2.167919935309865e-06,0.0,0.0,0.0,2.167919935309865e-06,0.0,23.889291173631015,2.147738985688204,0.05423710868882846,0.0
8873,7.241379310344828,6.551724137931035,2.857142857142857,0,664248.1756304515,1111990.849792412,722952.1259971219,345009.8801260169,421940.87313488545,4.428321170869677e-06,0.0,0.0,0.0,4.428321170869677e-06,0.0,24.564323786397953,2.442599811909625,0.022618180765567018,0.0
8874,7.241379310344828,6.551724137931035,3.2142857142857144,0,341952.7347564522,637125.6932117329,633564.4992477883,293406.26949231635,117950.93762613022,2.279684898376348e-06,0.0,0.0,0.0,2.279684898376348e-06,0.0,24.188310774518676,2.7258133831941715,0.004658766970661343,0.0
8875,7.241379310344828,6.551724137931035,3.5714285714285716,0,308177.309194438,544578.6048830843,300298.3827291207,198343.34950209962,50246.47282367,2.0545153946295866e-06,0.0,0.0,0.0,2.0545153946295866e-06,0.0,23.59585003871764,3.008793174896032,0.0017690632763554183,0.0
8876,7.241379310344828,6.551724137931035,3.928571428571429,0,188887.3088366575,423579.4210103079,275789.3941166996,210770.7782730532,-12503.69822005193,1.2592487255777167e-06,0.0,0.0,0.0,1.2592487255777167e-06,0.0,24.24896602200209,3.2987361530317907,-0.00042391647304998594,0.0
8877,7.241379310344828,6.551724137931035,4.285714285714286,0,204646.1123525321,435973.8236785168,295171.14217005396,201222.29289998097,54893.76389446449,1.3643074156835474e-06,0.0,0.0,0.0,1.3643074156835474e-06,0.0,24.419239161529784,3.5958556123364187,0.0018393057443092371,0.0
8878,7.241379310344828,6.551724137931035,4.642857142857143,0,193947.19882793128,336193.3607998965,209142.6578953594,112952.30848575775,-36771.11449080484,1.292981325519542e-06,0.0,0.0,0.0,1.292981325519542e-06,0.0,24.999455862953592,3.897165724849035,-0.001227641630371849,0.0
8879,7.241379310344828,6.551724137931035,5.0,0,144075.92390253444,331204.5576596951,220099.29566070632,168415.79741510467,5314.445654084681,9.605061593502297e-07,0.0,0.0,0.0,9.605061593502297e-07,0.0,24.32307530781444,4.200140419275787,0.00017723335050411152,0.0
8880,7.586206896551724,6.551724137931035,0.0,0,463696.4012316351,480972.0428338723,373427.8717878468,-27046.71683292212,-5596.382814055501,3.091309341544234e-06,0.0,0.0,0.0,3.091309341544234e-06,0.0,23.7306144870006,-0.04986517726846455,-0.00018663577377564053,0.0
8881,7.586206896551724,6.551724137931035,0.35714285714285715,0,157803.4579067263,398140.1616755947,238777.51756543896,241943.533478642,79805.47241267186,1.0520230527115088e-06,0.0,0.0,0.0,1.0520230527115088e-06,0.0,23.199561498995084,0.25427920203878646,0.0026643881106673444,0.0
8882,7.586206896551724,6.551724137931035,0.7142857142857143,0,112939.6412540086,428992.5291800718,380082.16844185576,299841.62289090845,49024.80609140711,7.529309416933907e-07,0.0,0.0,0.0,7.529309416933907e-07,0.0,23.533208486513747,0.5600218197593247,0.0016426566710005565,0.0
8883,7.586206896551724,6.551724137931035,1.0714285714285714,0,189617.48046803032,392513.44216316985,343483.43027914513,183196.29242938987,1612.557338913542,1.2641165364535355e-06,0.0,0.0,0.0,1.2641165364535355e-06,0.0,23.66737308545478,0.8697880682047247,5.467099474672546e-05,0.0
8884,7.586206896551724,6.551724137931035,1.4285714285714286,0,477606.8885570537,573260.2545207142,189748.21247915312,38288.229788009055,15750.82127769108,3.1840459237136915e-06,0.0,0.0,0.0,3.1840459237136915e-06,0.0,24.99034868312109,1.186444772312842,0.0005545503580437314,0.0
8885,7.586206896551724,6.551724137931035,1.7857142857142858,0,209015.50580253953,611454.3639135727,561085.1598276554,381856.72626450396,180208.67482004332,1.3934367053502635e-06,0.0,0.0,0.0,1.3934367053502635e-06,0.0,24.066469381788654,1.509787138413932,0.007117791846126697,0.0
8886,7.586206896551724,6.551724137931035,2.142857142857143,0,678395.3539127787,1003326.7244152756,829673.2451369454,254983.84131372903,311453.6900124147,4.522635692751858e-06,0.0,0.0,0.0,4.522635692751858e-06,0.0,24.12189256706572,1.8329050424407223,0.016695504771711677,0.0
8887,7.586206896551724,6.551724137931035,2.5,0,757547.1142045895,1404195.426567376,952050.683285994,529623.6496979975,453456.0992409324,5.050314094697263e-06,0.0,0.0,0.0,5.050314094697263e-06,0.0,24.72202238672739,2.1448399039921795,0.045345609924093234,0.0
8888,7.586206896551724,6.551724137931035,2.857142857142857,0,660965.2428474352,1273231.0336740534,692643.6319197202,553910.8138665493,289171.0237854112,4.406434952316234e-06,0.0,0.0,0.0,4.406434952316234e-06,0.0,24.477480568777978,2.4400478995835795,0.015501040322423672,0.0
8889,7.586206896551724,6.551724137931035,3.2142857142857144,0,267720.3221525328,623155.396962493,356378.46236342884,354501.5561636763,44469.7742041529,1.784802147683552e-06,0.0,0.0,0.0,1.784802147683552e-06,0.0,24.04985715864344,2.724072852699647,0.0017564448356634258,0.0
8890,7.586206896551724,6.551724137931035,3.5714285714285716,0,326894.04838479514,676368.0305478984,470973.0201443008,299408.9966086911,72229.90235940836,2.179293655898634e-06,0.0,0.0,0.0,2.179293655898634e-06,0.0,24.75886613568045,3.0078733437414136,0.0025430495025428514,0.0
8891,7.586206896551724,6.551724137931035,3.928571428571429,0,231022.9727675771,444332.0168622554,284200.6975291405,179496.00142171115,43577.47256918271,1.5401531517838473e-06,0.0,0.0,0.0,1.5401531517838473e-06,0.0,23.848361569097428,3.298359496776154,0.001477419572261855,0.0
8892,7.586206896551724,6.551724137931035,4.285714285714286,0,130569.06187783698,321200.19942183717,212392.02084579636,176414.33583234748,-1774.4300770038203,8.704604125189132e-07,0.0,0.0,0.0,8.704604125189132e-07,0.0,24.33693268801598,3.5957361054736108,-5.945519494314223e-05,0.0
8893,7.586206896551724,6.551724137931035,4.642857142857143,0,184611.0486291097,434425.4112612685,320210.1499386435,221441.56420793274,18876.227696050755,1.2307403241940647e-06,0.0,0.0,0.0,1.2307403241940647e-06,0.0,23.572206963473906,3.8971363448959297,0.0006302023548904076,0.0
8894,7.586206896551724,6.551724137931035,5.0,0,192908.40671466605,373500.85043940676,223050.43330515252,156018.27872615747,-28674.042452926737,1.2860560447644403e-06,0.0,0.0,0.0,1.2860560447644403e-06,0.0,24.334676728471777,4.200134822731536,-0.0009562609060689739,0.0
8895,7.931034482758621,6.551724137931035,0.0,0,301541.4092742872,447314.4009007043,209982.73350771872,108007.4983922786,85960.41011412434,2.010276061828581e-06,0.0,0.0,0.0,2.010276061828581e-06,0.0,24.56131535700367,-0.049870977046245824,0.0028667244877222738,0.0
8896,7.931034482758621,6.551724137931035,0.35714285714285715,0,184895.743572715,408136.32151342096,257251.59047924582,201881.9364917571,49938.43162941964,1.2326382904847667e-06,0.0,0.0,0.0,1.2326382904847667e-06,0.0,24.492829787705848,0.25424875517879925,0.0016672461107776443,0.0
8897,7.931034482758621,6.551724137931035,0.7142857142857143,0,300866.9622378123,419113.7377516827,234126.26329807012,71952.26662899263,2217.2919152403565,2.005779748252082e-06,0.0,0.0,0.0,2.005779748252082e-06,0.0,24.51298670701892,0.5598979731110191,7.429400841145952e-05,0.0
8898,7.931034482758621,6.551724137931035,1.0714285714285714,0,163737.5692529091,347903.05718094704,220205.30605307073,163306.69778188533,-2859.0354659683926,1.091583795019394e-06,0.0,0.0,0.0,1.091583795019394e-06,0.0,25.51053500520274,0.8693977340119609,-9.693070079974389e-05,0.0
8899,7.931034482758621,6.551724137931035,1.4285714285714286,0,470227.11686689506,592353.473578963,425858.412424273,61531.27057781488,40900.99648073467,3.1348474457793005e-06,0.0,0.0,0.0,3.1348474457793005e-06,0.0,23.937600501907895,1.185491538307449,0.0014400304493875713,0.0
8900,7.931034482758621,6.551724137931035,1.7857142857142858,0,312459.63997357356,544512.7367321539,479676.11310440215,204721.38480280185,70558.98929080437,2.0830642664904903e-06,0.0,0.0,0.0,2.0830642664904903e-06,0.0,23.624245300448376,1.5079834021015954,0.002786903566915134,0.0
8901,7.931034482758621,6.551724137931035,2.142857142857143,0,615265.7740774351,816689.192022881,997404.5681246133,312018.7820973469,204656.30654827188,4.101771827182901e-06,0.0,0.0,0.0,4.101771827182901e-06,0.0,24.30887553181876,1.8302604596868617,0.010970620840617956,0.0
8902,7.931034482758621,6.551724137931035,2.5,0,940362.5064836884,1325459.749081952,653299.0102674414,250845.96844841138,901763.7218655488,6.2690833765579225e-06,0.0,0.0,0.0,6.2690833765579225e-06,0.0,23.64542230279816,2.1418355447212565,0.09017637218655489,0.0
8903,7.931034482758621,6.551724137931035,2.857142857142857,0,907139.8946735414,1385799.466835851,371998.0173835607,650737.057498441,518427.67250268697,6.04759929782361e-06,0.0,0.0,0.0,6.04759929782361e-06,0.0,23.523867974593536,2.4374033168297187,0.027790364852350855,0.0
8904,7.931034482758621,6.551724137931035,3.2142857142857144,0,201585.67405397596,658339.2565611039,516875.06802335836,427520.63411195687,100957.14305718358,1.343904493693173e-06,0.0,0.0,0.0,1.343904493693173e-06,0.0,23.968856876908117,2.72226911638731,0.003987554596793161,0.0
8905,7.931034482758621,6.551724137931035,3.5714285714285716,0,220971.00755917653,563765.6491413465,529649.4637615446,327720.6833218766,-14532.079563890242,1.4731400503945102e-06,0.0,0.0,0.0,1.4731400503945102e-06,0.0,25.08993212884085,3.0069201097360208,-0.0005116412524272299,0.0
8906,7.931034482758621,6.551724137931035,3.928571428571429,0,314115.406630901,516811.02430716227,343016.9184639866,154205.4382141752,690.3828054201113,2.0941027108726734e-06,0.0,0.0,0.0,2.0941027108726734e-06,0.0,24.449044464255557,3.29796916258339,2.3406246598203065e-05,0.0
8907,7.931034482758621,6.551724137931035,4.285714285714286,0,393399.1106755992,480268.5619958225,554661.760798814,129377.41454198881,-109180.995023837,2.622660737837328e-06,0.0,0.0,0.0,2.622660737837328e-06,0.0,24.299509515005344,3.5956122588253048,-0.003658288611850719,0.0
8908,7.931034482758621,6.551724137931035,4.642857142857143,0,134605.64377080524,386042.1034383087,315504.77282567,230827.4374588306,-45587.3018514158,8.973709584720349e-07,0.0,0.0,0.0,8.973709584720349e-07,0.0,23.277607223811582,3.8971058980359423,-0.001521979149778573,0.0
8909,7.931034482758621,6.551724137931035,5.0,0,139978.138644269,321772.0019486815,307498.2038534817,175203.85348307164,72730.82139541581,9.331875909617933e-07,0.0,0.0,0.0,9.331875909617933e-07,0.0,23.80727130643698,4.200129022953754,0.0024255261978110856,0.0
8910,8.275862068965518,6.551724137931035,0.0,0,104860.70787060005,233312.4039703554,112345.89489406243,177422.16767130498,21609.215952972885,6.990713858040004e-07,0.0,0.0,0.0,6.990713858040004e-07,0.0,24.680624998918343,-0.049876929541597524,0.0007206534781607262,0.0
8911,8.275862068965518,6.551724137931035,0.35714285714285715,0,411692.05025286763,395873.11845741683,328249.19706970826,-45444.1773960172,-81424.01768863323,2.744613668352451e-06,0.0,0.0,0.0,2.744613668352451e-06,0.0,23.83409572242599,0.2542175066035291,-0.002718424916157935,0.0
8912,8.275862068965518,6.551724137931035,0.7142857142857143,0,257279.9203880229,517936.2713013688,307560.5744808615,231090.7583808284,-34689.897802840394,1.715199469253486e-06,0.0,0.0,0.0,1.715199469253486e-06,0.0,25.07128429107702,0.5597708653792806,-0.001162342017955502,0.0
8913,8.275862068965518,6.551724137931035,1.0714285714285714,0,94619.31573056847,334760.034234391,267109.4225117407,226635.59675307712,-82867.89516924827,6.307954382037898e-07,0.0,0.0,0.0,6.307954382037898e-07,0.0,24.20257381760599,0.8689971216858228,-0.002809494057757081,0.0
8914,8.275862068965518,6.551724137931035,1.4285714285714286,0,325756.89020590216,572143.2697760629,337574.2976933348,200200.97506066776,-32859.83168695054,2.171712601372681e-06,0.0,0.0,0.0,2.171712601372681e-06,0.0,23.908051980933138,1.1845132041022122,-0.0011569194460396043,0.0
8915,8.275862068965518,6.551724137931035,1.7857142857142858,0,153655.87885556128,582293.5673148921,493444.0059930992,404867.11111353996,63853.668790206975,1.024372525703742e-06,0.0,0.0,0.0,1.024372525703742e-06,0.0,23.83103100372191,1.5061321704820738,0.0025220601811431747,0.0
8916,8.275862068965518,6.551724137931035,2.142857142857143,0,475810.96041827265,1087728.711520431,707263.0344775099,554231.439218885,572318.5643287497,3.172073069455151e-06,0.0,0.0,0.0,3.172073069455151e-06,0.0,23.960228905833418,1.8275462407730971,0.030679191250901353,0.0
8917,8.275862068965518,6.551724137931035,2.5,0,1089491.5634441597,1430665.7198588797,1401069.646918151,326677.6535195926,821523.6193727701,7.263277089627732e-06,0.0,0.0,0.0,7.263277089627732e-06,0.0,23.271578793202064,2.1387520757902956,0.08215236193727701,0.0
8918,8.275862068965518,6.551724137931035,2.857142857142857,0,472565.89901467593,924642.4458731787,666589.2745836775,379232.6839326963,369543.8878694868,3.150439326764506e-06,0.0,0.0,0.0,3.150439326764506e-06,0.0,24.488754835494905,2.434689097915954,0.01980943537074797,0.0
8919,8.275862068965518,6.551724137931035,3.2142857142857144,0,527095.5182438277,743420.5835679458,527579.8147251505,142662.23669667495,57537.44137809397,3.5139701216255182e-06,0.0,0.0,0.0,3.5139701216255182e-06,0.0,24.227807906328355,2.7204178847677882,0.0022725849990127105,0.0
8920,8.275862068965518,6.551724137931035,3.5714285714285716,0,134869.17747403428,460197.9057617373,310762.62191866786,347512.94908687164,-33867.29389561232,8.991278498268952e-07,0.0,0.0,0.0,8.991278498268952e-07,0.0,23.883597298452305,3.0059417755307836,-0.0011923898839729088,0.0
8921,8.275862068965518,6.551724137931035,3.928571428571429,0,204111.74972334353,492759.9460837913,369964.64891014877,257142.34278697582,47362.83225440428,1.3607449981556236e-06,0.0,0.0,0.0,1.3607449981556236e-06,0.0,23.960673074902896,3.2975685502572523,0.0016057557091986334,0.0
8922,8.275862068965518,6.551724137931035,4.285714285714286,0,296570.53426264453,438899.6936370671,308239.2927801899,99434.53278079376,50706.48583303003,1.977136895084297e-06,0.0,0.0,0.0,1.977136895084297e-06,0.0,24.42605849479661,3.5954851510935666,0.0016990041135771332,0.0
8923,8.275862068965518,6.551724137931035,4.642857142857143,0,183810.19905385346,422560.2835101928,269095.19153114647,218853.17930480358,-55917.93735293448,1.2254013270256897e-06,0.0,0.0,0.0,1.2254013270256897e-06,0.0,25.04078150452064,3.8970746494606723,-0.0018668780843222375,0.0
8924,8.275862068965518,6.551724137931035,5.0,0,390355.03937195585,547957.1922045946,131512.07087797107,190378.84003816915,-71881.26115988745,2.6023669291463724e-06,0.0,0.0,0.0,2.6023669291463724e-06,0.0,24.796419386381306,4.200123070458402,-0.00239719390940354,0.0
8925,8.620689655172415,6.551724137931035,0.0,0,319514.79097610386,479340.1319940395,316888.1748336194,111240.09940481822,-13481.938169072524,2.130098606507359e-06,0.0,0.0,0.0,2.130098606507359e-06,0.0,23.967394665482047,-0.04988299890030544,-0.00044961398206367216,0.0
8926,8.620689655172415,6.551724137931035,0.35714285714285715,0,160259.97723070194,364903.6588102358,270137.4346028805,179869.6027791878,-8294.015737982574,1.0683998482046797e-06,0.0,0.0,0.0,1.0683998482046797e-06,0.0,23.46794611240287,0.2541856445354015,-0.00027690428054479775,0.0
8927,8.620689655172415,6.551724137931035,0.7142857142857143,0,155918.14679834398,417414.81666876056,292136.3550380397,242795.90560019552,10991.66207116427,1.0394543119889598e-06,0.0,0.0,0.0,1.0394543119889598e-06,0.0,23.117330804724773,0.5596412621838326,0.0003682936959080902,0.0
8928,8.620689655172415,6.551724137931035,1.0714285714285714,0,206335.7934002941,430917.17624799575,202812.37806058797,257277.7783958352,-72997.59496227662,1.3755719560019606e-06,0.0,0.0,0.0,1.3755719560019606e-06,0.0,23.95006799735425,0.8685886442714812,-0.002474858434116239,0.0
8929,8.620689655172415,6.551724137931035,1.4285714285714286,0,69838.69667326513,516658.26577501575,501704.85842475,440554.0147192348,-29996.718336254606,4.655913111551009e-07,0.0,0.0,0.0,4.655913111551009e-07,0.0,23.50183720511494,1.1835156625877772,-0.0010561157796303458,0.0
8930,8.620689655172415,6.551724137931035,1.7857142857142858,0,688259.7563683791,1096175.0377797526,634692.9666529077,305097.3036523161,70725.33240429091,4.588398375789194e-06,0.0,0.0,0.0,4.588398375789194e-06,0.0,23.975789685557608,1.5042445942495117,0.0027934737037746175,0.0
8931,8.620689655172415,6.551724137931035,2.142857142857143,0,736001.5092925549,1159244.8774225272,1064243.7706388272,380355.7036903531,322984.01282532787,4.906676728617033e-06,0.0,0.0,0.0,4.906676728617033e-06,0.0,24.048249669625267,1.8247787345045317,0.01731358882630963,0.0
8932,8.620689655172415,6.551724137931035,2.5,0,486528.009838716,752767.6327839583,1180155.406689376,650685.8519046596,841611.8748409867,3.24352006559144e-06,0.0,0.0,0.0,3.24352006559144e-06,0.0,24.266123693189435,2.135608070142083,0.08416118748409866,0.0
8933,8.620689655172415,6.551724137931035,2.857142857142857,0,534841.4703010223,962042.4399883115,883285.9226144571,392189.4348882156,608684.3315819812,3.5656098020068152e-06,0.0,0.0,0.0,3.5656098020068152e-06,0.0,23.326629893719467,2.431921591647389,0.03262858167449557,0.0
8934,8.620689655172415,6.551724137931035,3.2142857142857144,0,209176.54802743462,446893.87962314987,343473.7024121273,206151.97238938705,37492.84902669083,1.3945103201828974e-06,0.0,0.0,0.0,1.3945103201828974e-06,0.0,23.473562864769338,2.718530308535226,0.001480873744600432,0.0
8935,8.620689655172415,6.551724137931035,3.5714285714285716,0,404306.1094027882,474950.108716745,543411.7098518026,109245.6808060393,51606.58304661309,2.695374062685255e-06,0.0,0.0,0.0,2.695374062685255e-06,0.0,23.764770594683533,3.0049442340163486,0.0018169496435368124,0.0
8936,8.620689655172415,6.551724137931035,3.928571428571429,0,370820.6107690312,263646.0365160289,225112.39080553467,-124936.76755626616,-15348.022695913092,2.4721374051268746e-06,0.0,0.0,0.0,2.4721374051268746e-06,0.0,24.056850194088273,3.2971600728429107,-0.0005203484229256769,0.0
8937,8.620689655172415,6.551724137931035,4.285714285714286,0,103911.83128092939,350673.90724735736,274496.78069842164,232301.7670519718,-39499.22134935098,6.927455418728626e-07,0.0,0.0,0.0,6.927455418728626e-07,0.0,24.032126398763342,3.5953555478981185,-0.0013234863046242941,0.0
8938,8.620689655172415,6.551724137931035,4.642857142857143,0,299536.5545524745,294595.15125542594,356204.03029935004,30653.247237080617,-30153.139102054614,1.9969103636831633e-06,0.0,0.0,0.0,1.9969103636831633e-06,0.0,25.225105810528238,3.897042787392545,-0.0010066936877132782,0.0
8939,8.620689655172415,6.551724137931035,5.0,0,323964.4861532709,455793.80300064886,360335.66032426496,94825.53306794164,32533.972269884216,2.159763241021806e-06,0.0,0.0,0.0,2.159763241021806e-06,0.0,22.811173839249932,4.200117001099695,0.0010849870872548311,0.0
8940,8.965517241379311,6.551724137931035,0.0,0,204287.29471645807,428571.2473902319,349011.06604177126,196473.88775551782,-27495.18999104338,1.3619152981097205e-06,0.0,0.0,0.0,1.3619152981097205e-06,0.0,24.338458177540193,-0.04988915924157275,-0.0009169469333295927,0.0
8941,8.965517241379311,6.551724137931035,0.35714285714285715,0,271150.8787539181,454580.3737034999,265713.37656651874,143883.74352592838,-19118.386034628395,1.8076725250261206e-06,0.0,0.0,0.0,1.8076725250261206e-06,0.0,24.317435650618318,0.25415330483979365,-0.0006382870610978829,0.0
8942,8.965517241379311,6.551724137931035,0.7142857142857143,0,150730.25488679507,420987.2207689523,248791.25701577653,356821.45922169817,-49176.28383437719,1.0048683659119672e-06,0.0,0.0,0.0,1.0048683659119672e-06,0.0,23.335161365429688,0.5595097161751492,-0.0016477321816417195,0.0
8943,8.965517241379311,6.551724137931035,1.0714285714285714,0,426446.4265038451,319457.0163687646,534645.8570328,43480.221907296196,28366.2507197731,2.8429761766923005e-06,0.0,0.0,0.0,2.8429761766923005e-06,0.0,23.56138497263737,0.8681740435873838,0.0009617091477378837,0.0
8944,8.965517241379311,6.551724137931035,1.4285714285714286,0,184820.71051600168,567671.574860079,356311.8695037669,436418.274048959,30057.074049073482,1.232138070106678e-06,0.0,0.0,0.0,1.232138070106678e-06,0.0,24.683067648653186,1.182503167453947,0.001058240766103343,0.0
8945,8.965517241379311,6.551724137931035,1.7857142857142858,0,525501.6815807032,1020946.8799796832,492349.541659367,498596.55361761,184979.3908195622,3.503344543871355e-06,0.0,0.0,0.0,3.503344543871355e-06,0.0,23.495931980750075,1.5023287223559145,0.00730622319370456,0.0
8946,8.965517241379311,6.551724137931035,2.142857142857143,0,560203.0664125291,1182011.7523991046,608888.8035446837,635690.6973202653,477234.1984843214,3.7346871094168606e-06,0.0,0.0,0.0,3.7346871094168606e-06,0.0,23.50897521067725,1.8219697420072585,0.02558218474695673,0.0
8947,8.965517241379311,6.551724137931035,2.5,0,261500.82622132223,1176054.6896452093,962803.7886177419,884292.2033372723,794853.3965616181,1.7433388414754816e-06,0.0,0.0,0.0,1.7433388414754816e-06,0.0,23.876451949718316,2.1324169343612813,0.07948533965616181,0.0
8948,8.965517241379311,6.551724137931035,2.857142857142857,0,269914.20487183874,780532.5664814453,808085.5295299116,525451.6440495398,475811.5752394967,1.7994280324789248e-06,0.0,0.0,0.0,1.7994280324789248e-06,0.0,24.077392524428333,2.4291125991501157,0.02550592489217263,0.0
8949,8.965517241379311,6.551724137931035,3.2142857142857144,0,520723.7514822272,603512.0968577487,513815.74691935314,43766.70014083066,58805.87338961857,3.471491676548181e-06,0.0,0.0,0.0,3.471491676548181e-06,0.0,24.324734769247687,2.716614436641629,0.002322684890363733,0.0
8950,8.965517241379311,6.551724137931035,3.5714285714285716,0,262197.43525529094,561444.3841430414,399662.1634670958,258928.86210969105,12139.770970090289,1.7479829017019395e-06,0.0,0.0,0.0,1.7479829017019395e-06,0.0,24.351030398524916,3.003931738882519,0.0004274135436713767,0.0
8951,8.965517241379311,6.551724137931035,3.928571428571429,0,460399.6697529341,538064.440846905,466337.44818243396,46010.97881935303,41534.644217808825,3.069331131686227e-06,0.0,0.0,0.0,3.069331131686227e-06,0.0,24.226349973592782,3.296745472158813,0.0014081609757634075,0.0
8952,8.965517241379311,6.551724137931035,4.285714285714286,0,284975.2055324107,452411.5368225628,249812.79239723925,126554.42295711025,-35261.50509214363,1.8998347035494046e-06,0.0,0.0,0.0,1.8998347035494046e-06,0.0,22.886150290529013,3.5952240018894353,-0.001181494659277852,0.0
8953,8.965517241379311,6.551724137931035,4.642857142857143,0,289176.60378883383,497177.7619208274,303720.1168327218,164750.5879897366,72935.80122620169,1.927844025258892e-06,0.0,0.0,0.0,1.927844025258892e-06,0.0,23.824222006146798,3.8970104476969367,0.0024350370438786105,0.0
8954,8.965517241379311,6.551724137931035,5.0,0,345996.32886392664,489176.5882348456,244443.6605322062,93327.3915448959,27339.20549177055,2.3066421924261777e-06,0.0,0.0,0.0,2.3066421924261777e-06,0.0,24.182063724557846,4.200110840758428,0.0009117449504263371,0.0
8955,9.310344827586208,6.551724137931035,0.0,0,196096.40307487024,477991.53703368333,329396.5992308502,255729.68848827577,87722.93828510569,1.3073093538324683e-06,0.0,0.0,0.0,1.3073093538324683e-06,0.0,24.03347630360367,-0.04989539155445671,0.002925503670619894,0.0
8956,9.310344827586208,6.551724137931035,0.35714285714285715,0,192474.40795999212,376938.2920101219,254520.1839430025,155084.4346603647,-51027.402377654835,1.283162719733281e-06,0.0,0.0,0.0,1.283162719733281e-06,0.0,23.340851391102287,0.2541205873176866,-0.0017036025237747267,0.0
8957,9.310344827586208,6.551724137931035,0.7142857142857143,0,220342.85242009975,450642.4418007386,259080.29573940768,209847.81505901882,-51189.6785607633,1.4689523494673317e-06,0.0,0.0,0.0,1.4689523494673317e-06,0.0,23.189230947265983,0.5593766333069808,-0.0017151942797577016,0.0
8958,9.310344827586208,6.551724137931035,1.0714285714285714,0,191719.6829603913,372542.7070669238,183100.64115345606,178623.81838104138,16978.672965970316,1.278131219735942e-06,0.0,0.0,0.0,1.278131219735942e-06,0.0,23.159526302177138,0.8677545990999644,0.000575632827515041,0.0
8959,9.310344827586208,6.551724137931035,1.4285714285714286,0,261121.9610829932,523220.7852048811,375180.40193934646,221719.35862783663,12996.566067723186,1.7408130738866214e-06,0.0,0.0,0.0,1.7408130738866214e-06,0.0,23.94280368441892,1.181478843282007,0.00045757933755511554,0.0
8960,9.310344827586208,6.551724137931035,1.7857142857142858,0,555784.4177797519,796325.6371013297,587029.9023015177,166280.024566623,44538.346088457154,3.705229451865013e-06,0.0,0.0,0.0,3.705229451865013e-06,0.0,24.218402846621334,1.5003904672222537,0.0017591532535543063,0.0
8961,9.310344827586208,6.551724137931035,2.142857142857143,0,1176915.4495034108,1478157.8069296544,1186388.1507242857,182802.30670515978,276900.4763215167,7.846102996689405e-06,0.0,0.0,0.0,7.846102996689405e-06,0.0,23.79044672058217,1.8191279318912221,0.014843276454778374,0.0
8962,9.310344827586208,6.551724137931035,2.5,0,520390.3072372002,960987.5903886228,1033703.4052659653,480779.5489238935,716424.0399474209,3.469268714914668e-06,0.0,0.0,0.0,3.469268714914668e-06,0.0,23.18928137687917,2.129188516360047,0.07164240399474209,0.0
8963,9.310344827586208,6.551724137931035,2.857142857142857,0,853710.1932652908,1213174.9630123866,675100.1914095009,228821.03944012095,441396.2825906967,5.691401288435272e-06,0.0,0.0,0.0,5.691401288435272e-06,0.0,23.818781613092167,2.426270789034079,0.02366108984586128,0.0
8964,9.310344827586208,6.551724137931035,3.2142857142857144,0,578044.7546418167,968168.6330837581,319721.63687307114,506930.14237570256,-19055.597818611874,3.853631697612112e-06,0.0,0.0,0.0,3.853631697612112e-06,0.0,23.257771976234157,2.714676181507968,-0.0007526484444315977,0.0
8965,9.310344827586208,6.551724137931035,3.5714285714285716,0,473427.19286017254,600536.4257606681,237625.68704622172,65025.758838553156,-14843.27174287728,3.1561812857344836e-06,0.0,0.0,0.0,3.1561812857344836e-06,0.0,23.369956078628654,3.0029074147105783,-0.0005225976166215271,0.0
8966,9.310344827586208,6.551724137931035,3.928571428571429,0,283427.49561941344,523414.9888387451,197807.6392795659,389177.6527793607,17446.326268005432,1.8895166374627563e-06,0.0,0.0,0.0,1.8895166374627563e-06,0.0,23.55887610665207,3.2963260276713937,0.000591487811770098,0.0
8967,9.310344827586208,6.551724137931035,4.285714285714286,0,277498.5560519475,486681.4263464014,468420.9168056914,200503.58729781976,34309.809460850614,1.8499903736796501e-06,0.0,0.0,0.0,1.8499903736796501e-06,0.0,23.348658105681956,3.5950909190212665,0.0011496065336095782,0.0
8968,9.310344827586208,6.551724137931035,4.642857142857143,0,319831.40778555773,546831.5112613605,328863.78800115915,179662.28382083098,-12425.642605781382,2.1322093852370516e-06,0.0,0.0,0.0,2.1322093852370516e-06,0.0,23.187544862286103,3.89697773017483,-0.0004148429102086072,0.0
8969,9.310344827586208,6.551724137931035,5.0,0,185474.1503055001,339624.1975764943,253211.43233307838,126711.34503160705,-34767.40904630526,1.2364943353700008e-06,0.0,0.0,0.0,1.2364943353700008e-06,0.0,24.532074667182425,4.200104608445543,-0.0011594707698041036,0.0
8970,9.655172413793103,6.551724137931035,0.0,0,89892.23438831758,318330.32372925436,223737.49491898392,234023.6221518021,5074.194806146402,5.992815625887839e-07,0.0,0.0,0.0,5.992815625887839e-07,0.0,22.65407849664915,-0.04990168163448198,0.0001692211389748003,0.0
8971,9.655172413793103,6.551724137931035,0.35714285714285715,0,252794.61824415912,439932.9486606304,232922.12703726886,158200.1302727697,-9107.76552420262,1.6852974549610608e-06,0.0,0.0,0.0,1.6852974549610608e-06,0.0,23.306950106937517,0.2540875665377429,-0.0003040721575075625,0.0
8972,9.655172413793103,6.551724137931035,0.7142857142857143,0,50029.810757190564,250894.92709467732,255478.52470912723,203314.64013158475,-64733.9952907696,3.335320717146038e-07,0.0,0.0,0.0,3.335320717146038e-07,0.0,23.499583767240097,0.5592423168972693,-0.0021690188637694466,0.0
8973,9.655172413793103,6.551724137931035,1.0714285714285714,0,268438.5139147067,567323.1467592166,438537.69749664614,258758.41964522525,-20218.48877644519,1.7895900927647113e-06,0.0,0.0,0.0,1.7895900927647113e-06,0.0,24.226190820333382,0.8673312667928175,-0.0006854732337322656,0.0
8974,9.655172413793103,6.551724137931035,1.4285714285714286,0,341402.14847454755,658238.4901826626,367180.4148679154,282450.19738319225,-24553.16900699671,2.2760143231636504e-06,0.0,0.0,0.0,2.2760143231636504e-06,0.0,23.764277983934086,1.1804450246767326,-0.0008644608699372053,0.0
8975,9.655172413793103,6.551724137931035,1.7857142857142858,0,330195.2798650209,692197.4680223546,311116.18400569435,491087.3381220035,81559.6168466366,2.201301865766806e-06,0.0,0.0,0.0,2.201301865766806e-06,0.0,23.48090722535407,1.4984342464536358,0.003221400836246758,0.0
8976,9.655172413793103,6.551724137931035,2.142857142857143,0,644638.4320094044,1039612.0810717281,1304887.516316929,569937.2422793509,341118.43472220417,4.297589546729362e-06,0.0,0.0,0.0,4.297589546729362e-06,0.0,23.255818468701563,1.8162597811132801,0.018285686242459888,0.0
8977,9.655172413793103,6.551724137931035,2.5,0,903042.7417148368,1302084.424267197,623564.548984928,277117.3497964609,689872.9925233194,6.020284944765578e-06,0.0,0.0,0.0,6.020284944765578e-06,0.0,24.204785069005567,2.125930174238767,0.06898729925233194,0.0
8978,9.655172413793103,6.551724137931035,2.857142857142857,0,1002588.081402405,1134560.6891358686,653327.475075799,-17918.739942645618,403049.6110825379,6.6839205426827e-06,0.0,0.0,0.0,6.6839205426827e-06,0.0,23.23257152053898,2.423402638256137,0.021605512860665806,0.0
8979,9.655172413793103,6.551724137931035,3.2142857142857144,0,420058.24551756465,777159.8954082245,729105.6180476627,335141.10675415496,128215.39298839853,2.800388303450431e-06,0.0,0.0,0.0,2.800388303450431e-06,0.0,23.74619360360965,2.71271996073935,0.005064187279952462,0.0
8980,9.655172413793103,6.551724137931035,3.5714285714285716,0,305416.81733884953,588138.5331329231,414277.4748591504,235485.06252252558,11560.729521779765,2.0361121155923304e-06,0.0,0.0,0.0,2.0361121155923304e-06,0.0,23.56065694544192,3.001873596105304,0.0004070268199049426,0.0
8981,9.655172413793103,6.551724137931035,3.928571428571429,0,141725.67556153797,439550.0713838203,275899.6214522753,357470.3051120063,121616.03513132258,9.448378370769198e-07,0.0,0.0,0.0,9.448378370769198e-07,0.0,23.890115182573286,3.2959026953642465,0.004123183379179422,0.0
8982,9.655172413793103,6.551724137931035,4.285714285714286,0,343010.01674668986,525256.1452915991,200500.5394631341,166520.9667817337,-55889.02595511437,2.2867334449779324e-06,0.0,0.0,0.0,2.2867334449779324e-06,0.0,24.440377225712137,3.594956602611555,-0.0018726536347684476,0.0
8983,9.655172413793103,6.551724137931035,4.642857142857143,0,263872.266119413,479778.1692317234,223180.0287806179,209188.4859469447,40159.008936513805,1.7591484407960869e-06,0.0,0.0,0.0,1.7591484407960869e-06,0.0,24.012305674902336,3.8969447093948864,0.001340749985080487,0.0
8984,9.655172413793103,6.551724137931035,5.0,0,151066.30174887352,386941.9956873235,228437.79129598293,244615.8067619763,-3438.6535799306344,1.0071086783258235e-06,0.0,0.0,0.0,1.0071086783258235e-06,0.0,23.599834622073317,4.2000983183655185,-0.00011467688915506087,0.0
8985,10.0,6.551724137931035,0.0,0,308037.0810779515,568200.2488641818,314547.8928006863,225429.1588372617,-62524.37048740504,2.0535805405196766e-06,0.0,0.0,0.0,2.0535805405196766e-06,0.0,24.342067433145438,-0.04990801869620095,-0.002085147612926669,0.0
8986,10.0,6.551724137931035,0.35714285714285715,0,73880.85668643397,326694.88325578434,331119.1934443171,255125.60373240366,-16972.57345034976,4.925390445762265e-07,0.0,0.0,0.0,4.925390445762265e-07,0.0,24.298856432849004,0.2540542991198927,-0.0005666468920163882,0.0
8987,10.0,6.551724137931035,0.7142857142857143,0,291706.83432263235,441679.45087656967,301603.5844461979,106354.99157427326,-68096.06455578133,1.944712228817549e-06,0.0,0.0,0.0,1.944712228817549e-06,0.0,24.08344459336407,0.5591069972551037,-0.0022816705180409656,0.0
8988,10.0,6.551724137931035,1.0714285714285714,0,396938.9622694271,553239.8972623845,320876.738412114,94909.1375454172,4128.531982174372,2.6462597484628472e-06,0.0,0.0,0.0,2.6462597484628472e-06,0.0,23.65943661849501,0.8669047725435793,0.0001399708059133051,0.0
8989,10.0,6.551724137931035,1.4285714285714286,0,245865.02334343785,460830.06886007986,263904.5338633996,185266.0310292752,-9658.996112369608,1.639100155622919e-06,0.0,0.0,0.0,1.639100155622919e-06,0.0,23.1375987912552,1.179403484301805,-0.0003400711402931221,0.0
8990,10.0,6.551724137931035,1.7857142857142858,0,756995.8894067511,819514.2975312494,585459.4015650237,-26866.63528236573,28416.33312901022,5.046639262711674e-06,0.0,0.0,0.0,5.046639262711674e-06,0.0,22.344868388532376,1.4964634143343525,0.0011223740724161453,0.0
8991,10.0,6.551724137931035,2.142857142857143,0,747545.8741496834,1267652.2344201854,1093210.1534884183,448309.4115585311,310031.5816777177,4.983639160997889e-06,0.0,0.0,0.0,4.983639160997889e-06,0.0,23.6383418499604,1.8133702076219869,0.0166192725187341,0.0
8992,10.0,6.551724137931035,2.5,0,671746.916888055,1113808.3699308287,897942.2609346908,360665.8241907615,913048.6938776629,4.478312779253701e-06,0.0,0.0,0.0,4.478312779253701e-06,0.0,23.924354990377264,2.1226474949976244,0.09130486938776629,0.0
8993,10.0,6.551724137931035,2.857142857142857,0,520722.027939353,1126826.982112628,758695.4752036189,531044.3045501278,412986.01528726635,3.4714801862623537e-06,0.0,0.0,0.0,3.4714801862623537e-06,0.0,22.873533851305943,2.420513064764844,0.022138154756181916,0.0
8994,10.0,6.551724137931035,3.2142857142857144,0,417984.0633990606,747579.3880412959,553025.6740061976,267781.52961081546,97459.89376287501,2.786560422660404e-06,0.0,0.0,0.0,2.786560422660404e-06,0.0,23.754570289690097,2.710749128620067,0.003849421998372137,0.0
8995,10.0,6.551724137931035,3.5714285714285716,0,382690.1859943887,479291.0896845485,497602.06703022413,106085.08769978305,16300.503483406617,2.551267906629258e-06,0.0,0.0,0.0,2.551267906629258e-06,0.0,23.328845833564177,3.0008320557303767,0.0005739034100919802,0.0
8996,10.0,6.551724137931035,3.928571428571429,0,406695.6439594095,676995.7707582511,241555.74532853998,306975.61028940225,5307.119993468783,2.71130429306273e-06,0.0,0.0,0.0,2.71130429306273e-06,0.0,23.811422814527113,3.2954762011150085,0.00017992881386695903,0.0
8997,10.0,6.551724137931035,4.285714285714286,0,232757.59299349523,381298.30534186336,445550.40947418526,187415.8455505004,-14687.48677361424,1.5517172866233016e-06,0.0,0.0,0.0,1.5517172866233016e-06,0.0,23.252757830005585,3.5948212829693893,-0.0004921283744381535,0.0
8998,10.0,6.551724137931035,4.642857142857143,0,248401.41046884074,538692.5968976712,351766.5131368786,256822.4422791955,68071.37576422398,1.6560094031256048e-06,0.0,0.0,0.0,1.6560094031256048e-06,0.0,23.202740363778886,3.896911441977036,0.0022726331763956715,0.0
8999,10.0,6.551724137931035,5.0,0,188637.54794426373,413222.5811987551,316489.5960963724,195840.78848420267,100288.53804227807,1.2575836529617583e-06,0.0,0.0,0.0,1.2575836529617583e-06,0.0,23.53995922066572,4.2000919813038,0.0033445583549679423,0.0
9000,0.0,6.8965517241379315,0.0,0,177119.8850714199,350992.06722430885,422733.3625113371,220997.27663364,64931.508569010424,1.180799233809466e-06,0.0,0.0,0.0,1.180799233809466e-06,0.0,22.883919309784226,-0.04991018770100537,0.002165424122481538,0.0
9001,0.0,6.8965517241379315,0.35714285714285715,0,350322.1755442587,457765.2231612324,207938.4671799787,57324.04135586402,962.0057946643923,2.335481170295058e-06,0.0,0.0,0.0,2.335481170295058e-06,0.0,23.957629336939043,0.25404291258266964,3.211755690691091e-05,0.0
9002,0.0,6.8965517241379315,0.7142857142857143,0,189013.96888257633,508388.9079766085,361963.09723871597,295012.1988099032,-2130.6876266709787,1.2600931258838422e-06,0.0,0.0,0.0,1.2600931258838422e-06,0.0,23.49170275092719,0.5590606810020822,-7.139218944066137e-05,0.0
9003,0.0,6.8965517241379315,1.0714285714285714,0,248092.09005308882,548937.0622861205,364409.947971644,266905.24326987425,50956.19280825272,1.6539472670205922e-06,0.0,0.0,0.0,1.6539472670205922e-06,0.0,22.914026516038888,0.8667587950990354,0.0017275824444233775,0.0
9004,0.0,6.8965517241379315,1.4285714285714286,0,465370.28042999475,707070.557201833,276324.43767685693,213465.87937065162,-34044.658682186324,3.102468536199965e-06,0.0,0.0,0.0,3.102468536199965e-06,0.0,23.18326164237696,1.179046993205869,-0.0011986344920580931,0.0
9005,0.0,6.8965517241379315,1.7857142857142858,0,776959.4342482215,1226325.3961701018,611312.8451877641,353146.3936821612,213283.0702992814,5.1797295616548095e-06,0.0,0.0,0.0,5.1797295616548095e-06,0.0,23.79089824323983,1.4957888518123204,0.008424147728787607,0.0
9006,0.0,6.8965517241379315,2.142857142857143,0,452049.58182336803,1200688.852952273,865167.1398107124,686636.6314377562,521737.7100024432,3.0136638788224534e-06,0.0,0.0,0.0,3.0136638788224534e-06,0.0,23.34980457812517,1.8123811847809177,0.027967799728365716,0.0
9007,0.0,6.8965517241379315,2.5,0,637782.3583737881,1166931.2933219022,893651.554699866,438045.71909033787,738632.9469190864,4.251882389158587e-06,0.0,0.0,0.0,4.251882389158587e-06,0.0,23.860214978535005,2.1215239226921696,0.07386329469190864,0.0
9008,0.0,6.8965517241379315,2.857142857142857,0,1049430.2283624944,1246964.6146370121,997690.1695233253,95341.27120953854,463479.3745408665,6.9962015224166295e-06,0.0,0.0,0.0,6.9962015224166295e-06,0.0,23.012429644089426,2.4195240419237747,0.024844856096996437,0.0
9009,0.0,6.8965517241379315,3.2142857142857144,0,414618.41312242293,730646.1080170082,451966.1185468719,254168.86214844434,129670.91669884353,2.764122754149486e-06,0.0,0.0,0.0,2.764122754149486e-06,0.0,23.374867654842344,2.7100745660980348,0.005121676825383031,0.0
9010,0.0,6.8965517241379315,3.5714285714285716,0,353311.30536884983,638510.6518464835,406244.3530054611,231915.53706998916,-16260.362853542949,2.355408702458999e-06,0.0,0.0,0.0,2.355408702458999e-06,0.0,23.483359244900054,3.0004755646344408,-0.0005724901504104342,0.0
9011,0.0,6.8965517241379315,3.928571428571429,0,147843.9209270725,343319.0551437646,312304.046676554,182427.99994092275,48249.21991339986,9.856261395138167e-07,0.0,0.0,0.0,9.856261395138167e-07,0.0,24.63764876729629,3.2953302236704647,0.0016358071646595342,0.0
9012,0.0,6.8965517241379315,4.285714285714286,0,385473.7326289217,663111.6352174514,259662.2203815124,298563.63156003953,57280.270138590415,2.5698248841928114e-06,0.0,0.0,0.0,2.5698248841928114e-06,0.0,23.16495414583345,3.594774966716368,0.001919269556812415,0.0
9013,0.0,6.8965517241379315,4.642857142857143,0,377445.83482962725,525336.6152890467,359092.319229538,93305.47661704323,-11780.402143183246,2.5163055655308484e-06,0.0,0.0,0.0,2.5163055655308484e-06,0.0,23.846932452562847,3.8969000554398128,-0.0003933008910325514,0.0
9014,0.0,6.8965517241379315,5.0,0,191715.47642864165,297413.7700654246,295285.25628120825,104642.89885324701,-21330.704500911495,1.2781031761909443e-06,0.0,0.0,0.0,1.2781031761909443e-06,0.0,23.77413222726526,4.2000898122989945,-0.0007113653000485527,0.0
9015,0.3448275862068966,6.8965517241379315,0.0,0,245575.96506556022,356044.2344563217,168190.21783810743,78158.79076524028,-4373.248025465595,1.6371731004370682e-06,0.0,0.0,0.0,1.6371731004370682e-06,0.0,24.43770476899917,-0.0499039923898561,-0.0001458450138713954,0.0
9016,0.3448275862068966,6.8965517241379315,0.35714285714285715,0,315791.5801853031,482686.0838204482,140997.3042609876,201565.19809391396,-48003.499751592615,2.1052772012353542e-06,0.0,0.0,0.0,2.1052772012353542e-06,0.0,24.248327387697355,0.2540754358582593,-0.0016026464118550554,0.0
9017,0.3448275862068966,6.8965517241379315,0.7142857142857143,0,418913.3773073947,514221.32695038326,357092.28672266344,39460.81212566767,-69412.52225084485,2.7927558487159644e-06,0.0,0.0,0.0,2.7927558487159644e-06,0.0,23.34199543391679,0.5591929737467328,-0.0023257805959238666,0.0
9018,0.3448275862068966,6.8965517241379315,1.0714285714285714,0,109874.21794785258,319751.78527781466,195517.34048302038,235347.88940613886,-18306.891761503506,7.324947863190172e-07,0.0,0.0,0.0,7.324947863190172e-07,0.0,23.053356856373146,0.8671757493113467,-0.0006206638109354641,0.0
9019,0.3448275862068966,6.8965517241379315,1.4285714285714286,0,402935.32006322965,569477.3594067143,376730.9929678253,106370.62056014773,-41579.44755560514,2.6862354670881975e-06,0.0,0.0,0.0,2.6862354670881975e-06,0.0,22.874869404123867,1.1800652358841561,-0.0014639171585217462,0.0
9020,0.3448275862068966,6.8965517241379315,1.7857142857142858,0,302997.87781402015,435891.2024970172,507613.75033382827,175189.46277642032,201626.43643633727,2.0199858520934676e-06,0.0,0.0,0.0,2.0199858520934676e-06,0.0,23.705466023604945,1.4977155993718982,0.007963739851387689,0.0
9021,0.3448275862068966,6.8965517241379315,2.142857142857143,0,330266.3725252227,1038891.4311934776,662487.8865334291,797622.197114446,350700.24961610796,2.201775816834818e-06,0.0,0.0,0.0,2.201775816834818e-06,0.0,24.09911788642595,1.8152061228454521,0.018799320344134687,0.0
9022,0.3448275862068966,6.8965517241379315,2.5,0,650720.8102846328,1521433.7989175173,1358294.5345094488,804665.962808761,774863.2701757812,4.3381387352308855e-06,0.0,0.0,0.0,4.3381387352308855e-06,0.0,24.168856221713778,2.1247331733202994,0.07748632701757813,0.0
9023,0.3448275862068966,6.8965517241379315,2.857142857142857,0,434895.2439638632,941113.4753239022,778465.3363858126,448337.02659649175,332506.31680949085,2.8993016264257544e-06,0.0,0.0,0.0,2.8993016264257544e-06,0.0,23.471137350859046,2.422348979988309,0.017824032839989307,0.0
9024,0.3448275862068966,6.8965517241379315,3.2142857142857144,0,464516.35182707023,498778.69658944226,607664.5020323341,98377.28292942562,202448.70624126995,3.096775678847135e-06,0.0,0.0,0.0,3.096775678847135e-06,0.0,23.628606021289514,2.7120013136576127,0.007996217451695833,0.0
9025,0.3448275862068966,6.8965517241379315,3.5714285714285716,0,125832.17155028577,512977.3415883915,377272.42980846803,400159.6982067386,-3399.3971250586337,8.388811436685718e-07,0.0,0.0,0.0,8.388811436685718e-07,0.0,24.32417883435323,3.0014938073127277,-0.00011968499036327327,0.0
9026,0.3448275862068966,6.8965517241379315,3.928571428571429,0,193059.53593399146,377008.738394349,280354.8080754699,154711.95478790675,-53062.99027283431,1.2870635728932764e-06,0.0,0.0,0.0,1.2870635728932764e-06,0.0,23.234290622314553,3.295747177882776,-0.0017990098041451455,0.0
9027,0.3448275862068966,6.8965517241379315,4.285714285714286,0,246807.40198582129,468697.8165101502,289808.7906974109,187125.9213600785,27907.345980886552,1.6453826799054752e-06,0.0,0.0,0.0,1.6453826799054752e-06,0.0,22.382958837836323,3.5949072594610185,0.0009350814760990746,0.0
9028,0.3448275862068966,6.8965517241379315,4.642857142857143,0,147847.52887969033,341483.4930201271,411517.578737162,241666.1488545433,10765.848324805624,9.85650192531269e-07,0.0,0.0,0.0,9.85650192531269e-07,0.0,24.2019571554598,3.8969325787154023,0.0003594289640882499,0.0
9029,0.3448275862068966,6.8965517241379315,5.0,0,363579.1852532197,350766.34825258347,380699.0071292313,3078.7780857524795,49912.3867227,2.4238612350214645e-06,0.0,0.0,0.0,2.4238612350214645e-06,0.0,23.049908453008854,4.200096007610144,0.0016645460517075588,0.0
9030,0.6896551724137931,6.8965517241379315,0.0,0,275892.4774339895,230256.35303988456,421401.64169339044,105115.90741989158,-5956.070367186725,1.8392831828932635e-06,0.0,0.0,0.0,1.8392831828932635e-06,0.0,23.50923900169425,-0.04989786233623639,-0.0001986311227406027,0.0
9031,0.6896551724137931,6.8965517241379315,0.35714285714285715,0,217190.4478821337,399680.82738671685,287714.68054135295,149354.30251353286,4169.946729421635,1.4479363192142247e-06,0.0,0.0,0.0,1.4479363192142247e-06,0.0,23.887562396877488,0.2541076165540226,0.00013921797781655672,0.0
9032,0.6896551724137931,6.8965517241379315,0.7142857142857143,0,193799.11375868565,375297.65131070686,203432.53148081043,165248.68662570624,-58447.73587684415,1.291994091724571e-06,0.0,0.0,0.0,1.291994091724571e-06,0.0,23.432911570524258,0.5593238730024228,-0.0019583874144033543,0.0
9033,0.6896551724137931,6.8965517241379315,1.0714285714285714,0,224967.20143498227,304555.82560321747,244458.92553130977,55643.23123841693,33634.60101714494,1.4997813428998818e-06,0.0,0.0,0.0,1.4997813428998818e-06,0.0,24.208905935068515,0.8675883115889873,0.0011403235414595867,0.0
9034,0.6896551724137931,6.8965517241379315,1.4285714285714286,0,266914.6859611894,482268.03389594686,214700.40077156326,216011.1224807933,8747.511247072951,1.7794312397412627e-06,0.0,0.0,0.0,1.7794312397412627e-06,0.0,25.009135125715883,1.1810727530314624,0.00030797984489396566,0.0
9035,0.6896551724137931,6.8965517241379315,1.7857142857142858,0,461076.39702878345,801676.2092214172,567570.5759482583,270513.0712339032,61795.586293767614,3.0738426468585564e-06,0.0,0.0,0.0,3.0738426468585564e-06,0.0,23.274683858132985,1.499622051778775,0.0024407710710243604,0.0
9036,0.6896551724137931,6.8965517241379315,2.142857142857143,0,321217.15810601006,942873.4633555595,574281.783725781,722722.4573511861,349044.4382696705,2.1414477207067336e-06,0.0,0.0,0.0,2.1414477207067336e-06,0.0,23.749886878098682,1.8180013047807486,0.018710560418913065,0.0
9037,0.6896551724137931,6.8965517241379315,2.5,0,969188.9257503602,1221571.8158122704,103111.96834640199,695701.3135687327,636240.7745316807,6.461259505002402e-06,0.0,0.0,0.0,6.461259505002402e-06,0.0,23.690169876446646,2.127908619711215,0.06362407745316807,0.0
9038,0.6896551724137931,6.8965517241379315,2.857142857142857,0,775182.2394677529,1039217.4415788923,1175288.05527198,341079.7291581621,455296.41538183653,5.167881596451686e-06,0.0,0.0,0.0,5.167881596451686e-06,0.0,23.848812832573273,2.4251441619236056,0.024406207790466948,0.0
9039,0.6896551724137931,6.8965517241379315,3.2142857142857144,0,230079.7081749272,504871.9068826464,389646.9192242929,239945.46326183388,8498.04602239142,1.5338647211661812e-06,0.0,0.0,0.0,1.5338647211661812e-06,0.0,23.395444534460584,2.7139077660644895,0.0003356515592081779,0.0
9040,0.6896551724137931,6.8965517241379315,3.5714285714285716,0,379626.1351637999,655236.3611531515,271451.94189032086,279909.85225433484,40354.29912539775,2.5308409010919996e-06,0.0,0.0,0.0,2.5308409010919996e-06,0.0,23.376787796659563,3.002501324460034,0.0014207824870877865,0.0
9041,0.6896551724137931,6.8965517241379315,3.928571428571429,0,209852.12634294297,361888.3203347498,413222.30411515426,182466.23032984143,-63879.10317697335,1.3990141756196198e-06,0.0,0.0,0.0,1.3990141756196198e-06,0.0,23.393356967024726,3.2961597401604164,-0.002165711587388761,0.0
9042,0.6896551724137931,6.8965517241379315,4.285714285714286,0,344040.69106500474,438662.00168066233,177737.33248466076,48771.96065521787,-74314.23116311814,2.2936046071000314e-06,0.0,0.0,0.0,2.2936046071000314e-06,0.0,23.480619065768693,3.595038158716709,-0.0024900204060525582,0.0
9043,0.6896551724137931,6.8965517241379315,4.642857142857143,0,114464.9229921303,446009.55411494564,358449.1867068332,316484.9528660044,54530.709656660445,7.63099486614202e-07,0.0,0.0,0.0,7.63099486614202e-07,0.0,23.493260906741796,3.8969647594111656,0.0018205640551084451,0.0
9044,0.6896551724137931,6.8965517241379315,5.0,0,257735.2077486476,375676.3921537511,225120.98136081893,78076.31153615008,-39530.888671118315,1.7182347183243173e-06,0.0,0.0,0.0,1.7182347183243173e-06,0.0,22.468211361851044,4.200102137663764,-0.0013183297569714287,0.0
9045,1.0344827586206897,6.8965517241379315,0.0,0,219728.75466792486,406793.0103684485,157891.41538316873,324965.2423112549,3837.8770434943694,1.4648583644528324e-06,0.0,0.0,0.0,1.4648583644528324e-06,0.0,23.78839096692515,-0.049891811683883444,0.0001279907353495128,0.0
9046,1.0344827586206897,6.8965517241379315,0.35714285714285715,0,203047.19325140095,380678.26667259634,377768.18651062914,176191.67421031423,-9724.232185474548,1.3536479550093396e-06,0.0,0.0,0.0,1.3536479550093396e-06,0.0,23.59822191530388,0.25413938042015144,-0.0003246535336119775,0.0
9047,1.0344827586206897,6.8965517241379315,0.7142857142857143,0,199237.89648502617,260794.42018128926,321999.72240146005,99339.3387449313,12532.93837824229,1.3282526432335078e-06,0.0,0.0,0.0,1.3282526432335078e-06,0.0,23.394332197374744,0.5594530767481931,0.00041993669074128295,0.0
9048,1.0344827586206897,6.8965517241379315,1.0714285714285714,0,368680.3787650811,350090.7754836197,331510.7060178197,-27528.33419497098,2167.8768121826524,2.4578691917672072e-06,0.0,0.0,0.0,2.4578691917672072e-06,0.0,23.80480596231023,0.8679955300361334,7.349815039150073e-05,0.0
9049,1.0344827586206897,6.8965517241379315,1.4285714285714286,0,124101.25255242626,382413.133339302,337107.5637363402,242024.73409896714,50932.77844923793,8.273416836828418e-07,0.0,0.0,0.0,8.273416836828418e-07,0.0,23.760276392542437,1.1820672200257434,0.001793226526237834,0.0
9050,1.0344827586206897,6.8965517241379315,1.7857142857142858,0,485395.474504522,566629.2313198867,511798.2194948879,56146.507749062745,-23462.40177014441,3.235969830030147e-06,0.0,0.0,0.0,3.235969830030147e-06,0.0,23.56892202927771,1.5015038103174514,-0.000926706176474853,0.0
9051,1.0344827586206897,6.8965517241379315,2.142857142857143,0,256316.72467390407,683710.0385665937,419520.470110924,436068.00302154565,410905.3967698495,1.708778164492694e-06,0.0,0.0,0.0,1.708778164492694e-06,0.0,23.77687934126245,1.8207602813253114,0.02202662300202527,0.0
9052,1.0344827586206897,6.8965517241379315,2.5,0,515911.9412360881,1333474.0230732036,786099.9534559307,856190.9371168165,622363.1574412157,3.4394129415739206e-06,0.0,0.0,0.0,3.4394129415739206e-06,0.0,23.486280902946238,2.1310429352276485,0.06223631574412157,0.0
9053,1.0344827586206897,6.8965517241379315,2.857142857142857,0,944258.6323088546,1221280.44738416,475644.4966574981,159517.89048487655,207125.006107669,6.295057548725697e-06,0.0,0.0,0.0,6.295057548725697e-06,0.0,23.197465279277978,2.4279031384681686,0.011102955716060254,0.0
9054,1.0344827586206897,6.8965517241379315,3.2142857142857144,0,448819.6835215309,746390.6858425401,263578.8473437091,341863.1715469714,32678.98462645527,2.9921312234768728e-06,0.0,0.0,0.0,2.9921312234768728e-06,0.0,24.767239273176944,2.715789524603166,0.0012907381431341187,0.0
9055,1.0344827586206897,6.8965517241379315,3.5714285714285716,0,383942.2712264877,546543.7147950887,340881.42887909367,103581.80911720806,-64420.0348466759,2.559615141509918e-06,0.0,0.0,0.0,2.559615141509918e-06,0.0,23.543463952255166,3.003495791454315,-0.0022680819469402674,0.0
9056,1.0344827586206897,6.8965517241379315,3.928571428571429,0,114274.39480237014,349163.58556501946,349372.42171286966,234993.7519544751,-62507.72429054727,7.618292986824676e-07,0.0,0.0,0.0,7.618292986824676e-07,0.0,23.92893822917837,3.2965669586075625,-0.0021192173350069606,0.0
9057,1.0344827586206897,6.8965517241379315,4.285714285714286,0,145051.50892222472,317678.79035501083,226889.52682639734,150391.080601988,-15888.371556756578,9.670100594814982e-07,0.0,0.0,0.0,9.670100594814982e-07,0.0,25.099132269482517,3.595167362462479,-0.0005323659920322715,0.0
9058,1.0344827586206897,6.8965517241379315,4.642857142857143,0,141455.35473224957,306339.2194770548,238602.43368328182,143752.47796516723,43045.071129586,9.430356982149971e-07,0.0,0.0,0.0,9.430356982149971e-07,0.0,23.598788509574568,3.8969965232772945,0.0014371041517985967,0.0
9059,1.0344827586206897,6.8965517241379315,5.0,0,214159.57920853968,409497.0746144432,171360.60883788584,232700.2256214398,11340.93452551188,1.4277305280569313e-06,0.0,0.0,0.0,1.4277305280569313e-06,0.0,24.04047162317726,4.200108188316117,0.0003782128851499963,0.0
9060,1.3793103448275863,6.8965517241379315,0.0,0,157397.02482044094,358983.0016656896,240867.83071015036,180299.21414616698,44619.19661872843,1.0493134988029397e-06,0.0,0.0,0.0,1.0493134988029397e-06,0.0,24.995535886585813,-0.04988585870123936,0.0014880215601529142,0.0
9061,1.3793103448275863,6.8965517241379315,0.35714285714285715,0,236591.48893004245,338152.32859189657,292630.4157912024,82107.53386287551,2608.6369410649068,1.5772765928669498e-06,0.0,0.0,0.0,1.5772765928669498e-06,0.0,23.011947109437052,0.25417063155354075,8.70920381860599e-05,0.0
9062,1.3793103448275863,6.8965517241379315,0.7142857142857143,0,158338.41064576182,433802.81321018597,295731.9898159786,260972.46868271672,53402.556283389495,1.0555894043050788e-06,0.0,0.0,0.0,1.0555894043050788e-06,0.0,24.508571137252677,0.5595801948854213,0.0017893403833935415,0.0
9063,1.3793103448275863,6.8965517241379315,1.0714285714285714,0,313845.2279756171,383728.0274130276,287190.4379345952,32954.36083479898,51578.56896377595,2.0923015198374475e-06,0.0,0.0,0.0,2.0923015198374475e-06,0.0,23.957456866000598,0.8683961751578172,0.0017486830420319081,0.0
9064,1.3793103448275863,6.8965517241379315,1.4285714285714286,0,137569.537311321,343329.7984186224,237742.62252890493,187755.43011198426,-34004.1816709949,9.171302487421401e-07,0.0,0.0,0.0,9.171302487421401e-07,0.0,23.598539722301126,1.183045634320888,-0.0011972093891600916,0.0
9065,1.3793103448275863,6.8965517241379315,1.7857142857142858,0,321811.54062867654,510457.74637553125,336815.92918589484,139121.35986411004,66442.47770837123,2.1454102708578436e-06,0.0,0.0,0.0,2.1454102708578436e-06,0.0,23.880103549932258,1.5033551934853588,0.0026243116572571322,0.0
9066,1.3793103448275863,6.8965517241379315,2.142857142857143,0,811471.0435475432,994943.5190367571,752145.3506208028,89789.34452535342,266963.0032780408,5.409806956983622e-06,0.0,0.0,0.0,5.409806956983622e-06,0.0,23.679681282582568,1.8234747224346624,0.01431057726405922,0.0
9067,1.3793103448275863,6.8965517241379315,2.5,0,940306.6768727157,1244788.8273711305,888408.7107726492,178386.20670781846,579483.0610327965,6.268711179151438e-06,0.0,0.0,0.0,6.268711179151438e-06,0.0,24.65346048865004,2.1341266565823114,0.057948306103279654,0.0
9068,1.3793103448275863,6.8965517241379315,2.857142857142857,0,551067.4352524664,972125.0934197017,582749.194899792,341587.25551161263,475393.6110395314,3.673782901683109e-06,0.0,0.0,0.0,3.673782901683109e-06,0.0,23.862063838014958,2.4306175795775196,0.025483519881351772,0.0
9069,1.3793103448275863,6.8965517241379315,3.2142857142857144,0,500144.8552857027,815118.3079881663,363284.6121411762,277705.69806831016,24331.859812685558,3.334299035238018e-06,0.0,0.0,0.0,3.334299035238018e-06,0.0,24.223714393966944,2.7176409077710733,0.000961047594122636,0.0
9070,1.3793103448275863,6.8965517241379315,3.5714285714285716,0,255944.25990568715,547418.4708415592,385069.2551063899,252375.88198733522,-43746.350802294015,1.7062950660379144e-06,0.0,0.0,0.0,1.7062950660379144e-06,0.0,23.61508629066239,3.0044742057494593,-0.001540208861037565,0.0
9071,1.3793103448275863,6.8965517241379315,3.928571428571429,0,152835.9422583042,386290.5832487983,222930.3938656615,246783.9233859097,-39530.22153433678,1.018906281722028e-06,0.0,0.0,0.0,1.018906281722028e-06,0.0,24.03045925929153,3.2969676037292466,-0.0013402044576577322,0.0
9072,1.3793103448275863,6.8965517241379315,4.285714285714286,0,132816.93677878808,286766.1349355735,292589.9731780886,156956.91453341395,-13621.154025327436,8.854462451919205e-07,0.0,0.0,0.0,8.854462451919205e-07,0.0,23.697605077373968,3.595294480599707,-0.00045639914382755676,0.0
9073,1.3793103448275863,6.8965517241379315,4.642857142857143,0,136696.68522405307,253471.9709764214,231019.81141846871,106939.16871244794,128637.63840919988,9.113112348270205e-07,0.0,0.0,0.0,9.113112348270205e-07,0.0,23.183784305323023,3.897027774410684,0.004294700400863428,0.0
9074,1.3793103448275863,6.8965517241379315,5.0,0,132874.28860286775,316784.30695733725,168429.9643602873,208712.9127562874,50575.07138365121,8.85828590685785e-07,0.0,0.0,0.0,8.85828590685785e-07,0.0,24.552682248054065,4.20011414129876,0.001686646159683598,0.0
9075,1.7241379310344829,6.8965517241379315,0.0,0,267982.290625521,377393.40291256167,335352.21546083875,90875.3289592261,-94228.45290576368,1.7865486041701398e-06,0.0,0.0,0.0,1.7865486041701398e-06,0.0,24.09255965885578,-0.04988002726266219,-0.003142458406451374,0.0
9076,1.7241379310344829,6.8965517241379315,0.35714285714285715,0,364912.33745722007,447896.04652678955,237512.2498988067,26531.71485437151,-1174.5291081489231,2.4327489163814672e-06,0.0,0.0,0.0,2.4327489163814672e-06,0.0,24.308844904421765,0.2542012446219339,-3.921286719791173e-05,0.0
9077,1.7241379310344829,6.8965517241379315,0.7142857142857143,0,168274.25336758498,356573.2235789044,183587.2144500516,193444.03414941227,-20694.261662290042,1.1218283557838998e-06,0.0,0.0,0.0,1.1218283557838998e-06,0.0,23.563757723085537,0.5597047176085015,-0.0006933952356203214,0.0
9078,1.7241379310344829,6.8965517241379315,1.0714285714285714,0,244722.87271066906,418307.3171225526,143026.59591514384,225397.8166086867,33659.06940327125,1.631485818071127e-06,0.0,0.0,0.0,1.631485818071127e-06,0.0,24.525058964097692,0.8687886401720843,0.0011411531001841613,0.0
9079,1.7241379310344829,6.8965517241379315,1.4285714285714286,0,251255.2923619774,374686.59767735883,174155.75862641924,92845.41192179058,-41502.019144422105,1.6750352824131826e-06,0.0,0.0,0.0,1.6750352824131826e-06,0.0,24.171353565281088,1.1840040719993232,-0.0014611910814247297,0.0
9080,1.7241379310344829,6.8965517241379315,1.7857142857142858,0,248418.16164930488,634724.6287909297,353000.4707692988,447116.3507103232,955.5253891575339,1.6561210776620325e-06,0.0,0.0,0.0,1.6561210776620325e-06,0.0,24.017287984306595,1.505168776334822,3.774086253341719e-05,0.0
9081,1.7241379310344829,6.8965517241379315,2.142857142857143,0,511898.3153565429,973954.7598510415,907351.2500859915,432014.7596210993,267609.90540969186,3.412655435710286e-06,0.0,0.0,0.0,3.412655435710286e-06,0.0,24.46154205336319,1.8261337418786818,0.014345254514553124,0.0
9082,1.7241379310344829,6.8965517241379315,2.5,0,106582.74691487447,594384.0129739519,573707.8160976694,478978.0645436742,499677.3328252691,7.105516460991632e-07,0.0,0.0,0.0,7.105516460991632e-07,0.0,23.787017342889396,2.1371474165515516,0.049967733282526905,0.0
9083,1.7241379310344829,6.8965517241379315,2.857142857142857,0,551678.9580472928,767101.0450813388,827460.4020005143,248083.8246272726,369885.68907325924,3.677859720315285e-06,0.0,0.0,0.0,3.677859720315285e-06,0.0,24.603742519250854,2.433276599021539,0.019827757656890516,0.0
9084,1.7241379310344829,6.8965517241379315,3.2142857142857144,0,313056.16818135185,671630.1672221321,380335.246233016,340605.74971605843,40571.66450471278,2.0870411212090122e-06,0.0,0.0,0.0,2.0870411212090122e-06,0.0,23.62998535858206,2.7194544906205365,0.0016024792540304143,0.0
9085,1.7241379310344829,6.8965517241379315,3.5714285714285716,0,330421.3598753549,415646.7720037901,182733.55594702132,37480.68688019515,44482.51276295356,2.2028090658356993e-06,0.0,0.0,0.0,2.2028090658356993e-06,0.0,23.98248331671043,3.005432643427895,0.0015661274383399523,0.0
9086,1.7241379310344829,6.8965517241379315,3.928571428571429,0,127445.24136747405,257918.15242725008,205249.60344139804,112580.48509190383,-27257.807873196507,8.49634942449827e-07,0.0,0.0,0.0,8.49634942449827e-07,0.0,23.502331081113837,3.297360068743514,-0.0009241292914562688,0.0
9087,1.7241379310344829,6.8965517241379315,4.285714285714286,0,76865.97994934386,169147.85559871286,146054.08860808783,83382.46148637185,28496.464527848573,5.124398663289591e-07,0.0,0.0,0.0,5.124398663289591e-07,0.0,23.401207187880058,3.595419003322787,0.0009548208608785472,0.0
9088,1.7241379310344829,6.8965517241379315,4.642857142857143,0,224052.80144223617,304050.9431354348,173474.80593311382,45340.89509784993,-37956.93132769757,1.493685342948241e-06,0.0,0.0,0.0,1.493685342948241e-06,0.0,23.7471704972891,3.897058387479077,-0.0012672313500505772,0.0
9089,1.7241379310344829,6.8965517241379315,5.0,0,144337.23469471175,323289.07377499633,171487.02098198523,187803.31867064812,20162.99024596465,9.622482312980783e-07,0.0,0.0,0.0,9.622482312980783e-07,0.0,23.904341598468783,4.200119972737338,0.0006724227793593866,0.0
9090,2.0689655172413794,6.8965517241379315,0.0,0,141818.59371495436,260337.94986496886,100957.88384354694,148074.77700648323,-15808.628081712443,9.45457291433029e-07,0.0,0.0,0.0,9.45457291433029e-07,0.0,24.278428002274218,-0.04987434892611723,-0.0005272075968340756,0.0
9091,2.0689655172413794,6.8965517241379315,0.35714285714285715,0,143986.33372318948,325359.61203812447,317117.3340797031,177429.17941073613,28203.167767820752,9.599088914879298e-07,0.0,0.0,0.0,9.599088914879298e-07,0.0,23.685749654619475,0.25423105395675066,0.0009415918810074778,0.0
9092,2.0689655172413794,6.8965517241379315,0.7142857142857143,0,208101.2991641124,349454.736997128,235514.2382506792,109265.15793173034,-77450.27750673672,1.387341994427416e-06,0.0,0.0,0.0,1.387341994427416e-06,0.0,24.305462787329795,0.5598259710384721,-0.002595098791009493,0.0
9093,2.0689655172413794,6.8965517241379315,1.0714285714285714,0,181456.94681925175,370771.26075846114,183971.90174020428,195175.94175585933,-25396.620812609282,1.2097129787950117e-06,0.0,0.0,0.0,1.2097129787950117e-06,0.0,23.856769479409152,0.8691708011780938,-0.0008610289318246582,0.0
9094,2.0689655172413794,6.8965517241379315,1.4285714285714286,0,109946.61873325403,200904.9594179217,282789.96285747294,157827.26338945326,49161.882420265734,7.329774582216935e-07,0.0,0.0,0.0,7.329774582216935e-07,0.0,23.77444341935109,1.1849373462889363,0.0017308773312586685,0.0
9095,2.0689655172413794,6.8965517241379315,1.7857142857142858,0,203501.01465374525,401168.6663806897,290017.48789417505,166298.0002225933,46341.708696701804,1.3566734310249684e-06,0.0,0.0,0.0,1.3566734310249684e-06,0.0,24.34093437923409,1.50693474430913,0.0018303815652956337,0.0
9096,2.0689655172413794,6.8965517241379315,2.142857142857143,0,585342.3809890213,757192.0576860333,133677.28493982623,219497.29258304634,166935.95933851303,3.902282539926808e-06,0.0,0.0,0.0,3.902282539926808e-06,0.0,23.758729225726096,1.8287229498559139,0.00894861802920144,0.0
9097,2.0689655172413794,6.8965517241379315,2.5,0,1147213.716583706,1057296.0366148702,1225129.6420475356,3243.937215066785,480342.45449197595,7.648091443891373e-06,0.0,0.0,0.0,7.648091443891373e-06,0.0,24.94828560523803,2.140088867704627,0.0480342454491976,0.0
9098,2.0689655172413794,6.8965517241379315,2.857142857142857,0,340558.4425476796,885212.0046078312,594997.0606047903,510296.9663721133,335040.2121820778,2.2703896169845305e-06,0.0,0.0,0.0,2.2703896169845305e-06,0.0,24.25658396558878,2.435865806998771,0.017959862543218564,0.0
9099,2.0689655172413794,6.8965517241379315,3.2142857142857144,0,271443.20457452396,595581.2719786916,316844.0283254649,332073.3128728009,13194.91530323743,1.8096213638301597e-06,0.0,0.0,0.0,1.8096213638301597e-06,0.0,23.36135457898325,2.7212204585948445,0.0005211661461331041,0.0
9100,2.0689655172413794,6.8965517241379315,3.5714285714285716,0,244449.81512378444,350781.3129347771,118995.70106673075,374395.79968564876,48885.59063621027,1.6296654341585629e-06,0.0,0.0,0.0,1.6296654341585629e-06,0.0,23.990292011824998,3.006365917717508,0.0017211497300706903,0.0
9101,2.0689655172413794,6.8965517241379315,3.928571428571429,0,186476.91241565393,305497.2332308009,131150.1740365559,108888.94646387291,35683.5471019431,1.2431794161043596e-06,0.0,0.0,0.0,1.2431794161043596e-06,0.0,23.73101667849173,3.297742229749523,0.0012097895492319342,0.0
9102,2.0689655172413794,6.8965517241379315,4.285714285714286,0,219918.15760653233,271095.3008871306,327122.2499040065,84609.98336412867,21192.18709484482,1.4661210507102155e-06,0.0,0.0,0.0,1.4661210507102155e-06,0.0,23.238710648924062,3.595540256752758,0.0007100790452803111,0.0
9103,2.0689655172413794,6.8965517241379315,4.642857142857143,0,324506.92029732576,364904.99897627713,316430.4703503578,18887.67565293357,32606.33057010295,2.1633794686488382e-06,0.0,0.0,0.0,2.1633794686488382e-06,0.0,24.59303243130397,3.8970881968138937,0.0010885960182559727,0.0
9104,2.0689655172413794,6.8965517241379315,5.0,0,76894.37551530493,258025.19547265052,269011.79674482736,187215.04972357638,-16292.338516181051,5.126291701020329e-07,0.0,0.0,0.0,5.126291701020329e-07,0.0,24.609277969738308,4.200125651073883,-0.0005433390292646206,0.0
9105,2.413793103448276,6.8965517241379315,0.0,0,203580.4311356297,360220.0083319221,146853.26911836592,168090.93731542068,45785.31850507876,1.3572028742375315e-06,0.0,0.0,0.0,1.3572028742375315e-06,0.0,23.721308629268883,-0.049868865832292705,0.001526910976371743,0.0
9106,2.413793103448276,6.8965517241379315,0.35714285714285715,0,96479.57421418739,320740.61759189016,308553.65494087676,218746.57997728785,33122.94266153253,6.43197161427916e-07,0.0,0.0,0.0,6.43197161427916e-07,0.0,24.443736987807952,0.2542598383337162,0.0011058436464275643,0.0
9107,2.413793103448276,6.8965517241379315,0.7142857142857143,0,214988.8703017402,306139.4236664765,244035.32362856684,66934.725520049,-3976.99716946276,1.4332591353449345e-06,0.0,0.0,0.0,1.4332591353449345e-06,0.0,24.5316439689426,0.5599430553162018,-0.00013325582397588282,0.0
9108,2.413793103448276,6.8965517241379315,1.0714285714285714,0,98116.13080766072,276467.7266645856,264477.5325688014,172907.51516062854,-51561.10848273614,6.541075387177382e-07,0.0,0.0,0.0,6.541075387177382e-07,0.0,24.091572838025687,0.869539822041058,-0.001748091074326843,0.0
9109,2.413793103448276,6.8965517241379315,1.4285714285714286,0,172507.13024104055,269590.22139069356,291908.71675035777,109328.57315156305,-82887.8643373561,1.1500475349402704e-06,0.0,0.0,0.0,1.1500475349402704e-06,0.0,24.578770468698828,1.1858385310731494,-0.0029182919439804072,0.0
9110,2.413793103448276,6.8965517241379315,1.7857142857142858,0,217268.5866294538,461194.4611500995,211188.68049845463,354315.33882465964,108244.76415004002,1.4484572441963589e-06,0.0,0.0,0.0,1.4484572441963589e-06,0.0,24.254621839627905,1.5086399916148432,0.004275397399278634,0.0
9111,2.413793103448276,6.8965517241379315,2.142857142857143,0,354828.32514032966,733174.0248961963,361381.3881364741,398177.683845876,169599.41619253735,2.3655221676021978e-06,0.0,0.0,0.0,2.3655221676021978e-06,0.0,24.68482203336571,1.8312231310547464,0.009091392888005773,0.0
9112,2.413793103448276,6.8965517241379315,2.5,0,440827.50842197443,486008.78184924804,552289.4921967873,82074.7237266144,447839.523317941,2.938850056146496e-06,0.0,0.0,0.0,2.938850056146496e-06,0.0,23.530599042273057,2.142929180624589,0.044783952331794094,0.0
9113,2.413793103448276,6.8965517241379315,2.857142857142857,0,418575.3752264645,753999.920739373,650538.2163586152,293396.103508571,333515.5331232118,2.7905025015097634e-06,0.0,0.0,0.0,2.7905025015097634e-06,0.0,24.19555404547874,2.4383659881976034,0.017878131976784718,0.0
9114,2.413793103448276,6.8965517241379315,3.2142857142857144,0,546707.4652074939,627771.786364549,224599.03334537777,5498.05452940825,-13054.544424381165,3.6447164347166256e-06,0.0,0.0,0.0,3.6447164347166256e-06,0.0,24.227070641381765,2.7229257059005576,-0.0005156218475694834,0.0
9115,2.413793103448276,6.8965517241379315,3.5714285714285716,0,303182.0393661304,411821.85402616905,245933.4315001506,61894.26790982227,94686.27786692543,2.021213595774203e-06,0.0,0.0,0.0,2.021213595774203e-06,0.0,23.55279574753031,3.007267102501721,0.0033336870736577207,0.0
9116,2.413793103448276,6.8965517241379315,3.928571428571429,0,202731.9419546343,286684.4805455707,211547.0756305628,57110.522754584264,7761.256854981143,1.351546279697562e-06,0.0,0.0,0.0,1.351546279697562e-06,0.0,23.605349740343485,3.298111250612487,0.00026313212095300934,0.0
9117,2.413793103448276,6.8965517241379315,4.285714285714286,0,208497.45042712518,311822.4094969354,265224.75302285305,83968.74596394211,45665.92760734205,1.3899830028475011e-06,0.0,0.0,0.0,1.3899830028475011e-06,0.0,23.3484841566461,3.5956573410304875,0.001530111929086793,0.0
9118,2.413793103448276,6.8965517241379315,4.642857142857143,0,159049.52320737374,273686.38387167983,257109.1513809468,106997.49188569454,32105.401378282328,1.060330154715825e-06,0.0,0.0,0.0,1.060330154715825e-06,0.0,24.16784559599936,3.8971169811908593,0.0010718719798833718,0.0
9119,2.413793103448276,6.8965517241379315,5.0,0,174604.12961104562,317038.4778779068,153309.54817972227,133285.69052743056,-78138.51607899042,1.1640275307403042e-06,0.0,0.0,0.0,1.1640275307403042e-06,0.0,23.929807263836548,4.200131134167708,-0.0026058693435795544,0.0
9120,2.7586206896551726,6.8965517241379315,0.0,0,234961.262507876,395807.59053821175,299373.64744739037,127972.3915064146,22527.22667465216,1.5664084167191733e-06,0.0,0.0,0.0,1.5664084167191733e-06,0.0,23.51573166311153,-0.04986363467145917,0.0007512685463338033,0.0
9121,2.7586206896551726,6.8965517241379315,0.35714285714285715,0,231524.09706217996,361285.29181012255,141448.8145643822,119619.75729623594,-488.3356879817963,1.5434939804145332e-06,0.0,0.0,0.0,1.5434939804145332e-06,0.0,24.774478204834214,0.2542873001481987,-1.630359124177879e-05,0.0
9122,2.7586206896551726,6.8965517241379315,0.7142857142857143,0,172480.63904954356,335251.7183916776,278864.9746605765,141634.73214326065,-1892.476159297806,1.1498709269969571e-06,0.0,0.0,0.0,1.1498709269969571e-06,0.0,24.370735312366662,0.5600547598953108,-6.341052286844092e-05,0.0
9123,2.7586206896551726,6.8965517241379315,1.0714285714285714,0,204542.23835504198,281977.36468783615,184550.9492446986,46934.88537504187,-594.0500356645791,1.3636149223669464e-06,0.0,0.0,0.0,1.3636149223669464e-06,0.0,23.813043908469155,0.8698918874163507,-2.014024902890697e-05,0.0
9124,2.7586206896551726,6.8965517241379315,1.4285714285714286,0,232202.2260156291,418046.22583764925,266383.7961222006,150729.36053525517,42910.69157103102,1.548014840104194e-06,0.0,0.0,0.0,1.548014840104194e-06,0.0,24.281674416826103,1.1866983089098648,0.0015107872126213133,0.0
9125,2.7586206896551726,6.8965517241379315,1.7857142857142858,0,38278.30197743261,345054.7875040223,388053.74639549264,357691.674046845,140533.86081779405,2.551886798495507e-07,0.0,0.0,0.0,2.551886798495507e-07,0.0,24.065796931622373,1.5102668875248213,0.005550735943386136,0.0
9126,2.7586206896551726,6.8965517241379315,2.142857142857143,0,394358.36559703393,732586.9045835916,570575.7658597812,283026.3003714967,199014.35221868736,2.629055770646893e-06,0.0,0.0,0.0,2.629055770646893e-06,0.0,23.40833023849498,1.8336084358448246,0.010668183340430999,0.0
9127,2.7586206896551726,6.8965517241379315,2.5,0,486324.3305589108,1013771.7682902345,757916.9330095164,452929.71479058714,530814.5360990458,3.242162203726072e-06,0.0,0.0,0.0,3.242162203726072e-06,0.0,24.33119041649639,2.145638989024265,0.05308145360990457,0.0
9128,2.7586206896551726,6.8965517241379315,2.857142857142857,0,447030.5221821801,885777.2777002597,600472.7304548823,370583.36311202036,399151.82112730097,2.980203481214534e-06,0.0,0.0,0.0,2.980203481214534e-06,0.0,25.018921799489252,2.440751292987682,0.021396571458192154,0.0
9129,2.7586206896551726,6.8965517241379315,3.2142857142857144,0,253238.7627882754,590506.527898063,446133.03476966615,298099.2286146304,44052.256240189425,1.6882584185885028e-06,0.0,0.0,0.0,1.6882584185885028e-06,0.0,24.909731443091196,2.724552601810536,0.001739953920548056,0.0
9130,2.7586206896551726,6.8965517241379315,3.5714285714285716,0,189796.36169891333,384957.861251072,288245.59465480765,166285.22249470613,11948.28134584209,1.2653090779927556e-06,0.0,0.0,0.0,1.2653090779927556e-06,0.0,24.26015387868593,3.0081268803384367,0.000420671632388382,0.0
9131,2.7586206896551726,6.8965517241379315,3.928571428571429,0,145433.6515883657,300568.4974310243,139861.7524681919,178013.77891758567,6997.463900478046,9.695576772557712e-07,0.0,0.0,0.0,9.695576772557712e-07,0.0,23.995202187805162,3.29846331598778,0.00023723702897980936,0.0
9132,2.7586206896551726,6.8965517241379315,4.285714285714286,0,160120.36480651304,336295.0795652181,228922.06225356454,152255.94304629712,64214.24110496151,1.0674690987100869e-06,0.0,0.0,0.0,1.0674690987100869e-06,0.0,24.499365133900582,3.5957690456095968,0.0021516036458692216,0.0
9133,2.7586206896551726,6.8965517241379315,4.642857142857143,0,77089.7237929099,244981.49841378006,177729.88722043895,160850.83059185543,22649.8978235131,5.139314919527327e-07,0.0,0.0,0.0,5.139314919527327e-07,0.0,24.355938633185094,3.897144443005342,0.0007561902291203796,0.0
9134,2.7586206896551726,6.8965517241379315,5.0,0,105272.16509932777,251480.3004246185,144687.5317243773,147797.6638806556,62657.01152128957,7.018144339955185e-07,0.0,0.0,0.0,7.018144339955185e-07,0.0,24.15809604754982,4.200136365328541,0.0020895711062465443,0.0
9135,3.1034482758620694,6.8965517241379315,0.0,0,211778.01631987843,303829.3723286448,192689.06665893696,59617.223803235196,52329.51733741275,1.4118534421325228e-06,0.0,0.0,0.0,1.4118534421325228e-06,0.0,25.16373960512817,-0.04985873185987881,0.0017451558058260036,0.0
9136,3.1034482758620694,6.8965517241379315,0.35714285714285715,0,229538.31087203353,310581.37683998176,221129.0699837578,49784.51795515763,-6815.36887543064,1.5302554058135568e-06,0.0,0.0,0.0,1.5302554058135568e-06,0.0,24.040358859876964,0.25431303824082235,-0.00022753812805732272,0.0
9137,3.1034482758620694,6.8965517241379315,0.7142857142857143,0,113372.93438817505,191187.8060242162,225836.55802027832,99182.31309055055,9061.979149599476,7.558195625878337e-07,0.0,0.0,0.0,7.558195625878337e-07,0.0,24.721706497717523,0.560159453006737,0.00030363649934286315,0.0
9138,3.1034482758620694,6.8965517241379315,1.0714285714285714,0,102341.7528501722,338495.71694280696,282704.5792760177,220381.8235027685,63867.69446016426,6.822783523344813e-07,0.0,0.0,0.0,6.822783523344813e-07,0.0,24.319811240963787,0.8702218543689936,0.0021653247943850735,0.0
9139,3.1034482758620694,6.8965517241379315,1.4285714285714286,0,256796.75917380527,416268.365927445,346652.4978235077,131841.12432241318,-36632.6551726063,1.7119783944920351e-06,0.0,0.0,0.0,1.7119783944920351e-06,0.0,24.3269602479098,1.187504120252417,-0.0012897519236558378,0.0
9140,3.1034482758620694,6.8965517241379315,1.7857142857142858,0,234867.3647909443,508494.5859836655,396270.78286148777,238567.24402259404,93713.83863701328,1.5657824319396287e-06,0.0,0.0,0.0,1.5657824319396287e-06,0.0,23.43188826934661,1.511791666510077,0.0037014621920163884,0.0
9141,3.1034482758620694,6.8965517241379315,2.142857142857143,0,974251.0235957835,1128606.4774161845,614787.8508631164,5003.520899565822,347619.51281854557,6.49500682397189e-06,0.0,0.0,0.0,6.49500682397189e-06,0.0,24.812795202202146,1.835844019937841,0.018634177154140563,0.0
9142,3.1034482758620694,6.8965517241379315,2.5,0,336736.8942282659,777386.4641614107,647417.7816869434,395033.50110345153,494624.18490259186,2.2449126281884394e-06,0.0,0.0,0.0,2.2449126281884394e-06,0.0,24.68519899884998,2.1481787082998207,0.04946241849025919,0.0
9143,3.1034482758620694,6.8965517241379315,2.857142857142857,0,365610.2567037644,709950.6424537061,653066.6917261347,319232.49906446243,259497.5043443002,2.4374017113584293e-06,0.0,0.0,0.0,2.4374017113584293e-06,0.0,24.36556584803632,2.442986877080698,0.013910388481365695,0.0
9144,3.1034482758620694,6.8965517241379315,3.2142857142857144,0,516272.53401852073,475669.15005372325,411838.1788865339,-69550.85988339274,41842.84395719813,3.441816893456805e-06,0.0,0.0,0.0,3.441816893456805e-06,0.0,24.79369075415545,2.7260773807957914,0.0016526876624263994,0.0
9145,3.1034482758620694,6.8965517241379315,3.5714285714285716,0,164836.0931801044,355053.4864971291,248454.02677170528,165194.78034737162,29858.60859628862,1.0989072878673626e-06,0.0,0.0,0.0,1.0989072878673626e-06,0.0,24.488799083370804,3.0089326916809886,0.0010512532518676863,0.0
9146,3.1034482758620694,6.8965517241379315,3.928571428571429,0,303240.43779021525,289855.95125256677,350709.5424327296,21656.9049575903,45898.0867149007,2.021602918601435e-06,0.0,0.0,0.0,2.021602918601435e-06,0.0,23.63705900801435,3.298793282940423,0.0015560960203534337,0.0
9147,3.1034482758620694,6.8965517241379315,4.285714285714286,0,124921.22683356497,216411.69777762346,177903.35888956086,76770.05477149523,22258.987803027223,8.328081788904331e-07,0.0,0.0,0.0,8.328081788904331e-07,0.0,23.80519866159962,3.5958737387210227,0.0007458239556560218,0.0
9148,3.1034482758620694,6.8965517241379315,4.642857142857143,0,105885.7070508109,267370.25286375865,297448.9221918046,179778.02222625905,-37756.09489650824,7.059047136720727e-07,0.0,0.0,0.0,7.059047136720727e-07,0.0,24.264923038329595,3.8971701810979655,-0.0012605262183939074,0.0
9149,3.1034482758620694,6.8965517241379315,5.0,0,165117.21871156245,294264.1055144179,128795.53652368,129500.49442081341,45194.26249666051,1.100781458077083e-06,0.0,0.0,0.0,1.100781458077083e-06,0.0,23.454239488383593,4.200141268140121,0.0015071996379695826,0.0
9150,3.4482758620689657,6.8965517241379315,0.0,0,244475.10806529372,373905.1567699074,258949.15336248206,93140.53114084389,35806.09547801301,1.6298340537686248e-06,0.0,0.0,0.0,1.6298340537686248e-06,0.0,24.861085341365982,-0.049854259600803745,0.001194110295428612,0.0
9151,3.4482758620689657,6.8965517241379315,0.35714285714285715,0,300464.67626686435,432440.8445940469,296404.01002689963,88017.82095438417,-7373.228771179968,2.003097841779096e-06,0.0,0.0,0.0,2.003097841779096e-06,0.0,24.196828247401704,0.254336516079288,-0.0002461628567722501,0.0
9152,3.4482758620689657,6.8965517241379315,0.7142857142857143,0,285997.35786162183,381612.2452090776,95939.89593186961,95290.98302595128,-19706.73613889763,1.9066490524108122e-06,0.0,0.0,0.0,1.9066490524108122e-06,0.0,24.377803270696123,0.5602549522340678,-0.0006603065705522879,0.0
9153,3.4482758620689657,6.8965517241379315,1.0714285714285714,0,114314.83220853958,262166.44191537163,225821.61352331305,134097.84512080794,-27980.53058051388,7.620988813902638e-07,0.0,0.0,0.0,7.620988813902638e-07,0.0,23.823328518890747,0.8705228444589131,-0.0009486319670397048,0.0
9154,3.4482758620689657,6.8965517241379315,1.4285714285714286,0,249616.9009058438,310403.30641063146,304001.06359661015,57646.86912545608,43271.25625359491,1.6641126727056253e-06,0.0,0.0,0.0,1.6641126727056253e-06,0.0,24.64205661099978,1.1882391672821586,0.0015234818696356072,0.0
9155,3.4482758620689657,6.8965517241379315,1.7857142857142858,0,155381.96565926974,500068.8999000338,387599.1878448784,322770.10145023314,-42665.98927901294,1.0358797710617984e-06,0.0,0.0,0.0,1.0358797710617984e-06,0.0,24.25218568881176,1.513182543263654,-0.0016851998434612005,0.0
9156,3.4482758620689657,6.8965517241379315,2.142857142857143,0,786365.6835213685,1038427.4048211041,593580.7278967239,130471.74491664153,372731.69989383675,5.2424378901424565e-06,0.0,0.0,0.0,5.2424378901424565e-06,0.0,24.16523669911153,1.837883280693472,0.019980318338491048,0.0
9157,3.4482758620689657,6.8965517241379315,2.5,0,737670.4876784659,870661.5485040083,654849.5097465207,49154.365072620625,478921.18814009393,4.9178032511897724e-06,0.0,0.0,0.0,4.9178032511897724e-06,0.0,25.038489143915545,2.150495395855945,0.047892118814009385,0.0
9158,3.4482758620689657,6.8965517241379315,2.857142857142857,0,168068.97278705906,562102.4046370334,368218.33626035374,457818.3246862735,310440.0139923955,1.1204598185803938e-06,0.0,0.0,0.0,1.1204598185803938e-06,0.0,24.99246381334179,2.445026137836329,0.016641166571934606,0.0
9159,3.4482758620689657,6.8965517241379315,3.2142857142857144,0,393553.3598362305,464753.9986945605,606202.4970747912,161474.92066970444,-122314.58264938918,2.6236890655748703e-06,0.0,0.0,0.0,2.6236890655748703e-06,0.0,24.717340741172507,2.7274682575493685,-0.004831120033003985,0.0
9160,3.4482758620689657,6.8965517241379315,3.5714285714285716,0,239560.19680973346,415178.9434239892,216094.4732039031,149314.37612909207,-59410.981954846975,1.5970679787315563e-06,0.0,0.0,0.0,1.5970679787315563e-06,0.0,24.451744596739726,3.0096677387107302,-0.002091724662094552,0.0
9161,3.4482758620689657,6.8965517241379315,3.928571428571429,0,163793.85485692415,353099.4632612469,244141.44159590855,164737.89559247275,-20880.908698321786,1.0919590323794944e-06,0.0,0.0,0.0,1.0919590323794944e-06,0.0,24.09390705733668,3.2990942730303425,-0.0007079314466559942,0.0
9162,3.4482758620689657,6.8965517241379315,4.285714285714286,0,183923.12967716085,289111.14211024216,171857.8490455574,77133.69975552039,-27474.4207292108,1.226154197847739e-06,0.0,0.0,0.0,1.226154197847739e-06,0.0,24.212272699858044,3.5959692379483537,-0.0009205756042883053,0.0
9163,3.4482758620689657,6.8965517241379315,4.642857142857143,0,244980.72563487754,341246.54615582066,73500.26039292634,128319.61919212958,22768.8912435734,1.6332048375658504e-06,0.0,0.0,0.0,1.6332048375658504e-06,0.0,24.19404532812533,3.8971936589364313,0.0007601629473321942,0.0
9164,3.4482758620689657,6.8965517241379315,5.0,0,7869.890109067847,163693.21277144682,154608.13570306607,158974.0352693286,9100.687067155925,5.246593406045232e-08,0.0,0.0,0.0,5.246593406045232e-08,0.0,24.5622418730634,4.200145740399196,0.00030350207073089015,0.0
9165,3.793103448275862,6.8965517241379315,0.0,0,159863.72244453334,308659.27726589923,124120.57807096002,220328.34466039433,58482.22949998932,1.0657581496302223e-06,0.0,0.0,0.0,1.0657581496302223e-06,0.0,24.341850456961552,-0.049850351211370436,0.001950344806191961,0.0
9166,3.793103448275862,6.8965517241379315,0.35714285714285715,0,235628.0914508463,354501.0866115238,277734.695667246,90063.05620588672,15525.21524506759,1.5708539430056418e-06,0.0,0.0,0.0,1.5708539430056418e-06,0.0,24.359048292157258,0.25435703379399005,0.0005183253436632917,0.0
9167,3.793103448275862,6.8965517241379315,0.7142857142857143,0,138236.95216274064,252866.43494179947,175558.42750181514,93270.05265875629,-19719.586478716854,9.215796810849376e-07,0.0,0.0,0.0,9.215796810849376e-07,0.0,25.13762835167532,0.560338410764695,-0.0006607371422997683,0.0
9168,3.793103448275862,6.8965517241379315,1.0714285714285714,0,89802.53808178574,260300.49863649523,186670.67918640174,160252.028899849,38440.443622682666,5.986835872119049e-07,0.0,0.0,0.0,5.986835872119049e-07,0.0,24.943779830045308,0.8707858852325415,0.0013032574040272046,0.0
9169,3.793103448275862,6.8965517241379315,1.4285714285714286,0,60657.60698670921,227657.5143797586,176955.2389275967,160457.7836864834,-12255.001911071678,4.043840465780614e-07,0.0,0.0,0.0,4.043840465780614e-07,0.0,23.98605655552254,1.1888815383961318,-0.00043147056129936884,0.0
9170,3.793103448275862,6.8965517241379315,1.7857142857142858,0,431087.7654969483,685824.5310882893,374038.9519948542,193882.67360181332,27728.92427585518,2.8739184366463222e-06,0.0,0.0,0.0,2.8739184366463222e-06,0.0,24.529876881213106,1.5143980560314678,0.0010952231423356248,0.0
9171,3.793103448275862,6.8965517241379315,2.142857142857143,0,200030.3907703988,659922.458872967,429202.71673218254,553967.781666918,290941.68670600123,1.3335359384693254e-06,0.0,0.0,0.0,1.3335359384693254e-06,0.0,23.998258559795236,1.839665428161964,0.015595956877236767,0.0
9172,3.793103448275862,6.8965517241379315,2.5,0,833675.7898587699,950865.2221718561,815033.1247301236,57614.36043564233,670298.4002152612,5.557838599058466e-06,0.0,0.0,0.0,5.557838599058466e-06,0.0,24.69221057957507,2.152519991706198,0.06702984002152612,0.0
9173,3.793103448275862,6.8965517241379315,2.857142857142857,0,679996.8470607558,864084.9912544781,586247.9924169352,89162.82551743824,371810.36336972925,4.5333123137383725e-06,0.0,0.0,0.0,4.5333123137383725e-06,0.0,25.3601969205161,2.446808285304821,0.019930930006203267,0.0
9174,3.793103448275862,6.8965517241379315,3.2142857142857144,0,559615.2395910211,677724.8415213035,304741.3541774085,34252.02055062815,107883.62263880268,3.7307682639401406e-06,0.0,0.0,0.0,3.7307682639401406e-06,0.0,24.222298046908932,2.7286837703171822,0.004261133213014848,0.0
9175,3.793103448275862,6.8965517241379315,3.5714285714285716,0,106145.74654161159,352077.0170685389,316051.33466270467,232607.1299581466,75783.32306373106,7.076383102774106e-07,0.0,0.0,0.0,7.076383102774106e-07,0.0,24.80036159524518,3.0103101098247036,0.002668157310518121,0.0
9176,3.793103448275862,6.8965517241379315,3.928571428571429,0,105358.69290095344,278862.4048953102,219306.65481187543,157213.48629907006,31339.49251736003,7.023912860063562e-07,0.0,0.0,0.0,7.023912860063562e-07,0.0,25.216577064100584,3.299357313803971,0.0010625118186098155,0.0
9177,3.793103448275862,6.8965517241379315,4.285714285714286,0,241732.44603898743,313907.4286206204,213688.3013439926,38183.87968014203,-37267.72733579983,1.611549640259916e-06,0.0,0.0,0.0,1.611549640259916e-06,0.0,24.346416331002278,3.596052696478981,-0.0012487164315762886,0.0
9178,3.793103448275862,6.8965517241379315,4.642857142857143,0,261861.19797353912,380111.39077109075,123236.12146422958,113533.93920004327,16281.07188515206,1.7457413198235942e-06,0.0,0.0,0.0,1.7457413198235942e-06,0.0,24.66641859804073,3.8972141766511332,0.0005435603981567508,0.0
9179,3.793103448275862,6.8965517241379315,5.0,0,149667.6751441772,292088.74104646075,207367.0625178595,119278.32963439407,49081.072673947325,9.977845009611813e-07,0.0,0.0,0.0,9.977845009611813e-07,0.0,25.28141820303157,4.20014964878863,0.0016368222619142937,0.0
9180,4.137931034482759,6.8965517241379315,0.0,0,254202.53264816938,247953.36790316572,234248.25624240944,-12824.48213895154,-46531.129282238166,1.694683550987796e-06,0.0,0.0,0.0,1.694683550987796e-06,0.0,23.936745721876992,-0.04984717142444267,-0.0015517832869534575,0.0
9181,4.137931034482759,6.8965517241379315,0.35714285714285715,0,140487.51806111127,212082.26809561017,296340.5734087354,134160.82216852892,-471.12442724689663,9.365834537407418e-07,0.0,0.0,0.0,9.365834537407418e-07,0.0,23.891172890876813,0.25437372659344376,-1.5728975528278162e-05,0.0
9182,4.137931034482759,6.8965517241379315,0.7142857142857143,0,159850.8952193094,232407.62890132278,169021.20924804886,50584.70830739991,-32834.597152951195,1.065672634795396e-06,0.0,0.0,0.0,1.065672634795396e-06,0.0,23.79211350335273,0.560406310944354,-0.0011001771216054817,0.0
9183,4.137931034482759,6.8965517241379315,1.0714285714285714,0,197414.23802143693,371600.9148974598,366133.54544567247,171509.78218177578,4273.343997880083,1.3160949201429129e-06,0.0,0.0,0.0,1.3160949201429129e-06,0.0,24.796457591296605,0.8709998899083101,0.0001448804092860718,0.0
9184,4.137931034482759,6.8965517241379315,1.4285714285714286,0,261867.23890339956,344577.7525450563,298737.8465152295,62817.157295827936,46426.09734600568,1.7457815926893305e-06,0.0,0.0,0.0,1.7457815926893305e-06,0.0,23.91714668425184,1.189404158597071,0.0016345566019637192,0.0
9185,4.137931034482759,6.8965517241379315,1.7857142857142858,0,242814.39213689062,463338.52735374303,208921.3780722273,234086.99782433108,126375.90517088864,1.6187626142459375e-06,0.0,0.0,0.0,1.6187626142459375e-06,0.0,24.708374385323026,1.5153869727388676,0.00499153211281583,0.0
9186,4.137931034482759,6.8965517241379315,2.142857142857143,0,222198.7052618425,669532.6789386709,414907.33412380057,514893.920944924,280331.3265188265,1.4813247017456167e-06,0.0,0.0,0.0,1.4813247017456167e-06,0.0,25.112992384794794,1.8411153474497814,0.015027187506973424,0.0
9187,4.137931034482759,6.8965517241379315,2.5,0,373925.40830062475,935083.3446024912,904916.9828098225,546988.4964155287,591330.3261985111,2.4928360553374983e-06,0.0,0.0,0.0,2.4928360553374983e-06,0.0,24.10698110203299,2.154167162114492,0.05913303261985111,0.0
9188,4.137931034482759,6.8965517241379315,2.857142857142857,0,350825.59899631835,744004.6681080346,741298.4634697029,391833.79506813234,177192.47773016358,2.338837326642122e-06,0.0,0.0,0.0,2.338837326642122e-06,0.0,24.061613020923645,2.4482582045926384,0.009498419676252482,0.0
9189,4.137931034482759,6.8965517241379315,3.2142857142857144,0,257361.84696978983,498611.3642456362,371104.3853391732,202389.38655515647,-36660.336836979484,1.7157456464652656e-06,0.0,0.0,0.0,1.7157456464652656e-06,0.0,24.782350029656367,2.729672687024582,-0.001447991595715836,0.0
9190,4.137931034482759,6.8965517241379315,3.5714285714285716,0,373398.4487602353,467548.6628820138,268771.0000460631,36811.099604902076,45850.24293207741,2.489322991734902e-06,0.0,0.0,0.0,2.489322991734902e-06,0.0,24.476055075623595,3.0108327300256423,0.001614282086381647,0.0
9191,4.137931034482759,6.8965517241379315,3.928571428571429,0,293928.9564527419,414285.57984722755,147983.46244607438,98907.68958185455,-95683.96865219947,1.9595263763516127e-06,0.0,0.0,0.0,1.9595263763516127e-06,0.0,23.275410474545595,3.2995713184797393,-0.003244001079090131,0.0
9192,4.137931034482759,6.8965517241379315,4.285714285714286,0,162420.16080013363,208499.29333319148,296540.9531240726,109108.7978728871,-21132.561928870975,1.0828010720008908e-06,0.0,0.0,0.0,1.0828010720008908e-06,0.0,25.227532672658427,3.59612059665864,-0.0007080812061361065,0.0
9193,4.137931034482759,6.8965517241379315,4.642857142857143,0,202068.69104431587,326628.7491019048,154022.18887768642,104358.6074902536,20750.242690714484,1.3471246069621059e-06,0.0,0.0,0.0,1.3471246069621059e-06,0.0,24.74232827331139,3.897230869450587,0.0006927682807604427,0.0
9194,4.137931034482759,6.8965517241379315,5.0,0,234087.01116615254,258864.61696433657,266318.4981889937,28593.569256852974,6761.688875757871,1.5605800744410169e-06,0.0,0.0,0.0,1.5605800744410169e-06,0.0,24.280880739231204,4.200152828575558,0.00022549798276624752,0.0
9195,4.482758620689656,6.8965517241379315,0.0,0,147892.59663535122,296636.79684082535,302897.8047588526,151974.1346031758,-88528.44705795555,9.859506442356747e-07,0.0,0.0,0.0,9.859506442356747e-07,0.0,24.227902053848965,-0.049844903834056674,-0.0029523668710296886,0.0
9196,4.482758620689656,6.8965517241379315,0.35714285714285715,0,244675.83610943556,331507.2258360022,221544.0817548775,51142.99034570436,16410.8831905114,1.6311722407295705e-06,0.0,0.0,0.0,1.6311722407295705e-06,0.0,24.79320768030288,0.2543856306714265,0.0005478942826407766,0.0
9197,4.482758620689656,6.8965517241379315,0.7142857142857143,0,69917.94434349207,299868.33906708617,279844.750403121,222123.164013469,-26970.569365097475,4.661196289566138e-07,0.0,0.0,0.0,4.661196289566138e-07,0.0,24.42536743337798,0.5604547323631786,-0.000903693236555727,0.0
9198,4.482758620689656,6.8965517241379315,1.0714285714285714,0,202808.59944802022,337541.9896176335,345104.0612108958,138620.19041933594,4105.146438749436,1.3520573296534682e-06,0.0,0.0,0.0,1.3520573296534682e-06,0.0,24.48116630111595,0.871152502317995,0.00013917795911593453,0.0
9199,4.482758620689656,6.8965517241379315,1.4285714285714286,0,179888.04575641186,425445.51450256334,282579.5599464495,223430.3857732505,-18685.042269447702,1.199253638376079e-06,0.0,0.0,0.0,1.199253638376079e-06,0.0,24.5326314966978,1.1897768529222248,-0.0006578575617044534,0.0
9200,4.482758620689656,6.8965517241379315,1.7857142857142858,0,233782.51848535743,568792.7801614754,357170.0617954006,317839.6463135566,19400.639313812928,1.5585501232357162e-06,0.0,0.0,0.0,1.5585501232357162e-06,0.0,24.052486236984393,1.516092195468941,0.0007662767203376825,0.0
9201,4.482758620689656,6.8965517241379315,2.142857142857143,0,130183.16778623055,692880.1257439116,546443.82567888,649072.257796168,156937.0906065544,8.67887785241537e-07,0.0,0.0,0.0,8.67887785241537e-07,0.0,24.286371110099,1.8421493233457185,0.008412627716742853,0.0
9202,4.482758620689656,6.8965517241379315,2.5,0,368099.0900164498,818560.0265377063,516331.03610782744,408620.94192148803,506681.2225728327,2.4539939334429987e-06,0.0,0.0,0.0,2.4539939334429987e-06,0.0,24.377318555597064,2.1553418030155322,0.050668122257283274,0.0
9203,4.482758620689656,6.8965517241379315,2.857142857142857,0,269890.522188806,566681.5250082125,435228.8996939249,256249.16534602948,398538.2360096051,1.7992701479253732e-06,0.0,0.0,0.0,1.7992701479253732e-06,0.0,24.09589699084859,2.4492921804885754,0.021363680169410395,0.0
9204,4.482758620689656,6.8965517241379315,3.2142857142857144,0,260135.9265860327,445410.5190245968,423530.0739229969,175025.4374143221,33879.50365454902,1.7342395105735512e-06,0.0,0.0,0.0,1.7342395105735512e-06,0.0,24.61831332358067,2.7303779097546554,0.0013381556415304572,0.0
9205,4.482758620689656,6.8965517241379315,3.5714285714285716,0,266135.45148987544,522121.68381927017,250187.7381293054,262190.90405535157,-9430.29727537418,1.7742363432658363e-06,0.0,0.0,0.0,1.7742363432658363e-06,0.0,24.727851055855627,3.0112054243507966,-0.0003320191778142112,0.0
9206,4.482758620689656,6.8965517241379315,3.928571428571429,0,216462.03762957183,271558.43239798304,247007.97727913613,43867.861606376435,-22525.551655845917,1.4430802508638122e-06,0.0,0.0,0.0,1.4430802508638122e-06,0.0,25.33366827626532,3.2997239308894244,-0.0007636902493486293,0.0
9207,4.482758620689656,6.8965517241379315,4.285714285714286,0,148390.98265798934,238441.27629112004,125907.50858597798,70272.66287744016,-40275.896646059635,9.89273217719929e-07,0.0,0.0,0.0,9.89273217719929e-07,0.0,24.114669199476893,3.596169018077464,-0.0013495100864412185,0.0
9208,4.482758620689656,6.8965517241379315,4.642857142857143,0,168308.9878832411,332172.1709052428,212754.23865367242,139676.0310959632,-31150.34118382342,1.1220599192216073e-06,0.0,0.0,0.0,1.1220599192216073e-06,0.0,24.945119037215676,3.8972427735285695,-0.0010399863090119605,0.0
9209,4.482758620689656,6.8965517241379315,5.0,0,179761.65181526032,305244.6099907983,282801.06557865744,115315.06809069336,6916.225175429031,1.1984110121017354e-06,0.0,0.0,0.0,1.1984110121017354e-06,0.0,25.217090618716355,4.200155096165943,0.00023065166914258215,0.0
9210,4.827586206896552,6.8965517241379315,0.0,0,139707.81628916686,306520.5224886458,151912.319394809,189335.32787297133,78449.82240714684,9.313854419277791e-07,0.0,0.0,0.0,9.313854419277791e-07,0.0,24.930687933425926,-0.04984371762579406,0.002616251209754042,0.0
9211,4.827586206896552,6.8965517241379315,0.35714285714285715,0,317640.9469557215,408977.2347382772,224398.33577008644,42199.636649009284,31125.830829581093,2.1176063130381434e-06,0.0,0.0,0.0,2.1176063130381434e-06,0.0,24.2115937447392,0.25439185786119994,0.0010391680055240266,0.0
9212,4.827586206896552,6.8965517241379315,0.7142857142857143,0,241222.6226935959,355234.1115625187,105331.69159585454,123746.8087735994,19850.724124778335,1.6081508179573062e-06,0.0,0.0,0.0,1.6081508179573062e-06,0.0,24.3107264796432,0.5604800622849546,0.0006651311245772415,0.0
9213,4.827586206896552,6.8965517241379315,1.0714285714285714,0,164110.23659016503,294811.4771658457,144736.90377334217,119572.46109592741,65884.16114083068,1.0940682439344335e-06,0.0,0.0,0.0,1.0940682439344335e-06,0.0,25.229063832331583,0.8712323360050952,0.0022336896435878537,0.0
9214,4.827586206896552,6.8965517241379315,1.4285714285714286,0,269902.923683842,350689.3186629255,330159.0450673909,71107.51117309871,22749.203673256336,1.7993528245589467e-06,0.0,0.0,0.0,1.7993528245589467e-06,0.0,24.381588142065375,1.1899718145390408,0.0008009473804443671,0.0
9215,4.827586206896552,6.8965517241379315,1.7857142857142858,0,163313.668533414,493780.44516054576,350315.3594616221,316054.12315922906,116818.5153347658,1.08875779022276e-06,0.0,0.0,0.0,1.08875779022276e-06,0.0,24.46450428977456,1.516461107347633,0.004614039123015303,0.0
9216,4.827586206896552,6.8965517241379315,2.142857142857143,0,605302.8445017079,955630.4393606664,865729.4039247994,310405.079230919,324158.9370271769,4.0353522966780525e-06,0.0,0.0,0.0,4.0353522966780525e-06,0.0,24.24094865104809,1.8426902106059078,0.017376570750259827,0.0
9217,4.827586206896552,6.8965517241379315,2.5,0,484828.27584258426,898012.0077703401,752662.4569867221,357134.72477979626,595441.875834295,3.2321885056172285e-06,0.0,0.0,0.0,3.2321885056172285e-06,0.0,24.87594678858961,2.155956274108298,0.05954418758342949,0.0
9218,4.827586206896552,6.8965517241379315,2.857142857142857,0,414060.27829517855,521650.3751340068,655647.76555787,191182.79683134603,192200.36165984336,2.7604018553011904e-06,0.0,0.0,0.0,2.7604018553011904e-06,0.0,23.263367101769017,2.4498330677487647,0.010302918726340078,0.0
9219,4.827586206896552,6.8965517241379315,3.2142857142857144,0,329867.506749018,543655.3523235453,266083.11109430727,178975.87150759876,40809.547859226885,2.19911671166012e-06,0.0,0.0,0.0,2.19911671166012e-06,0.0,24.093504275348675,2.730746821633348,0.0016118750514457195,0.0
9220,4.827586206896552,6.8965517241379315,3.5714285714285716,0,178592.92095492696,265418.33685917064,238739.92430748834,74986.98467334153,-16717.106637981728,1.1906194730328463e-06,0.0,0.0,0.0,1.1906194730328463e-06,0.0,24.013294580792838,3.0114003859676126,-0.0005885710534141093,0.0
9221,4.827586206896552,6.8965517241379315,3.928571428571429,0,288180.2802920056,473823.33039812866,182516.62750429838,188874.68977737532,-20068.11055972391,1.9212018686133708e-06,0.0,0.0,0.0,1.9212018686133708e-06,0.0,25.302169276456745,3.2998037645765246,-0.000680374917847306,0.0
9222,4.827586206896552,6.8965517241379315,4.285714285714286,0,89625.25757459691,258262.68855692263,155851.2161034631,194149.41469714415,-21558.10536312495,5.975017171639794e-07,0.0,0.0,0.0,5.975017171639794e-07,0.0,24.62881869878847,3.5961943479992406,-0.0007223397380265632,0.0
9223,4.827586206896552,6.8965517241379315,4.642857142857143,0,64286.62114011301,308733.49636178836,265708.4229667112,234833.91973905842,45658.2188418315,4.285774742674201e-07,0.0,0.0,0.0,4.285774742674201e-07,0.0,24.4165703731985,3.897249000718343,0.0015243467867387406,0.0
9224,4.827586206896552,6.8965517241379315,5.0,0,159507.20878573193,335472.6460618876,278455.54082686565,155292.2867775511,-11756.450434372984,1.0633813919048796e-06,0.0,0.0,0.0,1.0633813919048796e-06,0.0,24.420175354208244,4.2001562823742065,-0.00039207007393479693,0.0
9225,5.172413793103448,6.8965517241379315,0.0,0,178821.82021768615,307888.1093003768,254797.13464523252,108532.74177612267,-4720.2235644492885,1.1921454681179076e-06,0.0,0.0,0.0,1.1921454681179076e-06,0.0,23.765112596064938,-0.04984371762579406,-0.00015741642532609426,0.0
9226,5.172413793103448,6.8965517241379315,0.35714285714285715,0,182320.6847319627,307859.3616124311,174646.46235101478,100073.68304237953,74015.53833202194,1.2154712315464182e-06,0.0,0.0,0.0,1.2154712315464182e-06,0.0,25.138725935587768,0.25439185786119994,0.0024710851821881964,0.0
9227,5.172413793103448,6.8965517241379315,0.7142857142857143,0,166656.29333432575,355520.14565730875,251188.69122369654,163316.81342041472,25428.749203672018,1.1110419555621716e-06,0.0,0.0,0.0,1.1110419555621716e-06,0.0,24.289679748819403,0.5604800622849546,0.0008520320189891245,0.0
9228,5.172413793103448,6.8965517241379315,1.0714285714285714,0,314980.30233637267,440885.8196423789,107233.28624493512,148681.79942249405,485.3806453834927,2.0998686822424845e-06,0.0,0.0,0.0,2.0998686822424845e-06,0.0,24.766656672065526,0.8712323360050952,1.6455999469638638e-05,0.0
9229,5.172413793103448,6.8965517241379315,1.4285714285714286,0,279846.018836728,452791.73683024466,378641.57863425114,143338.04295421843,46479.84324118485,1.8656401255781868e-06,0.0,0.0,0.0,1.8656401255781868e-06,0.0,24.146577632113534,1.1899718145390408,0.0016364488718898088,0.0
9230,5.172413793103448,6.8965517241379315,1.7857142857142858,0,509051.3135844143,728576.1916815736,247620.88802409705,195447.31949859505,21606.75641574018,3.3936754238960953e-06,0.0,0.0,0.0,3.3936754238960953e-06,0.0,24.449586989643414,1.516461107347633,0.0008534128270505206,0.0
9231,5.172413793103448,6.8965517241379315,2.142857142857143,0,227103.41003160857,658716.4720719167,396481.6209456262,528387.0751022282,278836.2769872665,1.5140227335440571e-06,0.0,0.0,0.0,1.5140227335440571e-06,0.0,24.0248669054947,1.8426902106059078,0.014947045234178034,0.0
9232,5.172413793103448,6.8965517241379315,2.5,0,637454.2176116547,1042467.6756698424,708777.1869376269,307435.95412557427,530151.6548659644,4.249694784077697e-06,0.0,0.0,0.0,4.249694784077697e-06,0.0,24.36501659129189,2.155956274108298,0.05301516548659645,0.0
9233,5.172413793103448,6.8965517241379315,2.857142857142857,0,276419.5612940324,858972.5060458003,617190.9523085261,557626.6542408302,335005.3849317152,1.8427970752935493e-06,0.0,0.0,0.0,1.8427970752935493e-06,0.0,25.01416366328346,2.4498330677487647,0.017957995625139698,0.0
9234,5.172413793103448,6.8965517241379315,3.2142857142857144,0,310986.5110276653,601785.808860332,385430.0262184717,245403.88548264565,85474.43348382271,2.0732434068511017e-06,0.0,0.0,0.0,2.0732434068511017e-06,0.0,24.55141812552463,2.730746821633348,0.00337602630012673,0.0
9235,5.172413793103448,6.8965517241379315,3.5714285714285716,0,346553.89126405114,500580.94533713494,187622.47359370132,128133.31878459043,-32325.96259858429,2.3103592750936743e-06,0.0,0.0,0.0,2.3103592750936743e-06,0.0,24.69030448980526,3.0114003859676126,-0.0011381231376514623,0.0
9236,5.172413793103448,6.8965517241379315,3.928571428571429,0,236029.79710732598,322864.93524592463,313011.0067986375,82062.49499066333,13963.770491698568,1.5735319807155065e-06,0.0,0.0,0.0,1.5735319807155065e-06,0.0,24.539302764951028,3.2998037645765246,0.00047341772275240817,0.0
9237,5.172413793103448,6.8965517241379315,4.285714285714286,0,181297.9384134923,301270.4068449439,118950.9680457351,121011.5339704685,19822.20867089478,1.2086529227566152e-06,0.0,0.0,0.0,1.2086529227566152e-06,0.0,25.328290706444598,3.5961943479992406,0.0006641756674468024,0.0
9238,5.172413793103448,6.8965517241379315,4.642857142857143,0,215760.86006482973,361719.48880500474,131820.2820964724,163628.3506921976,-15285.173499640507,1.4384057337655314e-06,0.0,0.0,0.0,1.4384057337655314e-06,0.0,24.109177085938494,3.897249000718343,-0.0005103113021039286,0.0
9239,5.172413793103448,6.8965517241379315,5.0,0,110503.24249771582,210545.76479253542,221735.05867219117,106062.8646150469,-5408.641794108994,7.366882833181055e-07,0.0,0.0,0.0,7.366882833181055e-07,0.0,24.45313229726902,4.2001562823742065,-0.0001803747312967125,0.0
9240,5.517241379310345,6.8965517241379315,0.0,0,152998.57725441753,319208.87710812635,149832.91879489762,191019.13705631928,-38097.16124214433,1.0199905150294503e-06,0.0,0.0,0.0,1.0199905150294503e-06,0.0,24.53229119491586,-0.049844903834056674,-0.0012705158677182003,0.0
9241,5.517241379310345,6.8965517241379315,0.35714285714285715,0,216073.93091097908,326152.9488014722,316555.844562367,105440.37371909684,-50570.94520086972,1.4404928727398606e-06,0.0,0.0,0.0,1.4404928727398606e-06,0.0,23.9450889061003,0.2543856306714265,-0.0016883632295498117,0.0
9242,5.517241379310345,6.8965517241379315,0.7142857142857143,0,135733.68989138136,274329.87993607594,156125.2670027411,126096.28444871698,-38563.615519274084,9.048912659425425e-07,0.0,0.0,0.0,9.048912659425425e-07,0.0,24.51103885765304,0.5604547323631786,-0.0012921372941797184,0.0
9243,5.517241379310345,6.8965517241379315,1.0714285714285714,0,340887.5824132828,419622.8055924164,350342.28948221065,49416.60556882301,25184.25838858656,2.272583882755219e-06,0.0,0.0,0.0,2.272583882755219e-06,0.0,24.467364323920297,0.871152502317995,0.000853829147551579,0.0
9244,5.517241379310345,6.8965517241379315,1.4285714285714286,0,141288.51868804422,317023.89843966824,365116.773180796,206060.1433712445,26113.754728395892,9.419234579202948e-07,0.0,0.0,0.0,9.419234579202948e-07,0.0,24.51423277274524,1.1897768529222248,0.0009194055204606422,0.0
9245,5.517241379310345,6.8965517241379315,1.7857142857142858,0,353916.8530270884,560966.687300189,546081.2508678354,199841.969692947,171890.2485325296,2.359445686847256e-06,0.0,0.0,0.0,2.359445686847256e-06,0.0,24.52115940711171,1.516092195468941,0.006789234817110214,0.0
9246,5.517241379310345,6.8965517241379315,2.142857142857143,0,301265.28864834365,904434.7651023755,920487.6648976984,611516.8639141746,325495.1460903939,2.0084352576556243e-06,0.0,0.0,0.0,2.0084352576556243e-06,0.0,24.130946876393054,1.8421493233457185,0.01744819836459329,0.0
9247,5.517241379310345,6.8965517241379315,2.5,0,663242.5750773991,1277346.2280659843,719997.3016911612,543795.5794204599,585220.4233528386,4.421617167182661e-06,0.0,0.0,0.0,4.421617167182661e-06,0.0,23.659194430747977,2.1553418030155322,0.05852204233528385,0.0
9248,5.517241379310345,6.8965517241379315,2.857142857142857,0,465798.508265074,852539.6142062927,424954.7371221284,356175.71573122597,351028.70957435964,3.1053233884338264e-06,0.0,0.0,0.0,3.1053233884338264e-06,0.0,24.567756980785333,2.4492921804885754,0.018816927471538087,0.0
9249,5.517241379310345,6.8965517241379315,3.2142857142857144,0,303228.1737057211,684600.6385345402,391765.97109043115,371950.8817233648,-783.7804899486509,2.0215211580381405e-06,0.0,0.0,0.0,2.0215211580381405e-06,0.0,24.034262010966703,2.7303779097546554,-3.095736865098575e-05,0.0
9250,5.517241379310345,6.8965517241379315,3.5714285714285716,0,246815.21018814202,458947.50363555225,236158.92795494504,193632.17795483032,41425.93900718887,1.6454347345876134e-06,0.0,0.0,0.0,1.6454347345876134e-06,0.0,24.439463404785872,3.0112054243507966,0.0014585124739668151,0.0
9251,5.517241379310345,6.8965517241379315,3.928571428571429,0,154621.0211074439,354944.47553216934,193342.50927783333,208407.17409192616,13457.090885799975,1.0308068073829592e-06,0.0,0.0,0.0,1.0308068073829592e-06,0.0,24.116199544806626,3.2997239308894244,0.00045623961850526355,0.0
9252,5.517241379310345,6.8965517241379315,4.285714285714286,0,178369.6658806891,262955.2983475387,245496.6235480216,76498.26554812612,-31847.274213930923,1.1891311058712607e-06,0.0,0.0,0.0,1.1891311058712607e-06,0.0,23.754776913313606,3.596169018077464,-0.0010670952444596627,0.0
9253,5.517241379310345,6.8965517241379315,4.642857142857143,0,65164.233972099886,238988.74053485424,213710.30012823196,164972.5887763797,12456.596753531076,4.344282264806659e-07,0.0,0.0,0.0,4.344282264806659e-07,0.0,24.68020756005528,3.8972427735285695,0.0004158763463972141,0.0
9254,5.517241379310345,6.8965517241379315,5.0,0,166891.50738516907,342219.4464551942,184146.92767124885,167723.32983900202,25414.700161201414,1.1126100492344605e-06,0.0,0.0,0.0,1.1126100492344605e-06,0.0,24.854800288942876,4.200155096165943,0.0008475639332514543,0.0
9255,5.862068965517242,6.8965517241379315,0.0,0,244486.40688547277,306400.080778137,223724.73704401313,31295.01639106962,-45762.95910634559,1.6299093792364851e-06,0.0,0.0,0.0,1.6299093792364851e-06,0.0,24.956420276246533,-0.04984717142444267,-0.0015261653047795062,0.0
9256,5.862068965517242,6.8965517241379315,0.35714285714285715,0,150735.38304742635,406977.27759535256,278386.4754199897,241097.13405400896,36347.39147932998,1.004902553649509e-06,0.0,0.0,0.0,1.004902553649509e-06,0.0,24.18598545925263,0.25437372659344376,0.0012134952000600035,0.0
9257,5.862068965517242,6.8965517241379315,0.7142857142857143,0,303855.6862870297,396316.10251835635,307378.0023830135,57915.44672037455,-15522.746074779663,2.025704575246865e-06,0.0,0.0,0.0,2.025704575246865e-06,0.0,24.43409079406644,0.560406310944354,-0.0005201151095721276,0.0
9258,5.862068965517242,6.8965517241379315,1.0714285714285714,0,260490.50213234875,342187.7607202085,134808.67637299854,49816.639603009346,-108862.94589738366,1.7366033475489917e-06,0.0,0.0,0.0,1.7366033475489917e-06,0.0,24.589293056096633,0.8709998899083101,-0.003690811730935925,0.0
9259,5.862068965517242,6.8965517241379315,1.4285714285714286,0,363673.21630877873,317298.79348658776,263993.922954778,-70085.05341900505,45322.911523456394,2.4244881087251914e-06,0.0,0.0,0.0,2.4244881087251914e-06,0.0,24.93432665424093,1.189404158597071,0.0015957159547302974,0.0
9260,5.862068965517242,6.8965517241379315,1.7857142857142858,0,320020.89282580384,651894.8610703669,397313.76777935703,292645.8654537365,141723.94922528192,2.133472618838692e-06,0.0,0.0,0.0,2.133472618838692e-06,0.0,23.553413899110176,1.5153869727388676,0.005597741458361739,0.0
9261,5.862068965517242,6.8965517241379315,2.142857142857143,0,550849.2644552784,697919.028327909,406176.00213198335,62558.58057416271,232058.14156680857,3.672328429701856e-06,0.0,0.0,0.0,3.672328429701856e-06,0.0,23.698825410425563,1.8411153474497814,0.012439498821442003,0.0
9262,5.862068965517242,6.8965517241379315,2.5,0,504089.8357560814,874697.50670403,697090.6090414078,305843.63870866137,422650.6081442742,3.3605989050405426e-06,0.0,0.0,0.0,3.3605989050405426e-06,0.0,25.132063049673192,2.154167162114492,0.04226506081442742,0.0
9263,5.862068965517242,6.8965517241379315,2.857142857142857,0,183567.6574447625,704672.6864308411,639370.4742607004,497382.5220740825,446882.3499264016,1.2237843829650834e-06,0.0,0.0,0.0,1.2237843829650834e-06,0.0,23.60012266895659,2.4482582045926384,0.02395517100886674,0.0
9264,5.862068965517242,6.8965517241379315,3.2142857142857144,0,279602.42642896314,575093.13817863,475409.78222906165,259309.85331440577,25788.74315116049,1.8640161761930876e-06,0.0,0.0,0.0,1.8640161761930876e-06,0.0,24.906074516414932,2.729672687024582,0.0010185908414591474,0.0
9265,5.862068965517242,6.8965517241379315,3.5714285714285716,0,343226.7711466227,509538.8617315423,295404.2483488924,113656.0569357468,60720.865619226104,2.2881784743108183e-06,0.0,0.0,0.0,2.2881784743108183e-06,0.0,25.11763040390443,3.0108327300256423,0.0021378426671350846,0.0
9266,5.862068965517242,6.8965517241379315,3.928571428571429,0,282266.0142332702,354948.24562098976,186113.11683657108,29086.842505572844,-63441.84507435679,1.8817734282218014e-06,0.0,0.0,0.0,1.8817734282218014e-06,0.0,24.85856040453533,3.2995713184797393,-0.002150887100312091,0.0
9267,5.862068965517242,6.8965517241379315,4.285714285714286,0,224104.26389021677,314300.5402514251,380188.0973899294,130525.96829512493,48464.604822011315,1.4940284259347785e-06,0.0,0.0,0.0,1.4940284259347785e-06,0.0,23.95998260969408,3.59612059665864,0.0016238862071141673,0.0
9268,5.862068965517242,6.8965517241379315,4.642857142857143,0,88131.11900810091,238880.4540274971,297648.00041609287,196313.71814633236,36899.0755110332,5.875407933873394e-07,0.0,0.0,0.0,5.875407933873394e-07,0.0,24.020425075741134,3.897230869450587,0.0012319137411760097,0.0
9269,5.862068965517242,6.8965517241379315,5.0,0,169817.37251816413,381659.3516584485,278588.5594949638,185658.56573863205,18579.477367698553,1.1321158167877609e-06,0.0,0.0,0.0,1.1321158167877609e-06,0.0,24.442272377395486,4.200152828575558,0.0006196136415397532,0.0
9270,6.206896551724139,6.8965517241379315,0.0,0,44132.90735810383,297379.8735588101,317482.1338311064,266876.8687536527,-70625.9609427679,2.942193823873589e-07,0.0,0.0,0.0,2.942193823873589e-07,0.0,25.233463658325313,-0.049850351211370436,-0.002355330453109159,0.0
9271,6.206896551724139,6.8965517241379315,0.35714285714285715,0,233021.371674525,360733.1628881787,263957.0219104596,94917.53306018528,-12772.95154078976,1.5534758111635e-06,0.0,0.0,0.0,1.5534758111635e-06,0.0,25.234140511294036,0.25435703379399005,-0.0004264381776657036,0.0
9272,6.206896551724139,6.8965517241379315,0.7142857142857143,0,285328.32905766676,328526.01687771484,338462.8409089585,48295.90153218563,35628.02182271291,1.9021888603844452e-06,0.0,0.0,0.0,1.9021888603844452e-06,0.0,24.516650430029518,0.560338410764695,0.0011937754044863166,0.0
9273,6.206896551724139,6.8965517241379315,1.0714285714285714,0,225776.16711468616,425338.2366815771,259134.58713754304,168290.6220907731,-61219.36923648153,1.5051744474312412e-06,0.0,0.0,0.0,1.5051744474312412e-06,0.0,23.57472496792011,0.8707858852325415,-0.0020755378634663077,0.0
9274,6.206896551724139,6.8965517241379315,1.4285714285714286,0,192946.77300207058,410011.4058581851,296474.5990871856,187229.4417521945,-16791.03422394424,1.2863118200138039e-06,0.0,0.0,0.0,1.2863118200138039e-06,0.0,24.457808202469543,1.1888815383961318,-0.0005911738744697253,0.0
9275,6.206896551724139,6.8965517241379315,1.7857142857142858,0,319821.4672045532,599257.3526519268,501523.808105894,241972.21745652446,87917.42356644102,2.132143114697021e-06,0.0,0.0,0.0,2.132143114697021e-06,0.0,24.277513606530174,1.5143980560314678,0.003472518297016411,0.0
9276,6.206896551724139,6.8965517241379315,2.142857142857143,0,726488.6305407843,985730.3157587468,912167.3661774033,225258.9214295383,234731.53349740215,4.8432575369385625e-06,0.0,0.0,0.0,4.8432575369385625e-06,0.0,24.39749621956095,1.839665428161964,0.012582806250973829,0.0
9277,6.206896551724139,6.8965517241379315,2.5,0,1470196.6425542699,1502593.2748951858,1059678.3354919406,-138141.45282120252,747444.6736854631,9.8013109503618e-06,0.0,0.0,0.0,9.8013109503618e-06,0.0,23.56264282763578,2.152519991706198,0.07474446736854631,0.0
9278,6.206896551724139,6.8965517241379315,2.857142857142857,0,770702.3390842614,1058091.1762736489,735441.1070981668,178501.01297942226,437922.4852145809,5.1380155938950766e-06,0.0,0.0,0.0,5.1380155938950766e-06,0.0,24.51751088240918,2.446808285304821,0.02347487660604836,0.0
9279,6.206896551724139,6.8965517241379315,3.2142857142857144,0,249640.40045081178,595657.7686783846,487137.88979939965,310123.3030728885,78563.16029519944,1.6642693363387452e-06,0.0,0.0,0.0,1.6642693363387452e-06,0.0,23.64867174222715,2.7286837703171822,0.003103048298388129,0.0
9280,6.206896551724139,6.8965517241379315,3.5714285714285716,0,204792.31572904447,423594.5439381676,355256.9126401972,193371.22389537457,23694.51546937274,1.3652821048602964e-06,0.0,0.0,0.0,1.3652821048602964e-06,0.0,23.140072097996516,3.0103101098247036,0.0008342296446360006,0.0
9281,6.206896551724139,6.8965517241379315,3.928571428571429,0,110385.24787699967,326034.7047461576,326798.2484833676,216033.20931582962,-19454.551420978216,7.359016525133312e-07,0.0,0.0,0.0,7.359016525133312e-07,0.0,24.52199887501674,3.299357313803971,-0.0006595732460917012,0.0
9282,6.206896551724139,6.8965517241379315,4.285714285714286,0,154013.44129990114,286395.6931806485,339341.9017779199,165839.32986337136,20855.510915412076,1.0267562753326743e-06,0.0,0.0,0.0,1.0267562753326743e-06,0.0,25.373845894485598,3.596052696478981,0.0006987981567627508,0.0
9283,6.206896551724139,6.8965517241379315,4.642857142857143,0,106995.2380526154,313486.02860256576,230037.77081095497,192861.5057305926,-21066.540127385528,7.13301587017436e-07,0.0,0.0,0.0,7.13301587017436e-07,0.0,24.001449792527485,3.8972141766511332,-0.0007033281973203387,0.0
9284,6.206896551724139,6.8965517241379315,5.0,0,129042.41757084694,297961.6975512227,339557.30902151176,194847.0367531794,-6934.169737424481,8.602827838056462e-07,0.0,0.0,0.0,8.602827838056462e-07,0.0,24.187611084180787,4.20014964878863,-0.00023125010876409526,0.0
9285,6.551724137931035,6.8965517241379315,0.0,0,227097.86004751892,408071.49074475566,277395.11007611535,145841.95806732753,-17771.53073500736,1.513985733650126e-06,0.0,0.0,0.0,1.513985733650126e-06,0.0,24.74774329562404,-0.049854259600803745,-0.0005926691400694418,0.0
9286,6.551724137931035,6.8965517241379315,0.35714285714285715,0,145947.9307246065,283645.186893225,299681.8964674765,146377.90425421743,51819.862856344174,9.7298620483071e-07,0.0,0.0,0.0,9.7298620483071e-07,0.0,24.88592085560812,0.254336516079288,0.001730059635220362,0.0
9287,6.551724137931035,6.8965517241379315,0.7142857142857143,0,480663.1295260417,458694.07679610327,353583.8916618046,-65825.98356160508,43716.74563081123,3.2044208635069447e-06,0.0,0.0,0.0,3.2044208635069447e-06,0.0,24.36209943273681,0.5602549522340678,0.0014648013846499104,0.0
9288,6.551724137931035,6.8965517241379315,1.0714285714285714,0,289631.3084306298,429207.93030830903,316908.57073811215,100243.41367717081,-37198.58026650361,1.9308753895375318e-06,0.0,0.0,0.0,1.9308753895375318e-06,0.0,23.959865145695186,0.8705228444589131,-0.0012611541538770058,0.0
9289,6.551724137931035,6.8965517241379315,1.4285714285714286,0,292446.8478223611,435349.44486691145,382930.09754534473,120237.85390369662,63445.59900347813,1.949645652149074e-06,0.0,0.0,0.0,1.949645652149074e-06,0.0,24.981866458848405,1.1882391672821586,0.0022337742917260383,0.0
9290,6.551724137931035,6.8965517241379315,1.7857142857142858,0,337044.86886584974,621123.4528143489,386386.3987462713,234918.30213245552,15859.325066149242,2.2469657924389984e-06,0.0,0.0,0.0,2.2469657924389984e-06,0.0,23.708413684114145,1.513182543263654,0.0006264036664918341,0.0
9291,6.551724137931035,6.8965517241379315,2.142857142857143,0,677710.6892582087,817634.7635300426,919885.6740507884,196859.67420952645,517562.64937589306,4.5180712617213915e-06,0.0,0.0,0.0,4.5180712617213915e-06,0.0,24.06769569309058,1.837883280693472,0.027743995205099434,0.0
9292,6.551724137931035,6.8965517241379315,2.5,0,437876.5418686243,1141207.3443720462,908552.5231918922,636113.0800572104,794820.9242491903,2.9191769457908286e-06,0.0,0.0,0.0,2.9191769457908286e-06,0.0,24.627152594109926,2.150495395855945,0.07948209242491902,0.0
9293,6.551724137931035,6.8965517241379315,2.857142857142857,0,792079.7158080487,1120448.1733847337,667338.5357859978,205846.10444122352,548840.3401803618,5.280531438720325e-06,0.0,0.0,0.0,5.280531438720325e-06,0.0,23.553404035227114,2.445026137836329,0.02942063880515861,0.0
9294,6.551724137931035,6.8965517241379315,3.2142857142857144,0,170432.94985563456,533740.0477336231,571530.6227267334,385374.17797075707,83617.28026321695,1.1362196657042305e-06,0.0,0.0,0.0,1.1362196657042305e-06,0.0,24.536650498717677,2.7274682575493685,0.0033026733937595093,0.0
9295,6.551724137931035,6.8965517241379315,3.5714285714285716,0,379255.488702723,300604.5831699287,527902.1441503805,90082.74532716219,-6711.194421649712,2.52836992468482e-06,0.0,0.0,0.0,2.52836992468482e-06,0.0,24.91652701117911,3.0096677387107302,-0.0002362857913128772,0.0
9296,6.551724137931035,6.8965517241379315,3.928571428571429,0,292802.125999963,425564.4582830334,173940.8939425059,104183.57990499826,-11056.72565389702,1.952014173333087e-06,0.0,0.0,0.0,1.952014173333087e-06,0.0,25.19022165171328,3.2990942730303425,-0.0003748593464263773,0.0
9297,6.551724137931035,6.8965517241379315,4.285714285714286,0,255215.493516933,385626.7072459633,195281.97639052724,95616.94626038431,13591.662302387354,1.70143662344622e-06,0.0,0.0,0.0,1.70143662344622e-06,0.0,24.161652686990152,3.5959692379483537,0.0004554109751984652,0.0
9298,6.551724137931035,6.8965517241379315,4.642857142857143,0,292718.8326021025,280107.28357906354,446556.14540475624,108566.33761028513,-36604.10870158186,1.9514588840140165e-06,0.0,0.0,0.0,1.9514588840140165e-06,0.0,24.141348839157526,3.8971936589364313,-0.001222065969633731,0.0
9299,6.551724137931035,6.8965517241379315,5.0,0,69587.55121239358,307972.3848680963,283436.72465989133,229440.47461986047,-86966.07965982144,4.6391700808262387e-07,0.0,0.0,0.0,4.6391700808262387e-07,0.0,24.7236366030346,4.200145740399196,-0.00290026292139632,0.0
9300,6.8965517241379315,6.8965517241379315,0.0,0,168085.97264542332,305734.00774381735,272507.3157086854,123516.05912578054,-14754.17241846688,1.1205731509694888e-06,0.0,0.0,0.0,1.1205731509694888e-06,0.0,23.924775502354304,-0.04985873185987881,-0.000492042177462178,0.0
9301,6.8965517241379315,6.8965517241379315,0.35714285714285715,0,167413.06573773388,315732.3252879505,249945.0813879425,125418.36321400494,1511.2587083569872,1.1160871049182259e-06,0.0,0.0,0.0,1.1160871049182259e-06,0.0,24.08404520331153,0.25431303824082235,5.0454932637545366e-05,0.0
9302,6.8965517241379315,6.8965517241379315,0.7142857142857143,0,254422.8642187953,346436.51194385765,348815.9718627008,93211.72292850353,20582.76150560904,1.696152428125302e-06,0.0,0.0,0.0,1.696152428125302e-06,0.0,24.404199179928725,0.560159453006737,0.0006896592396869941,0.0
9303,6.8965517241379315,6.8965517241379315,1.0714285714285714,0,295426.5806198931,361279.9712096452,466439.91050733725,132820.96684965113,15403.626398207829,1.969510537465954e-06,0.0,0.0,0.0,1.969510537465954e-06,0.0,24.43403225995014,0.8702218543689936,0.0005222335712194437,0.0
9304,6.8965517241379315,6.8965517241379315,1.4285714285714286,0,168576.82624830687,385763.71292603895,251440.6784231804,196593.43308187724,11820.146747153667,1.1238455083220458e-06,0.0,0.0,0.0,1.1238455083220458e-06,0.0,23.29905913012107,1.187504120252417,0.00041616030651351493,0.0
9305,6.8965517241379315,6.8965517241379315,1.7857142857142858,0,274854.71219343576,538957.6348175847,432392.7639021852,226777.42217741357,141214.25849051838,1.8323647479562383e-06,0.0,0.0,0.0,1.8323647479562383e-06,0.0,23.674147978136123,1.511791666510077,0.005577609949378783,0.0
9306,6.8965517241379315,6.8965517241379315,2.142857142857143,0,477252.4895830797,898173.1461400688,592845.2048447868,348204.4121034945,272864.7533631799,3.181683263887198e-06,0.0,0.0,0.0,3.181683263887198e-06,0.0,23.34557994207033,1.835844019937841,0.014626941140512127,0.0
9307,6.8965517241379315,6.8965517241379315,2.5,0,413915.6309046452,1144627.181616898,937566.0826305874,668041.1061331383,564592.6506914677,2.7594375393643014e-06,0.0,0.0,0.0,2.7594375393643014e-06,0.0,23.43293450536693,2.1481787082998207,0.05645926506914677,0.0
9308,6.8965517241379315,6.8965517241379315,2.857142857142857,0,457373.68059551704,881699.1263346163,888982.4474398402,428010.60132459924,553523.8097747096,3.04915787063678e-06,0.0,0.0,0.0,3.04915787063678e-06,0.0,23.71220111534384,2.442986877080698,0.029671696639655566,0.0
9309,6.8965517241379315,6.8965517241379315,3.2142857142857144,0,619310.8462410369,782505.6110813248,650653.5624196567,107886.55884596465,-135341.9232106228,4.128738974940246e-06,0.0,0.0,0.0,4.128738974940246e-06,0.0,24.165159167008976,2.7260773807957914,-0.005345667396032211,0.0
9310,6.8965517241379315,6.8965517241379315,3.5714285714285716,0,280380.9787724683,488553.5887055523,378447.22833883384,169832.17889923856,55202.2903490474,1.8692065251497886e-06,0.0,0.0,0.0,1.8692065251497886e-06,0.0,24.21829046425245,3.0089326916809886,0.0019435462658227653,0.0
9311,6.8965517241379315,6.8965517241379315,3.928571428571429,0,302318.97871414374,260203.1096238052,459424.5506009699,111560.1735793981,21745.663865372237,2.0154598580942916e-06,0.0,0.0,0.0,2.0154598580942916e-06,0.0,23.209881512536125,3.298793282940423,0.0007372494895274941,0.0
9312,6.8965517241379315,6.8965517241379315,4.285714285714286,0,209091.2974882487,409215.388804327,216711.63861852433,186765.6519679679,-46.07690558456685,1.3939419832549913e-06,0.0,0.0,0.0,1.3939419832549913e-06,0.0,23.823908520925787,3.5958737387210227,-1.5438824214098818e-06,0.0
9313,6.8965517241379315,6.8965517241379315,4.642857142857143,0,240592.86593602542,413955.04480298044,196837.34325625756,155296.71070069002,33090.00044540176,1.6039524395735029e-06,0.0,0.0,0.0,1.6039524395735029e-06,0.0,23.53612875299772,3.8971701810979655,0.0011047438365230004,0.0
9314,6.8965517241379315,6.8965517241379315,5.0,0,123594.66072039575,337066.3902163176,366900.7014915664,231119.67382578625,26524.17044317101,8.239644048026384e-07,0.0,0.0,0.0,8.239644048026384e-07,0.0,24.199850123776308,4.200141268140121,0.0008845640548364927,0.0
9315,7.241379310344828,6.8965517241379315,0.0,0,173918.02490495797,264317.1065592511,273218.4139100201,95020.66117273198,-55027.03837497603,1.1594534993663865e-06,0.0,0.0,0.0,1.1594534993663865e-06,0.0,23.832984152369917,-0.04986363467145917,-0.001835116400526075,0.0
9316,7.241379310344828,6.8965517241379315,0.35714285714285715,0,230407.97567573562,377761.5938885702,160219.1439307873,136346.87263200778,-36731.68854406073,1.5360531711715708e-06,0.0,0.0,0.0,1.5360531711715708e-06,0.0,24.795116284886035,0.2542873001481987,-0.0012263253544250866,0.0
9317,7.241379310344828,6.8965517241379315,0.7142857142857143,0,266350.04121138534,377773.8489875934,240933.08306130063,70819.82470977664,-18181.661737169245,1.7756669414092355e-06,0.0,0.0,0.0,1.7756669414092355e-06,0.0,24.100850300326552,0.5600547598953108,-0.0006092064471759628,0.0
9318,7.241379310344828,6.8965517241379315,1.0714285714285714,0,145151.43820057117,302360.8394874887,292795.3901931419,152663.25484817303,-82437.97098525445,9.676762546704743e-07,0.0,0.0,0.0,9.676762546704743e-07,0.0,23.87182073324966,0.8698918874163507,-0.0027949182146305026,0.0
9319,7.241379310344828,6.8965517241379315,1.4285714285714286,0,253970.10631998512,321516.16309511685,258547.19490646382,41985.319043368596,5302.722530933417,1.6931340421332342e-06,0.0,0.0,0.0,1.6931340421332342e-06,0.0,24.04890864431438,1.1866983089098648,0.00018669672052597602,0.0
9320,7.241379310344828,6.8965517241379315,1.7857142857142858,0,326146.79702667764,637544.9989768266,322551.23077410844,301285.9049264682,109722.53376723883,2.174311980177851e-06,0.0,0.0,0.0,2.174311980177851e-06,0.0,23.86296792894806,1.5102668875248213,0.004333765602375712,0.0
9321,7.241379310344828,6.8965517241379315,2.142857142857143,0,470149.14371298556,916603.2994356862,633070.4561428834,373904.137276892,474686.14091496065,3.1343276247532372e-06,0.0,0.0,0.0,3.1343276247532372e-06,0.0,24.860244238011024,1.8336084358448246,0.025445595877818073,0.0
9322,7.241379310344828,6.8965517241379315,2.5,0,520421.3749829393,1036822.6119898718,551013.1006510379,487600.62442078587,661538.1095763238,3.4694758332195953e-06,0.0,0.0,0.0,3.4694758332195953e-06,0.0,24.02663453623337,2.145638989024265,0.06615381095763237,0.0
9323,7.241379310344828,6.8965517241379315,2.857142857142857,0,358582.5972815892,945381.7743778796,795119.8092840204,536113.8656198393,290545.0716889983,2.390550648543928e-06,0.0,0.0,0.0,2.390550648543928e-06,0.0,24.42701657879779,2.440751292987682,0.015574696291405723,0.0
9324,7.241379310344828,6.8965517241379315,3.2142857142857144,0,271060.8896608319,505787.78949771175,201965.44566489055,288738.3535219181,82889.66220028521,1.8070725977388792e-06,0.0,0.0,0.0,1.8070725977388792e-06,0.0,24.598560433601175,2.724552601810536,0.0032739343004799994,0.0
9325,7.241379310344828,6.8965517241379315,3.5714285714285716,0,313396.95511301584,413600.90967504337,325289.0829463694,65523.26721093774,2127.7914852927784,2.0893130340867723e-06,0.0,0.0,0.0,2.0893130340867723e-06,0.0,23.87797483205863,3.0081268803384367,7.491466693757606e-05,0.0
9326,7.241379310344828,6.8965517241379315,3.928571428571429,0,279171.4502626723,431384.2685454672,313365.5303817129,112585.78936957529,30852.740099296963,1.861143001751149e-06,0.0,0.0,0.0,1.861143001751149e-06,0.0,23.311378899357543,3.29846331598778,0.0010460093115369129,0.0
9327,7.241379310344828,6.8965517241379315,4.285714285714286,0,179168.00170157323,351874.43560855614,257998.6360786297,145275.41493215205,-1711.753304430556,1.1944533446771549e-06,0.0,0.0,0.0,1.1944533446771549e-06,0.0,23.977578378551353,3.5957690456095968,-5.735510670633627e-05,0.0
9328,7.241379310344828,6.8965517241379315,4.642857142857143,0,191403.6281693229,251035.18861807458,346469.6630535717,126112.49797063967,33546.13641836238,1.276024187795486e-06,0.0,0.0,0.0,1.276024187795486e-06,0.0,24.541317221690267,3.897144443005342,0.001119972407026531,0.0
9329,7.241379310344828,6.8965517241379315,5.0,0,194720.11116928083,341430.0541794809,160593.10251877247,135298.91966683712,-9857.623822125803,1.2981340744618723e-06,0.0,0.0,0.0,1.2981340744618723e-06,0.0,23.379658721153543,4.200136365328541,-0.00032874542552931775,0.0
9330,7.586206896551724,6.8965517241379315,0.0,0,77902.10402436329,302335.9807364937,215329.6367645022,278610.5713361228,49630.74057964666,5.19347360162422e-07,0.0,0.0,0.0,5.19347360162422e-07,0.0,24.210094794186197,-0.049868865832292705,0.0016551533336633848,0.0
9331,7.586206896551724,6.8965517241379315,0.35714285714285715,0,214703.79450981985,405298.79591276194,243924.41521263786,161619.42379574056,6830.950569112486,1.4313586300654657e-06,0.0,0.0,0.0,1.4313586300654657e-06,0.0,24.50829190341044,0.2542598383337162,0.00022805833899192248,0.0
9332,7.586206896551724,6.8965517241379315,0.7142857142857143,0,198297.45078343112,410583.74035867327,325198.17389222054,183896.77850392225,-23071.352431232237,1.3219830052228741e-06,0.0,0.0,0.0,1.3219830052228741e-06,0.0,24.78896739681965,0.5599430553162018,-0.0007730435671587739,0.0
9333,7.586206896551724,6.8965517241379315,1.0714285714285714,0,282627.5020879889,265727.7786556038,295733.0469751653,-699.9832709292909,-12992.2721490209,1.8841833472532592e-06,0.0,0.0,0.0,1.8841833472532592e-06,0.0,24.43680605241601,0.869539822041058,-0.000440480735330449,0.0
9334,7.586206896551724,6.8965517241379315,1.4285714285714286,0,273281.7419385679,532261.138456968,521572.7795799965,253792.0247569509,39406.20969080235,1.8218782795904526e-06,0.0,0.0,0.0,1.8218782795904526e-06,0.0,24.248981443009672,1.1858385310731494,0.0013874024286042947,0.0
9335,7.586206896551724,6.8965517241379315,1.7857142857142858,0,247864.50482913808,514720.56919400126,356695.9541029859,642367.3493344605,-14388.348896028023,1.6524300321942538e-06,0.0,0.0,0.0,1.6524300321942538e-06,0.0,24.20040517582146,1.5086399916148432,-0.000568303787559863,0.0
9336,7.586206896551724,6.8965517241379315,2.142857142857143,0,780996.9660389837,1286607.4504472192,412905.57975345966,656262.2210713777,357202.2217828243,5.206646440259891e-06,0.0,0.0,0.0,5.206646440259891e-06,0.0,23.508143292512184,1.8312231310547464,0.01914785918254313,0.0
9337,7.586206896551724,6.8965517241379315,2.5,0,824492.6285031502,1142734.570592473,1220713.3328277657,360001.6269943901,789238.9725482587,5.496617523354334e-06,0.0,0.0,0.0,5.496617523354334e-06,0.0,23.643559356574023,2.142929180624589,0.07892389725482588,0.0
9338,7.586206896551724,6.8965517241379315,2.857142857142857,0,392508.2647806749,736283.5605033151,405869.6105769815,839744.9762966627,420601.97057168087,2.616721765204499e-06,0.0,0.0,0.0,2.616721765204499e-06,0.0,23.255459057145448,2.4383659881976034,0.022546408765909708,0.0
9339,7.586206896551724,6.8965517241379315,3.2142857142857144,0,266484.3994213498,510775.2787394373,553809.5666707474,268426.9784316117,-6450.515778352332,1.7765626628089988e-06,0.0,0.0,0.0,1.7765626628089988e-06,0.0,24.162277000090846,2.7229257059005576,-0.0002547792366617037,0.0
9340,7.586206896551724,6.8965517241379315,3.5714285714285716,0,271725.87741964904,494283.18760937185,233027.0761177639,213176.2774829888,20191.512571787483,1.811505849464327e-06,0.0,0.0,0.0,1.811505849464327e-06,0.0,24.35140006393084,3.007267102501721,0.0007108969322119472,0.0
9341,7.586206896551724,6.8965517241379315,3.928571428571429,0,241639.78045967928,366530.09160708706,113782.16490480503,137790.8623627955,-53109.98757714146,1.6109318697311953e-06,0.0,0.0,0.0,1.6109318697311953e-06,0.0,24.19462854740195,3.298111250612487,-0.0018006031672553329,0.0
9342,7.586206896551724,6.8965517241379315,4.285714285714286,0,214154.29825291925,378510.19412297424,241248.76585815207,131745.9943871368,7205.363350635376,1.4276953216861284e-06,0.0,0.0,0.0,1.4276953216861284e-06,0.0,24.282348207989703,3.5956573410304875,0.00024142753676242856,0.0
9343,7.586206896551724,6.8965517241379315,4.642857142857143,0,466699.35985861265,508844.2210520073,338535.3894502528,-19090.579252602,53088.729248965494,3.1113290657240845e-06,0.0,0.0,0.0,3.1113290657240845e-06,0.0,24.525077129764707,3.8971169811908593,0.001772422050081386,0.0
9344,7.586206896551724,6.8965517241379315,5.0,0,140178.5255737735,330871.67807532515,175271.84389306995,214451.32942423067,2823.460232966863,9.345235038251568e-07,0.0,0.0,0.0,9.345235038251568e-07,0.0,23.486421755630243,4.200131134167708,9.416058600942139e-05,0.0
9345,7.931034482758621,6.8965517241379315,0.0,0,234356.4985908223,396727.39493622014,319587.01842064137,133524.19448960276,-44373.88468981188,1.5623766572721487e-06,0.0,0.0,0.0,1.5623766572721487e-06,0.0,24.03396178978437,-0.04987434892611723,-0.0014798405648223686,0.0
9346,7.931034482758621,6.8965517241379315,0.35714285714285715,0,313154.9877426952,503448.822912793,334296.82702412875,142093.58430310944,-7488.712910552036,2.0876999182846347e-06,0.0,0.0,0.0,2.0876999182846347e-06,0.0,24.130525892252066,0.25423105395675066,-0.0002500184140242955,0.0
9347,7.931034482758621,6.8965517241379315,0.7142857142857143,0,237582.0512247253,414636.9732653911,175303.53722055626,178845.92162862,7654.967562296402,1.5838803414981686e-06,0.0,0.0,0.0,1.5838803414981686e-06,0.0,23.777552440005838,0.5598259710384721,0.0002564922645293861,0.0
9348,7.931034482758621,6.8965517241379315,1.0714285714285714,0,141884.25292815643,275040.0615057508,265219.97462298267,128500.86976080519,44518.1406194546,9.45895019521043e-07,0.0,0.0,0.0,9.45895019521043e-07,0.0,22.95386924630953,0.8691708011780938,0.0015093113114228798,0.0
9349,7.931034482758621,6.8965517241379315,1.4285714285714286,0,287284.997846831,518554.94316035265,478211.84666556225,213230.81135151975,56930.01955820885,1.915233318978873e-06,0.0,0.0,0.0,1.915233318978873e-06,0.0,23.509378671088243,1.1849373462889363,0.0020043756559003562,0.0
9350,7.931034482758621,6.8965517241379315,1.7857142857142858,0,112808.06465213085,517711.2695794966,560023.5014893429,432176.63746475405,-2419.8707160861813,7.520537643475391e-07,0.0,0.0,0.0,7.520537643475391e-07,0.0,23.772079717857387,1.50693474430913,-9.557883974697137e-05,0.0
9351,7.931034482758621,6.8965517241379315,2.142857142857143,0,731082.2579188845,1280761.0259127724,647397.9770570906,480737.2789324726,344590.63806505344,4.87388171945923e-06,0.0,0.0,0.0,4.87388171945923e-06,0.0,24.105746888618516,1.8287229498559139,0.018471814033967453,0.0
9352,7.931034482758621,6.8965517241379315,2.5,0,520144.33095257805,982519.3673821363,920931.7004073258,434323.03633644234,724890.0934463558,3.467628873017187e-06,0.0,0.0,0.0,3.467628873017187e-06,0.0,24.05241181318745,2.140088867704627,0.07248900934463558,0.0
9353,7.931034482758621,6.8965517241379315,2.857142857142857,0,1135923.9094718378,1593154.9570337278,562683.5263194883,375125.1032754007,316535.70672856295,7.572826063145585e-06,0.0,0.0,0.0,7.572826063145585e-06,0.0,25.002077695199837,2.435865806998771,0.016967926762701698,0.0
9354,7.931034482758621,6.8965517241379315,3.2142857142857144,0,499997.6677761563,872618.1724052224,622508.2163418873,296917.6294446488,104685.85235107188,3.3333177851743752e-06,0.0,0.0,0.0,3.3333177851743752e-06,0.0,24.51698855765727,2.7212204585948445,0.00413482928617822,0.0
9355,7.931034482758621,6.8965517241379315,3.5714285714285716,0,307047.33888487,395918.8579394716,434524.9364732956,110000.26242034759,-57565.951025245646,2.0469822592324667e-06,0.0,0.0,0.0,2.0469822592324667e-06,0.0,24.03837784169234,3.006365917717508,-0.0020267653469849744,0.0
9356,7.931034482758621,6.8965517241379315,3.928571428571429,0,197393.46784808513,406879.8310394779,293479.9871411085,178950.42067792275,10853.337880041669,1.3159564523205674e-06,0.0,0.0,0.0,1.3159564523205674e-06,0.0,24.115212531089977,3.297742229749523,0.0003679638322963273,0.0
9357,7.931034482758621,6.8965517241379315,4.285714285714286,0,212600.41080613848,452645.3942841139,293498.6725784418,211198.08431440525,40415.71546106315,1.417336072040923e-06,0.0,0.0,0.0,1.417336072040923e-06,0.0,24.694696042038697,3.595540256752758,0.0013541949455463966,0.0
9358,7.931034482758621,6.8965517241379315,4.642857142857143,0,275072.04182607285,453558.8149531886,196146.14834065226,163704.5139435324,2115.466424634023,1.833813612173819e-06,0.0,0.0,0.0,1.833813612173819e-06,0.0,24.71863339010692,3.8970881968138937,7.0627031203638e-05,0.0
9359,7.931034482758621,6.8965517241379315,5.0,0,283398.56920112995,426707.4576453605,168411.5114424664,123556.17378055073,6889.455840281288,1.8893237946741997e-06,0.0,0.0,0.0,1.8893237946741997e-06,0.0,24.235874404470106,4.200125651073883,0.0002297589290022525,0.0
9360,8.275862068965518,6.8965517241379315,0.0,0,321381.1316829004,499347.638430559,249459.4324578858,136805.67099969316,33716.630833262374,2.142540877886003e-06,0.0,0.0,0.0,2.142540877886003e-06,0.0,24.785154032941165,-0.04988002726266219,0.0011244279910354138,0.0
9361,8.275862068965518,6.8965517241379315,0.35714285714285715,0,156466.61286062954,389595.9779411113,272611.4625240125,211865.4365123236,-17738.317465438704,1.043110752404197e-06,0.0,0.0,0.0,1.043110752404197e-06,0.0,23.474234483579266,0.2542012446219339,-0.0005922120467349473,0.0
9362,8.275862068965518,6.8965517241379315,0.7142857142857143,0,296404.6170529033,371306.01488691545,365643.81625928887,72110.86302909971,24930.17514372559,1.9760307803526885e-06,0.0,0.0,0.0,1.9760307803526885e-06,0.0,23.91354171468679,0.5597047176085015,0.0008353264760027468,0.0
9363,8.275862068965518,6.8965517241379315,1.0714285714285714,0,277429.4005977033,384180.3256006842,365132.1880058805,97717.72814280867,-997.022563294835,1.849529337318022e-06,0.0,0.0,0.0,1.849529337318022e-06,0.0,25.515822379385416,0.8687886401720843,-3.3802342406616996e-05,0.0
9364,8.275862068965518,6.8965517241379315,1.4285714285714286,0,457284.5604497428,562097.8519176533,353551.5012799755,37716.97141775665,-37534.34569821838,3.048563736331619e-06,0.0,0.0,0.0,3.048563736331619e-06,0.0,24.29257834840945,1.1840040719993232,-0.0013214983827773727,0.0
9365,8.275862068965518,6.8965517241379315,1.7857142857142858,0,419249.1897204687,737409.3607960255,644684.1827466207,279559.93832698406,134397.73391714608,2.794994598136458e-06,0.0,0.0,0.0,2.794994598136458e-06,0.0,23.87168912719567,1.505168776334822,0.005308374280919856,0.0
9366,8.275862068965518,6.8965517241379315,2.142857142857143,0,528555.7355201639,1077495.816895293,520598.2370637343,582783.3459450507,526657.1776710392,3.5237049034677595e-06,0.0,0.0,0.0,3.5237049034677595e-06,0.0,23.998875174833053,1.8261337418786818,0.028231508262151442,0.0
9367,8.275862068965518,6.8965517241379315,2.5,0,511243.75714453944,1388551.5152058152,1096740.4934929986,798230.742545251,830044.9329984573,3.4082917142969298e-06,0.0,0.0,0.0,3.4082917142969298e-06,0.0,24.04146355441995,2.1371474165515516,0.08300449329984574,0.0
9368,8.275862068965518,6.8965517241379315,2.857142857142857,0,152458.14194962496,600511.8786929392,551766.2462133731,722636.1017828208,475883.6498625901,1.0163876129974998e-06,0.0,0.0,0.0,1.0163876129974998e-06,0.0,24.79134600595587,2.433276599021539,0.02550978845922084,0.0
9369,8.275862068965518,6.8965517241379315,3.2142857142857144,0,515144.90876538533,729834.5438452892,651440.2939114864,179985.84176353688,107481.81471455983,3.4342993917692354e-06,0.0,0.0,0.0,3.4342993917692354e-06,0.0,24.363210611297934,2.7194544906205365,0.004245262805168273,0.0
9370,8.275862068965518,6.8965517241379315,3.5714285714285716,0,247807.14018958007,500710.0514715321,334536.6341355715,215885.45529328592,23442.27148076101,1.652047601263867e-06,0.0,0.0,0.0,1.652047601263867e-06,0.0,23.926486441021723,3.005432643427895,0.0008253487112717742,0.0
9371,8.275862068965518,6.8965517241379315,3.928571428571429,0,422708.38996620657,550601.756190631,123987.0728191536,131911.0731728525,-3608.488678153081,2.8180559331080436e-06,0.0,0.0,0.0,2.8180559331080436e-06,0.0,23.132565936036634,3.297360068743514,-0.00012233962836933428,0.0
9372,8.275862068965518,6.8965517241379315,4.285714285714286,0,55117.64691730454,278195.03974412096,339000.01911584905,292318.0680014413,-26545.292637848128,3.6745097944869694e-07,0.0,0.0,0.0,3.6745097944869694e-07,0.0,23.61196940229147,3.595419003322787,-0.0008894436411216336,0.0
9373,8.275862068965518,6.8965517241379315,4.642857142857143,0,230496.0447378134,523813.2606968421,344263.0724067285,263891.9821881192,-82515.75057076695,1.5366402982520894e-06,0.0,0.0,0.0,1.5366402982520894e-06,0.0,24.010083586576613,3.897058387479077,-0.002754873545847643,0.0
9374,8.275862068965518,6.8965517241379315,5.0,0,206330.42768007,405362.9390443752,243071.96179082492,173159.59920421126,-62590.8882976952,1.3755361845338e-06,0.0,0.0,0.0,1.3755361845338e-06,0.0,23.919983197874288,4.200119972737338,-0.00208736593919309,0.0
9375,8.620689655172415,6.8965517241379315,0.0,0,290603.6903903625,446678.31119157065,254607.97107982656,112352.89121867644,593.1387875865537,1.93735793593575e-06,0.0,0.0,0.0,1.93735793593575e-06,0.0,24.380121342370906,-0.04988585870123936,1.978079775020621e-05,0.0
9376,8.620689655172415,6.8965517241379315,0.35714285714285715,0,575691.9865401573,543374.7684574886,271890.48696253187,-117860.92795211956,-51944.83818143975,3.837946576934382e-06,0.0,0.0,0.0,3.837946576934382e-06,0.0,23.721248536196757,0.25417063155354075,-0.0017342320655092222,0.0
9377,8.620689655172415,6.8965517241379315,0.7142857142857143,0,373504.33062495,454053.41828170937,128591.242869209,46248.333020814345,16911.66878927209,2.490028870833e-06,0.0,0.0,0.0,2.490028870833e-06,0.0,24.260994538580313,0.5595801948854213,0.0005666532469838548,0.0
9378,8.620689655172415,6.8965517241379315,1.0714285714285714,0,406748.6787403921,454299.47082216426,95503.37357704823,12425.693591588813,73768.05241041382,2.7116578582692807e-06,0.0,0.0,0.0,2.7116578582692807e-06,0.0,23.110357494166262,0.8683961751578172,0.0025009794743318155,0.0
9379,8.620689655172415,6.8965517241379315,1.4285714285714286,0,438403.8924335536,512490.1334414662,469410.35451940313,54136.699791486164,-151509.8667033198,2.9226926162236907e-06,0.0,0.0,0.0,2.9226926162236907e-06,0.0,23.588887929907187,1.183045634320888,-0.00533431554750017,0.0
9380,8.620689655172415,6.8965517241379315,1.7857142857142858,0,226705.75348746983,632496.1140087397,374738.98107898235,543195.8747216864,5662.662383060437,1.5113716899164655e-06,0.0,0.0,0.0,1.5113716899164655e-06,0.0,24.203204315937203,1.5033551934853588,0.00022366099843842277,0.0
9381,8.620689655172415,6.8965517241379315,2.142857142857143,0,927617.884223256,1031507.5743624214,1111130.1232334585,146267.4305436412,618040.969736693,6.1841192281550406e-06,0.0,0.0,0.0,6.1841192281550406e-06,0.0,24.894242421264465,1.8234747224346624,0.033130145155579854,0.0
9382,8.620689655172415,6.8965517241379315,2.5,0,896834.5386610936,1045970.2540815233,1189009.3566240575,229251.63284874504,806143.4744865212,5.978896924407291e-06,0.0,0.0,0.0,5.978896924407291e-06,0.0,23.794326691191376,2.1341266565823114,0.08061434744865212,0.0
9383,8.620689655172415,6.8965517241379315,2.857142857142857,0,816039.5887101461,1028171.6978011184,1051360.537741608,223973.66952310604,379689.44874884025,5.4402639247343075e-06,0.0,0.0,0.0,5.4402639247343075e-06,0.0,24.284465356366095,2.4306175795775196,0.020353289129764873,0.0
9384,8.620689655172415,6.8965517241379315,3.2142857142857144,0,258887.72222708206,373077.6761246842,399073.6439507781,643982.6393200207,36513.98698264469,1.725918148180547e-06,0.0,0.0,0.0,1.725918148180547e-06,0.0,24.54287709552382,2.7176409077710733,0.0014422111425777932,0.0
9385,8.620689655172415,6.8965517241379315,3.5714285714285716,0,343598.7579877593,530746.7887280025,184924.0520544067,189416.05514356022,34779.068908736685,2.290658386585062e-06,0.0,0.0,0.0,2.290658386585062e-06,0.0,24.35613968189139,3.0044742057494593,0.001224491394812829,0.0
9386,8.620689655172415,6.8965517241379315,3.928571428571429,0,187770.24568746702,410377.9715287029,203000.616325537,251883.82360492763,41456.79110916387,1.2518016379164468e-06,0.0,0.0,0.0,1.2518016379164468e-06,0.0,24.258410397232108,3.2969676037292466,0.0014055214994539247,0.0
9387,8.620689655172415,6.8965517241379315,4.285714285714286,0,178484.36780132714,380813.4414472757,249331.44981270676,177627.78783531816,-51819.012857312766,1.1898957853421809e-06,0.0,0.0,0.0,1.1898957853421809e-06,0.0,23.71202864537586,3.595294480599707,-0.0017362811592976008,0.0
9388,8.620689655172415,6.8965517241379315,4.642857142857143,0,386384.95748725184,424853.1071901706,91711.50106760266,1269.0008253761903,60711.066707802325,2.575899716581679e-06,0.0,0.0,0.0,2.575899716581679e-06,0.0,24.6534832920185,3.897027774410684,0.0020269016576426645,0.0
9389,8.620689655172415,6.8965517241379315,5.0,0,42786.37494392225,290226.3950339372,246131.23011239702,287476.1233637547,16212.875015947391,2.8524249962614835e-07,0.0,0.0,0.0,2.8524249962614835e-07,0.0,23.23946153800076,4.20011414129876,0.0005406889725501689,0.0
9390,8.965517241379311,6.8965517241379315,0.0,0,344720.4152938022,575179.0510809459,273784.35292904347,199308.2318430455,38936.27878445363,2.2981361019586813e-06,0.0,0.0,0.0,2.2981361019586813e-06,0.0,23.11061524343374,-0.049891811683883444,0.0012984998990114638,0.0
9391,8.965517241379311,6.8965517241379315,0.35714285714285715,0,238222.3923180134,406585.85240283224,183115.1006730908,155942.14150105423,42508.03821256933,1.5881492821200893e-06,0.0,0.0,0.0,1.5881492821200893e-06,0.0,24.68251671531874,0.25413938042015144,0.0014191747532764341,0.0
9392,8.965517241379311,6.8965517241379315,0.7142857142857143,0,172939.7516208186,404296.0541480086,204849.67079583913,313175.9326491938,13010.124039387563,1.152931677472124e-06,0.0,0.0,0.0,1.152931677472124e-06,0.0,23.934363545611934,0.5594530767481931,0.00043592558028680394,0.0
9393,8.965517241379311,6.8965517241379315,1.0714285714285714,0,180850.46082665573,346204.6189200963,281401.5944048883,141880.696280731,19385.92615477934,1.2056697388443716e-06,0.0,0.0,0.0,1.2056697388443716e-06,0.0,23.139298475510163,0.8679955300361334,0.0006572466239758145,0.0
9394,8.965517241379311,6.8965517241379315,1.4285714285714286,0,276751.40557279106,500982.40954491583,384544.6546995772,185036.87959781688,32081.99594612137,1.8450093704852737e-06,0.0,0.0,0.0,1.8450093704852737e-06,0.0,23.04621937620211,1.1820672200257434,0.0011295336303433156,0.0
9395,8.965517241379311,6.8965517241379315,1.7857142857142858,0,619155.4030959181,912349.0969368936,372709.4930130109,236394.78943457716,49729.28862772115,4.127702687306121e-06,0.0,0.0,0.0,4.127702687306121e-06,0.0,23.029865116546038,1.5015038103174514,0.0019641824982151524,0.0
9396,8.965517241379311,6.8965517241379315,2.142857142857143,0,566032.482276072,1277439.5059051644,802591.2109705255,651065.3698919376,467731.63830658846,3.7735498818404803e-06,0.0,0.0,0.0,3.7735498818404803e-06,0.0,24.789671287578805,1.8207602813253114,0.025072799101904672,0.0
9397,8.965517241379311,6.8965517241379315,2.5,0,678331.0106092837,1457869.9578390142,905646.0691377752,700697.1623323552,686103.9582157522,4.522206737395225e-06,0.0,0.0,0.0,4.522206737395225e-06,0.0,23.736605431145925,2.1310429352276485,0.06861039582157522,0.0
9398,8.965517241379311,6.8965517241379315,2.857142857142857,0,603914.1853889858,1173838.219506606,750661.8650812613,482246.21615762194,399180.84047480405,4.026094569259906e-06,0.0,0.0,0.0,4.026094569259906e-06,0.0,23.52331011458231,2.4279031384681686,0.02139812704308405,0.0
9399,8.965517241379311,6.8965517241379315,3.2142857142857144,0,456944.2253780058,663011.7624346095,406822.24200993095,135450.8305321812,186933.30274764705,3.046294835853372e-06,0.0,0.0,0.0,3.046294835853372e-06,0.0,24.601088884393928,2.715789524603166,0.007383397826966027,0.0
9400,8.965517241379311,6.8965517241379315,3.5714285714285716,0,171101.0468380296,353985.8260195527,216053.00453429646,162518.51406837458,4470.498324229378,1.140673645586864e-06,0.0,0.0,0.0,1.140673645586864e-06,0.0,23.917070694010413,3.003495791454315,0.00015739601146047146,0.0
9401,8.965517241379311,6.8965517241379315,3.928571428571429,0,348760.95249838865,411793.23416363634,445901.4493458812,81339.53719435098,18016.295603814895,2.3250730166559245e-06,0.0,0.0,0.0,2.3250730166559245e-06,0.0,23.632454161695918,3.2965669586075625,0.0006108116459134645,0.0
9402,8.965517241379311,6.8965517241379315,4.285714285714286,0,116523.16184572394,396797.82440971985,344007.59542825434,263222.76291588345,-7272.564803920451,7.768210789714929e-07,0.0,0.0,0.0,7.768210789714929e-07,0.0,24.33133886160895,3.595167362462479,-0.00024367923186008664,0.0
9403,8.965517241379311,6.8965517241379315,4.642857142857143,0,417828.9191187315,502192.6616558636,374082.0413266728,35307.66369370786,-15186.0648641504,2.78552612745821e-06,0.0,0.0,0.0,2.78552612745821e-06,0.0,24.10449126834925,3.8969965232772945,-0.0005070024579597722,0.0
9404,8.965517241379311,6.8965517241379315,5.0,0,150292.2649773817,440717.4432517917,283583.21107037365,298358.55872973514,80048.45886913112,1.0019484331825448e-06,0.0,0.0,0.0,1.0019484331825448e-06,0.0,24.11060081308014,4.200108188316117,0.0026695647093808077,0.0
9405,9.310344827586208,6.8965517241379315,0.0,0,280080.73552860913,561076.6422269773,283068.54501828755,278968.2896026292,-62130.38103891581,1.867204903524061e-06,0.0,0.0,0.0,1.867204903524061e-06,0.0,23.51942311961773,-0.04989786233623639,-0.0020720083177745313,0.0
9406,9.310344827586208,6.8965517241379315,0.35714285714285715,0,377205.01200235204,525981.628607947,338687.7869200675,91784.58850247889,2211.0798221998575,2.5147000800156804e-06,0.0,0.0,0.0,2.5147000800156804e-06,0.0,23.211595420440577,0.2541076165540226,7.381918322020156e-05,0.0
9407,9.310344827586208,6.8965517241379315,0.7142857142857143,0,248607.6821461057,386838.8387088042,141786.42061991798,134822.22880911856,-51156.122366177144,1.6573845476407048e-06,0.0,0.0,0.0,1.6573845476407048e-06,0.0,23.15876720283926,0.5593238730024228,-0.0017140699243285834,0.0
9408,9.310344827586208,6.8965517241379315,1.0714285714285714,0,146159.03046317882,281122.6247023608,209237.0425787874,112942.13289678968,55297.07579050387,9.743935364211922e-07,0.0,0.0,0.0,9.743935364211922e-07,0.0,23.72019125735103,0.8675883115889873,0.0018747526473004404,0.0
9409,9.310344827586208,6.8965517241379315,1.4285714285714286,0,390071.4257003786,650924.7937601472,275456.0498893637,247730.13794394836,3268.095476513287,2.6004761713358574e-06,0.0,0.0,0.0,2.6004761713358574e-06,0.0,23.67723490104115,1.1810727530314624,0.00011506215991342971,0.0
9410,9.310344827586208,6.8965517241379315,1.7857142857142858,0,459465.8699963859,928614.1515110658,444702.2185704252,498294.6626703686,42679.06650634424,3.063105799975906e-06,0.0,0.0,0.0,3.063105799975906e-06,0.0,23.919610513077256,1.4996220517787746,0.0016857163612268497,0.0
9411,9.310344827586208,6.8965517241379315,2.142857142857143,0,190310.5773380778,786158.44250376,566894.4175054715,689198.4998006249,209488.43335385367,1.268737182253852e-06,0.0,0.0,0.0,1.268737182253852e-06,0.0,23.470531311387905,1.8180013047807486,0.01122964745910782,0.0
9412,9.310344827586208,6.8965517241379315,2.5,0,1090773.3744810708,1656979.6951021021,975672.0542548759,398910.22276861855,935027.350825783,7.271822496540472e-06,0.0,0.0,0.0,7.271822496540472e-06,0.0,24.32782942010063,2.127908619711215,0.09350273508257831,0.0
9413,9.310344827586208,6.8965517241379315,2.857142857142857,0,429287.6951671835,1164403.7505354674,774834.5976076735,704167.0474323335,264354.67434507556,2.8619179677812237e-06,0.0,0.0,0.0,2.8619179677812237e-06,0.0,23.029639319449785,2.4251441619236056,0.01417075754272351,0.0
9414,9.310344827586208,6.8965517241379315,3.2142857142857144,0,272974.33161668794,753576.8658189257,714468.9671785068,463157.7933847842,112446.5883341573,1.8198288774445862e-06,0.0,0.0,0.0,1.8198288774445862e-06,0.0,23.90617020242187,2.7139077660644895,0.0044413589432855125,0.0
9415,9.310344827586208,6.8965517241379315,3.5714285714285716,0,460483.5808708798,674289.5146944056,608945.6008047278,184624.38718806708,53897.95858755964,3.0698905391391986e-06,0.0,0.0,0.0,3.0698905391391986e-06,0.0,23.24714005988472,3.002501324460034,0.0018976237305727887,0.0
9416,9.310344827586208,6.8965517241379315,3.928571428571429,0,371590.36430683784,556538.6744849648,196236.7442950968,174604.9346747937,95625.2945947516,2.477269095378919e-06,0.0,0.0,0.0,2.477269095378919e-06,0.0,23.585030220870852,3.2961597401604164,0.0032420118356634984,0.0
9417,9.310344827586208,6.8965517241379315,4.285714285714286,0,175292.95986384279,481160.3807849157,310535.47925242,301545.337209157,-23461.457902157148,1.1686197324256185e-06,0.0,0.0,0.0,1.1686197324256185e-06,0.0,23.250982257828817,3.595038158716709,-0.0007861146918668212,0.0
9418,9.310344827586208,6.8965517241379315,4.642857142857143,0,185133.06779378955,464512.6178777676,309396.2378734644,259563.55582620134,-36302.4441672392,1.234220451958597e-06,0.0,0.0,0.0,1.234220451958597e-06,0.0,23.532266365500806,3.8969647594111656,-0.0012119945876292936,0.0
9419,9.310344827586208,6.8965517241379315,5.0,0,192818.37462587235,476569.74972451816,295781.8962750613,273633.6547817545,-18127.868422448995,1.285455830839149e-06,0.0,0.0,0.0,1.285455830839149e-06,0.0,23.1856748395912,4.200102137663764,-0.0006045527731643869,0.0
9420,9.655172413793103,6.8965517241379315,0.0,0,189517.40649557454,400348.7542161324,210200.98845353306,399081.682102642,-25602.668867001157,1.2634493766371636e-06,0.0,0.0,0.0,1.2634493766371636e-06,0.0,23.063388494266743,-0.0499039923898561,-0.0008538325689074055,0.0
9421,9.655172413793103,6.8965517241379315,0.35714285714285715,0,207186.01483624615,430456.64701130445,224834.6485047214,221741.25671899944,-81985.03340881318,1.3812400989083077e-06,0.0,0.0,0.0,1.3812400989083077e-06,0.0,24.050421971846543,0.2540754358582593,-0.002737155005330461,0.0
9422,9.655172413793103,6.8965517241379315,0.7142857142857143,0,141746.7525813437,357844.74984052114,326644.2428551995,203096.95544163074,71416.92044802109,9.449783505422913e-07,0.0,0.0,0.0,9.449783505422913e-07,0.0,22.878559387957125,0.5591929737467328,0.002392941250548264,0.0
9423,9.655172413793103,6.8965517241379315,1.0714285714285714,0,166150.19808382803,419890.99528953765,229844.3630950819,302116.9315792261,-18517.885167574357,1.1076679872255202e-06,0.0,0.0,0.0,1.1076679872255202e-06,0.0,23.902988480757955,0.8671757493113467,-0.0006278171809996039,0.0
9424,9.655172413793103,6.8965517241379315,1.4285714285714286,0,89745.5305975537,484445.1321016012,382597.97467567044,416949.6598507898,-1776.1234753040944,5.983035373170247e-07,0.0,0.0,0.0,5.983035373170247e-07,0.0,24.00865969570876,1.1800652358841561,-6.253324139705726e-05,0.0
9425,9.655172413793103,6.8965517241379315,1.7857142857142858,0,390140.0511858021,653719.1661045,487373.1551580792,207977.52847880978,125872.15957743846,2.600933674572014e-06,0.0,0.0,0.0,2.600933674572014e-06,0.0,23.95268639483609,1.4977155993718982,0.004971635422042413,0.0
9426,9.655172413793103,6.8965517241379315,2.142857142857143,0,642762.0847529307,1139871.1730483794,808103.1181374292,399017.08906701254,572261.0973471373,4.285080565019538e-06,0.0,0.0,0.0,4.285080565019538e-06,0.0,23.578899339338975,1.8152061228454521,0.030676110727868584,0.0
9427,9.655172413793103,6.8965517241379315,2.5,0,838651.4506402583,1220900.7795857338,664938.9880028745,256249.56960707167,601757.6664282352,5.591009670935055e-06,0.0,0.0,0.0,5.591009670935055e-06,0.0,23.050906882298083,2.1247331733202994,0.06017576664282353,0.0
9428,9.655172413793103,6.8965517241379315,2.857142857142857,0,610017.379365718,1220974.9384832247,811611.737799152,519868.5899945161,458148.8942879538,4.066782529104787e-06,0.0,0.0,0.0,4.066782529104787e-06,0.0,22.829074727939755,2.422348979988309,0.024559115194410015,0.0
9429,9.655172413793103,6.8965517241379315,3.2142857142857144,0,99748.53904772576,505889.63009642716,392266.04335649015,432736.73993280134,-12162.976611713922,6.649902603181717e-07,0.0,0.0,0.0,6.649902603181717e-07,0.0,23.016381344695866,2.7120013136576127,-0.0004804071493114276,0.0
9430,9.655172413793103,6.8965517241379315,3.5714285714285716,0,354751.2177402922,510926.9201507147,382746.8240757305,109900.93797161744,24013.74948443599,2.3650081182686147e-06,0.0,0.0,0.0,2.3650081182686147e-06,0.0,23.024243269927048,3.0014938073127277,0.0008454691434679633,0.0
9431,9.655172413793103,6.8965517241379315,3.928571428571429,0,168145.3647894276,461690.74130365864,435405.2224160611,281950.66098471195,13433.708867432351,1.120969098596184e-06,0.0,0.0,0.0,1.120969098596184e-06,0.0,23.753388924423266,3.295747177882776,0.00045544689121892383,0.0
9432,9.655172413793103,6.8965517241379315,4.285714285714286,0,244220.55755797587,409516.0045052205,328441.3107940451,135068.73639006345,-20647.63367477888,1.6281370503865059e-06,0.0,0.0,0.0,1.6281370503865059e-06,0.0,22.9128571059944,3.5949072594610185,-0.0006918328882935879,0.0
9433,9.655172413793103,6.8965517241379315,4.642857142857143,0,260215.05743676296,420246.36712009454,332696.31184311496,127547.4214211536,10161.284473132524,1.7347670495784196e-06,0.0,0.0,0.0,1.7347670495784196e-06,0.0,23.52199397927726,3.8969325787154023,0.0003392449755741828,0.0
9434,9.655172413793103,6.8965517241379315,5.0,0,93437.31286339796,297197.73364751984,375741.26766385604,272409.24477654713,10956.958265471105,6.229154190893198e-07,0.0,0.0,0.0,6.229154190893198e-07,0.0,23.65017801556753,4.200096007610144,0.0003654075234037982,0.0
9435,10.0,6.8965517241379315,0.0,0,329555.3499418423,480425.8082695578,188031.1736922001,123312.01005046364,-3662.9139643169697,2.1970356662789486e-06,0.0,0.0,0.0,2.1970356662789486e-06,0.0,23.320579865941884,-0.04991018770100537,-0.00012215582899135049,0.0
9436,10.0,6.8965517241379315,0.35714285714285715,0,435174.41121489217,506637.61010003946,468181.0242379392,53511.18807749248,-9177.066991260248,2.9011627414326146e-06,0.0,0.0,0.0,2.9011627414326146e-06,0.0,23.34157831489682,0.25404291258266964,-0.00030638585855208923,0.0
9437,10.0,6.8965517241379315,0.7142857142857143,0,261980.40415826387,494389.6720928149,219984.13723118702,246914.81394587626,-61386.94227750236,1.7465360277217592e-06,0.0,0.0,0.0,1.7465360277217592e-06,0.0,24.11976633939511,0.5590606810020822,-0.002056870353682843,0.0
9438,10.0,6.8965517241379315,1.0714285714285714,0,337191.89289396483,559897.9361368774,406072.85761853267,173224.59150114705,-50267.2801051924,2.247945952626432e-06,0.0,0.0,0.0,2.247945952626432e-06,0.0,23.736172550706417,0.8667587950990354,-0.0017042260391278371,0.0
9439,10.0,6.8965517241379315,1.4285714285714286,0,187017.69103572692,560454.1076359118,457595.80883125897,344584.2560470702,-26318.787866031642,1.246784606904846e-06,0.0,0.0,0.0,1.246784606904846e-06,0.0,23.842573048577215,1.179046993205869,-0.0009266242678441693,0.0
9440,10.0,6.8965517241379315,1.7857142857142858,0,427659.18176103994,845618.3262515734,400967.9813132281,437263.7775963259,3448.8196930417907,2.8510612117402663e-06,0.0,0.0,0.0,2.8510612117402663e-06,0.0,23.30998051090305,1.4957888518123204,0.00013621975032227328,0.0
9441,10.0,6.8965517241379315,2.142857142857143,0,1055347.8662643777,1179096.0721613488,1031093.1679366793,57559.19149083296,365696.5277515481,7.0356524417625185e-06,0.0,0.0,0.0,7.0356524417625185e-06,0.0,23.89278455970073,1.8123811847809177,0.019603197264514653,0.0
9442,10.0,6.8965517241379315,2.5,0,569106.0063437078,1530348.6223506306,1075691.0243315985,892110.4685204223,766020.8817061563,3.7940400422913855e-06,0.0,0.0,0.0,3.7940400422913855e-06,0.0,23.65710743476037,2.1215239226921696,0.07660208817061563,0.0
9443,10.0,6.8965517241379315,2.857142857142857,0,406452.97870002623,782719.9513472368,1232581.6148360318,891795.7586583169,441336.8753535613,2.7096865246668414e-06,0.0,0.0,0.0,2.7096865246668414e-06,0.0,23.615079352317355,2.4195240419237747,0.02365790531524606,0.0
9444,10.0,6.8965517241379315,3.2142857142857144,0,144660.28489403758,633813.6997293691,570062.1472467711,468227.77917333227,124638.7090752422,9.64401899293584e-07,0.0,0.0,0.0,9.64401899293584e-07,0.0,23.319043499414473,2.7100745660980348,0.004922917212800261,0.0
9445,10.0,6.8965517241379315,3.5714285714285716,0,362625.59643615567,709724.8788636689,365422.474689812,331202.13307278353,15223.883995751461,2.417503976241038e-06,0.0,0.0,0.0,2.417503976241038e-06,0.0,23.637858808195446,3.0004755646344408,0.00053599810269054,0.0
9446,10.0,6.8965517241379315,3.928571428571429,0,100256.09891628892,235462.9921006606,276784.87254753674,162472.11964989966,5814.196260028808,6.683739927752594e-07,0.0,0.0,0.0,6.683739927752594e-07,0.0,24.578349643759697,3.2953302236704647,0.0001971203662144682,0.0
9447,10.0,6.8965517241379315,4.285714285714286,0,290339.5703509513,437358.6108604569,158088.85329614213,137089.46427079948,24143.166569672045,1.9355971356730084e-06,0.0,0.0,0.0,1.9355971356730084e-06,0.0,23.830713710077035,3.594774966716368,0.0008089564607518289,0.0
9448,10.0,6.8965517241379315,4.642857142857143,0,320718.1857943604,553704.8165309065,285431.66563895665,198474.8398217895,-41126.20659716145,2.1381212386290694e-06,0.0,0.0,0.0,2.1381212386290694e-06,0.0,24.388221202919393,3.8969000554398128,-0.0013730408777948276,0.0
9449,10.0,6.8965517241379315,5.0,0,166246.29938368037,440088.5441422198,289171.70550977864,261888.1522847804,-37367.109663593554,1.1083086625578692e-06,0.0,0.0,0.0,1.1083086625578692e-06,0.0,22.59492726847317,4.2000898122989945,-0.0012461691162921284,0.0
9450,0.0,7.241379310344828,0.0,0,132075.25790501863,412127.4537071281,337421.3700151304,259630.48216776524,-16736.761760878464,8.805017193667909e-07,0.0,0.0,0.0,8.805017193667909e-07,0.0,23.470608723370308,-0.04991273181431152,-0.0005581602591400434,0.0
9451,0.0,7.241379310344828,0.35714285714285715,0,299602.8335590809,460152.1330558188,186315.06510452952,140143.99522864167,-31272.46303649022,1.997352223727206e-06,0.0,0.0,0.0,1.997352223727206e-06,0.0,23.84967930866533,0.25402955685344253,-0.0010440634731770386,0.0
9452,0.0,7.241379310344828,0.7142857142857143,0,249011.41771066733,418194.9202178465,293471.87381635205,131468.05338639408,-78877.27117509322,1.6600761180711156e-06,0.0,0.0,0.0,1.6600761180711156e-06,0.0,23.63726782125232,0.5590063547989481,-0.002642912558277248,0.0
9453,0.0,7.241379310344828,1.0714285714285714,0,382678.7394100294,466449.6706479826,377941.3639832694,47271.88864578876,26999.250962495433,2.5511915960668625e-06,0.0,0.0,0.0,2.5511915960668625e-06,0.0,23.706172901069355,0.8665875722606593,0.00091536336222972,0.0
9454,0.0,7.241379310344828,1.4285714285714286,0,172806.8951895707,465106.8075229032,449902.5722167785,285200.17325281695,-47011.42019806052,1.1520459679304713e-06,0.0,0.0,0.0,1.1520459679304713e-06,0.0,23.259024465898047,1.1786288504065299,-0.0016551644795756587,0.0
9455,0.0,7.241379310344828,1.7857142857142858,0,692022.4082634053,942855.9297923995,253157.70342620942,248532.52435137317,221100.1103332172,4.613482721756036e-06,0.0,0.0,0.0,4.613482721756036e-06,0.0,24.06378228411694,1.4949976301955474,0.00873290125505351,0.0
9456,0.0,7.241379310344828,2.142857142857143,0,936205.785557828,1468873.7694998337,961922.0765810155,388517.4850706972,450154.51849490055,6.2413719037188535e-06,0.0,0.0,0.0,6.2413719037188535e-06,0.0,22.662481366343325,1.811221119959975,0.02413057591720814,0.0
9457,0.0,7.241379310344828,2.5,0,386383.7702701344,1309458.11004712,875398.9855110879,1003058.9487343275,574232.0292773565,2.575891801800896e-06,0.0,0.0,0.0,2.575891801800896e-06,0.0,23.392805561648856,2.12020603937217,0.057423202927735645,0.0
9458,0.0,7.241379310344828,2.857142857142857,0,206642.86926592464,826338.4697631596,758072.5111072946,594200.201149686,507503.59781731525,1.3776191284394975e-06,0.0,0.0,0.0,1.3776191284394975e-06,0.0,23.53443659726075,2.418363977102832,0.027204778786477344,0.0
9459,0.0,7.241379310344828,3.2142857142857144,0,452720.7821246341,690881.6413203686,175258.71295777976,358532.5800646324,83860.2203581597,3.0181385474975604e-06,0.0,0.0,0.0,3.0181385474975604e-06,0.0,23.190667294951453,2.709283344481262,0.0033122689197718253,0.0
9460,0.0,7.241379310344828,3.5714285714285716,0,224146.42747095865,518915.30807895336,538047.0134624515,304947.9320667064,22448.26464818759,1.4943095164730576e-06,0.0,0.0,0.0,1.4943095164730576e-06,0.0,23.495775520480667,3.0000574218351015,0.0007903520063264743,0.0
9461,0.0,7.241379310344828,3.928571428571429,0,182595.75254566205,510461.8612758086,340904.97666876804,317152.0594051904,-22769.53558374309,1.2173050169710802e-06,0.0,0.0,0.0,1.2173050169710802e-06,0.0,22.50416728534681,3.2951590008320886,-0.0007719621065523792,0.0
9462,0.0,7.241379310344828,4.285714285714286,0,282001.58577986585,359257.9658424899,177158.2829263795,34424.734269251196,-41897.34643075551,1.8800105718657724e-06,0.0,0.0,0.0,1.8800105718657724e-06,0.0,22.843079264716046,3.5947206405132337,-0.0014038394253590926,0.0
9463,0.0,7.241379310344828,4.642857142857143,0,236533.90364055475,379541.61430894,347638.0736602266,128675.1559763701,-65544.05663859942,1.5768926909370317e-06,0.0,0.0,0.0,1.5768926909370317e-06,0.0,24.131131147623005,3.8968866997105858,-0.0021882560174540364,0.0
9464,0.0,7.241379310344828,5.0,0,291302.48562166514,494256.0167642009,344813.69493929436,158560.94438731368,-57491.74381443831,1.942016570811101e-06,0.0,0.0,0.0,1.942016570811101e-06,0.0,23.622452092242238,4.200087268185689,-0.0019173127445052186,0.0
9465,0.3448275862068966,7.241379310344828,0.0,0,373141.40842261945,499565.71902587055,397248.25420180405,85939.24601669388,-57540.51751948634,2.4876093894841295e-06,0.0,0.0,0.0,2.4876093894841295e-06,0.0,23.334410193274913,-0.04990669465504395,-0.001918939316254149,0.0
9466,0.3448275862068966,7.241379310344828,0.35714285714285715,0,192948.9100451402,368373.14024838136,268413.88819365687,145953.98037189667,-15034.747917749908,1.2863260669676013e-06,0.0,0.0,0.0,1.2863260669676013e-06,0.0,24.018424029250784,0.2540612498854642,-0.0005019505854409655,0.0
9467,0.3448275862068966,7.241379310344828,0.7142857142857143,0,265310.0128358282,309486.2858420356,296421.85950460855,37885.414616012786,-2172.0059634472814,1.7687334189055212e-06,0.0,0.0,0.0,1.7687334189055212e-06,0.0,24.226872514508184,0.559135270417576,-7.277662819629243e-05,0.0
9468,0.3448275862068966,7.241379310344828,1.0714285714285714,0,469106.8293136797,720358.4363043237,248451.61008465025,254102.6614302401,-66985.73849614919,3.127378862091198e-06,0.0,0.0,0.0,3.127378862091198e-06,0.0,24.442879360352165,0.8669938826018773,-0.0022710367371468997,0.0
9469,0.3448275862068966,7.241379310344828,1.4285714285714286,0,379304.3052810496,584418.4457991051,414108.7277745952,149810.14787896274,51960.16632532026,2.5286953685403305e-06,0.0,0.0,0.0,2.5286953685403305e-06,0.0,22.59927061530428,1.1796210997179455,0.0018293985013041884,0.0
9470,0.3448275862068966,7.241379310344828,1.7857142857142858,0,335497.9520923256,685130.6729140722,393231.68591416464,318602.1416533528,86492.70335823615,2.2366530139488372e-06,0.0,0.0,0.0,2.2366530139488372e-06,0.0,24.23891950770578,1.4968751923720598,0.003416245412866415,0.0
9471,0.3448275862068966,7.241379310344828,2.142857142857143,0,766182.0524020484,1258733.9867064701,559126.5893399706,439945.15543843387,664722.010069146,5.107880349346989e-06,0.0,0.0,0.0,5.107880349346989e-06,0.0,22.971736785900646,1.8139739439272835,0.035632486776858666,0.0
9472,0.3448275862068966,7.241379310344828,2.5,0,511661.1047164394,1230345.2930962986,866117.6454879239,645365.7948820179,676917.4688988045,3.4110740314429294e-06,0.0,0.0,0.0,3.4110740314429294e-06,0.0,23.70778200270488,2.123333365297339,0.06769174688988044,0.0
9473,0.3448275862068966,7.241379310344828,2.857142857142857,0,1178947.3569676117,1258331.9861387922,487735.10091773013,-98847.21091984262,643902.7604243151,7.859649046450744e-06,0.0,0.0,0.0,7.859649046450744e-06,0.0,23.86735355583457,2.4211168010701405,0.03451646891309575,0.0
9474,0.3448275862068966,7.241379310344828,3.2142857142857144,0,388085.24168296566,746854.2875369838,738565.259531824,354690.9288590801,130233.7203689144,2.5872349445531046e-06,0.0,0.0,0.0,2.5872349445531046e-06,0.0,24.370863303722658,2.711160906657774,0.00514390616244353,0.0
9475,0.3448275862068966,7.241379310344828,3.5714285714285716,0,358365.05553478695,514486.7169162746,548439.8980124842,174306.62035277442,-92647.2937669418,2.389100370231913e-06,0.0,0.0,0.0,2.389100370231913e-06,0.0,23.805803191708037,3.001049671146517,-0.003261899111445686,0.0
9476,0.3448275862068966,7.241379310344828,3.928571428571429,0,193884.2591549714,424906.12024139555,264905.33199615154,209292.6118239254,-51489.67745897985,1.2925617276998094e-06,0.0,0.0,0.0,1.2925617276998094e-06,0.0,23.71538851064392,3.2955653111733065,-0.0017456693278063973,0.0
9477,0.3448275862068966,7.241379310344828,4.285714285714286,0,199795.9007701015,299850.5153691471,178377.0328171187,69256.34345776806,13423.839421000372,1.3319726718006765e-06,0.0,0.0,0.0,1.3319726718006765e-06,0.0,23.16173130942692,3.594849556131862,0.0004497877938411976,0.0
9478,0.3448275862068966,7.241379310344828,4.642857142857143,0,337137.32350130775,583730.204964597,322788.12695827044,203072.23816157732,-73515.93303571001,2.247582156675385e-06,0.0,0.0,0.0,2.247582156675385e-06,0.0,22.741535861926973,3.8969183927426077,-0.0024544053434343246,0.0
9479,0.3448275862068966,7.241379310344828,5.0,0,78438.26652367155,341387.7165996621,253857.76549115014,277462.3243968181,-37695.40246354806,5.22921776824477e-07,0.0,0.0,0.0,5.22921776824477e-07,0.0,23.158154332745713,4.200093305344956,-0.0012571174703951743,0.0
9480,0.6896551724137931,7.241379310344828,0.0,0,171708.70616707613,289090.8399709181,371268.20009151945,173913.59000717918,-63232.58164226009,1.1447247077805076e-06,0.0,0.0,0.0,1.1447247077805076e-06,0.0,24.315221199735895,-0.04990074139236876,-0.0021087660002448035,0.0
9481,0.6896551724137931,7.241379310344828,0.35714285714285715,0,242435.3283865076,380275.07421854563,215500.38320643478,101898.27912075499,84946.25822551522,1.6162355225767174e-06,0.0,0.0,0.0,1.6162355225767174e-06,0.0,23.633061640441124,0.2540925024889215,0.0028360185538580085,0.0
9482,0.6896551724137931,7.241379310344828,0.7142857142857143,0,216363.976698568,321831.9188100981,322308.86870655377,105706.81132839,43780.612828143836,1.4424265113237867e-06,0.0,0.0,0.0,1.4424265113237867e-06,0.0,24.45201562044408,0.5592623945345012,0.0014669413600240282,0.0
9483,0.6896551724137931,7.241379310344828,1.0714285714285714,0,169096.32994527597,406262.791973597,296715.0174711042,211513.79040868103,-13652.43883197133,1.1273088663018397e-06,0.0,0.0,0.0,1.1273088663018397e-06,0.0,23.26741170541551,0.8673945465700962,-0.0004628625560475114,0.0
9484,0.6896551724137931,7.241379310344828,1.4285714285714286,0,286151.9667148643,542674.259185533,269415.22778745904,245171.89191008918,78146.34008270793,1.9076797780990953e-06,0.0,0.0,0.0,1.9076797780990953e-06,0.0,24.023547991430036,1.1805995600381587,0.0027513537299831223,0.0
9485,0.6896551724137931,7.241379310344828,1.7857142857142858,0,434796.7857181014,819404.1734872743,511168.9082875428,322078.8620161004,157946.0325225846,2.898645238120676e-06,0.0,0.0,0.0,2.898645238120676e-06,0.0,23.71947722603854,1.4987266626299025,0.006238473167509665,0.0
9486,0.6896551724137931,7.241379310344828,2.142857142857143,0,682804.4645732436,1177462.0871453397,886637.1173070895,397394.1330698466,514538.31478746753,4.552029763821624e-06,0.0,0.0,0.0,4.552029763821624e-06,0.0,24.287959005963863,1.8166885127252215,0.027581875460907936,0.0
9487,0.6896551724137931,7.241379310344828,2.5,0,515131.5134402449,1118486.9073203024,854607.7243890857,524880.4351377616,620750.7749119932,3.4342100896016324e-06,0.0,0.0,0.0,3.4342100896016324e-06,0.0,23.533406199407846,2.126417231711706,0.06207507749119931,0.0
9488,0.6896551724137931,7.241379310344828,2.857142857142857,0,546594.0372123134,1022524.2091644534,728437.2248065507,391848.96064653725,350594.61525210424,3.6439602480820893e-06,0.0,0.0,0.0,3.6439602480820893e-06,0.0,23.586048996292174,2.4238313698680787,0.018793657803972744,0.0
9489,0.6896551724137931,7.241379310344828,3.2142857142857144,0,464522.4209041653,739118.3961078337,359073.1376861041,221292.04409010836,-2953.8844071967615,3.096816139361102e-06,0.0,0.0,0.0,3.096816139361102e-06,0.0,24.263093786820146,2.713012376915617,-0.00011667104465942958,0.0
9490,0.6896551724137931,7.241379310344828,3.5714285714285716,0,161921.66248046656,309342.18696142937,443107.4259255358,263093.1556374647,571.7723842372761,1.0794777498697771e-06,0.0,0.0,0.0,1.0794777498697771e-06,0.0,22.614456121294857,3.0020281314667305,2.0130796661847455e-05,0.0
9491,0.6896551724137931,7.241379310344828,3.928571428571429,0,237074.1224378081,457354.4738629549,373114.99978586566,189664.51985180462,-33093.0824831041,1.5804941495853874e-06,0.0,0.0,0.0,1.5804941495853874e-06,0.0,23.59243686564472,3.2959659751415256,-0.0011219642830224588,0.0
9492,0.6896551724137931,7.241379310344828,4.285714285714286,0,31347.32381153931,282319.23002569913,246198.76807633063,262224.57491414814,-42793.33967782623,2.089821587435954e-07,0.0,0.0,0.0,2.089821587435954e-07,0.0,22.838201658631522,3.594976680248787,-0.00143386115113049,0.0
9493,0.6896551724137931,7.241379310344828,4.642857142857143,0,301913.42167835153,559262.5784609338,268155.70991676766,247593.80021263254,44945.286388418055,2.0127561445223434e-06,0.0,0.0,0.0,2.0127561445223434e-06,0.0,23.65874357669566,3.896949645346065,0.0015005448005445952,0.0
9494,0.6896551724137931,7.241379310344828,5.0,0,197973.1425858604,364978.3514004364,390292.68783849676,180879.95181172466,26670.04255121041,1.3198209505724027e-06,0.0,0.0,0.0,1.3198209505724027e-06,0.0,23.46801006921589,4.200099258607631,0.0008894287959846216,0.0
9495,1.0344827586206897,7.241379310344828,0.0,0,176858.45423148575,363521.7588191987,178655.4926218298,195940.36858947232,-33309.27577283597,1.1790563615432383e-06,0.0,0.0,0.0,1.1790563615432383e-06,0.0,23.9996621397527,-0.04989488906761649,-0.001110842961306361,0.0
9496,1.0344827586206897,7.241379310344828,0.35714285714285715,0,236075.53829183333,319432.61721086665,309917.9213816875,78743.5785418608,35696.01074619574,1.5738369219455557e-06,0.0,0.0,0.0,1.5738369219455557e-06,0.0,23.93638223386973,0.2541232252026275,0.0011917481816111149,0.0
9497,1.0344827586206897,7.241379310344828,0.7142857142857143,0,161319.15612509177,331037.74294965493,222815.37307153732,145626.10436939707,11702.053553036189,1.075461040833945e-06,0.0,0.0,0.0,1.075461040833945e-06,0.0,23.565206252731507,0.5593873632544591,0.0003920965296111574,0.0
9498,1.0344827586206897,7.241379310344828,1.0714285714285714,0,335315.4961379653,567699.0059318015,411922.05398252234,182830.66436123432,-12056.035804426268,2.2354366409197687e-06,0.0,0.0,0.0,2.2354366409197687e-06,0.0,23.23187653526107,0.8677884172568919,-0.0004087392455602233,0.0
9499,1.0344827586206897,7.241379310344828,1.4285714285714286,0,435209.51564911724,538763.5919697467,323187.8586622972,37843.877307932235,77837.45377246487,2.901396770994115e-06,0.0,0.0,0.0,2.901396770994115e-06,0.0,23.756641880064826,1.1815614305054185,0.0027404785501483593,0.0
9500,1.0344827586206897,7.241379310344828,1.7857142857142858,0,262931.5312665121,448325.688624898,618465.7150517016,315629.1555329323,88264.00789237762,1.7528768751100809e-06,0.0,0.0,0.0,1.7528768751100809e-06,0.0,24.374733871802015,1.5005467410993498,0.0034862075108770107,0.0
9501,1.0344827586206897,7.241379310344828,2.142857142857143,0,932241.235405064,1251985.1395866664,527162.5505305725,200336.6712315865,534071.5230568276,6.214941569367093e-06,0.0,0.0,0.0,6.214941569367093e-06,0.0,23.23680764856324,1.8193570558476566,0.028628954954025967,0.0
9502,1.0344827586206897,7.241379310344828,2.5,0,1040109.4644337548,1402681.110509934,509926.1659494081,260552.8533025382,717496.0479470214,6.934063096225032e-06,0.0,0.0,0.0,6.934063096225032e-06,0.0,22.98005466617369,2.1294488109875074,0.07174960479470215,0.0
9503,1.0344827586206897,7.241379310344828,2.857142857142857,0,542486.9947621467,908311.5765566987,628616.9736078526,283056.8829908171,425734.39564462024,3.6165799650809783e-06,0.0,0.0,0.0,3.6165799650809783e-06,0.0,22.814826059417225,2.4264999129905136,0.022821532901675434,0.0
9504,1.0344827586206897,7.241379310344828,3.2142857142857144,0,375829.3045106267,689443.0991797466,488845.7307469597,255875.47257249377,-1460.6267944237188,2.5055286967375115e-06,0.0,0.0,0.0,2.5055286967375115e-06,0.0,22.973829791660307,2.7148324553850642,-5.76911044818748e-05,0.0
9505,1.0344827586206897,7.241379310344828,3.5714285714285716,0,339082.356278907,452121.1262465368,271112.5772933909,60944.649456442625,-19563.145403069986,2.26054904185938e-06,0.0,0.0,0.0,2.26054904185938e-06,0.0,23.742258592023568,3.00299000193399,-0.000688773562753825,0.0
9506,1.0344827586206897,7.241379310344828,3.928571428571429,0,282864.2145968389,544167.6880987386,332335.13837422885,222943.74487003565,57123.22031189865,1.885761430645593e-06,0.0,0.0,0.0,1.885761430645593e-06,0.0,23.04791785279834,3.296359845828321,0.0019366649496581356,0.0
9507,1.0344827586206897,7.241379310344828,4.285714285714286,0,133144.25418156758,318438.68760522536,249227.01973462405,164943.40420323296,44014.69648505774,8.876283612104506e-07,0.0,0.0,0.0,8.876283612104506e-07,0.0,23.567878087664727,3.595101648968745,0.0014747847175252266,0.0
9508,1.0344827586206897,7.241379310344828,4.642857142857143,0,248537.70541674196,388579.1541714274,107116.75307715213,296378.1358978314,-13528.951010661705,1.656918036111613e-06,0.0,0.0,0.0,1.656918036111613e-06,0.0,23.99090869920162,3.8969803680597708,-0.00045167800067911633,0.0
9509,1.0344827586206897,7.241379310344828,5.0,0,155660.86019497723,345155.88100060046,305970.3316229683,173646.4418650552,-51070.55437974217,1.0377390679665148e-06,0.0,0.0,0.0,1.0377390679665148e-06,0.0,22.700544390131355,4.200105110932384,-0.0017031701994858531,0.0
9510,1.3793103448275863,7.241379310344828,0.0,0,70349.2906665675,257720.31369523672,189117.18850854578,185746.06725465774,59961.07510077477,4.6899527111045e-07,0.0,0.0,0.0,4.6899527111045e-07,0.0,24.27675228067161,-0.04988915924157275,0.0019996633575076602,0.0
9511,1.3793103448275863,7.241379310344828,0.35714285714285715,0,385614.0368845548,519713.80803943047,226801.05951983045,82827.10347919003,38541.26246940516,2.5707602458970317e-06,0.0,0.0,0.0,2.5707602458970317e-06,0.0,24.50180004019524,0.25415330483979365,0.0012867398486483648,0.0
9512,1.3793103448275863,7.241379310344828,0.7142857142857143,0,273481.6947205455,276825.3896514981,366337.4112337163,59316.389735078745,-41478.695820038134,1.82321129813697e-06,0.0,0.0,0.0,1.82321129813697e-06,0.0,24.725103866936994,0.5595097161751492,-0.001389811848845457,0.0
9513,1.3793103448275863,7.241379310344828,1.0714285714285714,0,196265.67782924598,389895.39143424924,393830.2898830519,195626.74885996644,-42504.237377113284,1.3084378521949731e-06,0.0,0.0,0.0,1.3084378521949731e-06,0.0,24.534573607755718,0.8681740435873838,-0.0014410333712061082,0.0
9514,1.3793103448275863,7.241379310344828,1.4285714285714286,0,191333.82542922386,282902.3939205245,253842.86876748299,78701.09749722293,85030.0953251099,1.2755588361948257e-06,0.0,0.0,0.0,1.2755588361948257e-06,0.0,25.008631705881548,1.182503167453947,0.0029937149927425598,0.0
9515,1.3793103448275863,7.241379310344828,1.7857142857142858,0,218451.7738395709,572067.5556643845,507021.34214478807,328480.6669008343,33928.58018699874,1.4563451589304727e-06,0.0,0.0,0.0,1.4563451589304727e-06,0.0,23.922042227324432,1.5023287223559145,0.0013400940417925735,0.0
9516,1.3793103448275863,7.241379310344828,2.142857142857143,0,404449.8428632804,998824.1670244798,543024.0515366908,682808.4668944527,302281.02455828106,2.6963322857552028e-06,0.0,0.0,0.0,2.6963322857552028e-06,0.0,24.214752049729107,1.8219697420072585,0.01620380316479638,0.0
9517,1.3793103448275863,7.241379310344828,2.5,0,242767.93079138894,905008.4418223776,696460.3128204437,638509.1430387099,551583.8011892168,1.618452871942593e-06,0.0,0.0,0.0,1.618452871942593e-06,0.0,23.690896215981148,2.1324169343612813,0.055158380118921685,0.0
9518,1.3793103448275863,7.241379310344828,2.857142857142857,0,528375.0007362718,1029189.3754225913,533168.2190735006,473522.4943000348,380141.191528058,3.522500004908479e-06,0.0,0.0,0.0,3.522500004908479e-06,0.0,24.152614429655554,2.4291125991501157,0.02037750484454968,0.0
9519,1.3793103448275863,7.241379310344828,3.2142857142857144,0,340925.8457356613,588235.0776286386,220780.4703635881,282183.3447501874,-21566.834435595374,2.2728389715710752e-06,0.0,0.0,0.0,2.2728389715710752e-06,0.0,23.894694575568263,2.716614436641629,-0.0008518360087034588,0.0
9520,1.3793103448275863,7.241379310344828,3.5714285714285716,0,342519.952752673,534686.1024541052,312045.50617893774,140269.89883328808,15766.771471124204,2.2834663516844867e-06,0.0,0.0,0.0,2.2834663516844867e-06,0.0,22.999191989782638,3.003931738882519,0.0005551119278389353,0.0
9521,1.3793103448275863,7.241379310344828,3.928571428571429,0,290628.7315463146,475164.72723764385,282940.93370357,140824.85247526923,-52295.78692415133,1.9375248769754305e-06,0.0,0.0,0.0,1.9375248769754305e-06,0.0,23.08328351772996,3.296745472158813,-0.0017729990885982636,0.0
9522,1.3793103448275863,7.241379310344828,4.285714285714286,0,187141.25073485202,319948.2527458206,205094.19907433193,104002.27596078836,-50732.16517991944,1.2476083382323467e-06,0.0,0.0,0.0,1.2476083382323467e-06,0.0,24.744654769520093,3.5952240018894353,-0.0016998645422832903,0.0
9523,1.3793103448275863,7.241379310344828,4.642857142857143,0,301294.8641005178,366877.20838843094,331543.19172919594,49473.272765239606,-49344.71200340787,2.0086324273367855e-06,0.0,0.0,0.0,2.0086324273367855e-06,0.0,23.922465979739393,3.8970104476969367,-0.0016474241679359845,0.0
9524,1.3793103448275863,7.241379310344828,5.0,0,200883.5473756995,374515.44194691256,221374.63194411775,147063.8955128933,-47945.57567921593,1.33922364917133e-06,0.0,0.0,0.0,1.33922364917133e-06,0.0,24.5597925830843,4.200110840758428,-0.0015989541661687071,0.0
9525,1.7241379310344829,7.241379310344828,0.0,0,183957.56773323956,391183.5189142234,199289.18694687547,216351.55879737466,25143.210350211524,1.2263837848882636e-06,0.0,0.0,0.0,1.2263837848882636e-06,0.0,23.582536082684456,-0.04988357939967609,0.0008385099223608765,0.0
9526,1.7241379310344829,7.241379310344828,0.35714285714285715,0,271834.74429238384,349138.6243423355,280355.13860318734,49519.14485442615,25159.61504903936,1.8122316286158922e-06,0.0,0.0,0.0,1.8122316286158922e-06,0.0,23.424428670452972,0.2541825971112195,0.0008399797304499578,0.0
9527,1.7241379310344829,7.241379310344828,0.7142857142857143,0,195945.8286763198,362534.85495187005,136718.14236811624,237384.07185606967,-5677.491561977625,1.3063055245087987e-06,0.0,0.0,0.0,1.3063055245087987e-06,0.0,23.832485538351822,0.5596288663810778,-0.00019023368234120504,0.0
9528,1.7241379310344829,7.241379310344828,1.0714285714285714,0,100582.91820266261,342300.04045821645,317119.0480845792,231519.10862987195,-22494.019964951556,6.705527880177507e-07,0.0,0.0,0.0,6.705527880177507e-07,0.0,24.27272030603664,0.8685495757482053,-0.0007626212213732257,0.0
9529,1.7241379310344829,7.241379310344828,1.4285714285714286,0,204420.41862164487,427781.9242111797,259068.21052265403,200458.39411920446,63035.17912334688,1.3628027908109657e-06,0.0,0.0,0.0,1.3628027908109657e-06,0.0,24.58090658165306,1.183420253459862,0.0022193243473413978,0.0
9530,1.7241379310344829,7.241379310344828,1.7857142857142858,0,404214.1859312579,754474.0977141567,537802.8304150905,288117.12454233767,104714.92707046145,2.694761239541719e-06,0.0,0.0,0.0,2.694761239541719e-06,0.0,23.98271159184903,1.5040640584025158,0.004135977664860912,0.0
9531,1.7241379310344829,7.241379310344828,2.142857142857143,0,618292.1769024285,1002128.3811711023,849849.5838072725,321924.7541791399,230110.2418932571,4.12194784601619e-06,0.0,0.0,0.0,4.12194784601619e-06,0.0,24.22116101634417,1.8245140383933798,0.012335081473574662,0.0
9532,1.7241379310344829,7.241379310344828,2.5,0,664182.4812472361,1190647.0857193754,864627.363219736,426453.62206370267,639107.1970626295,4.427883208314908e-06,0.0,0.0,0.0,4.427883208314908e-06,0.0,23.827243664994928,2.135307364023375,0.06391071970626296,0.0
9533,1.7241379310344829,7.241379310344828,2.857142857142857,0,664889.8464410332,1015792.8876059875,477100.2724580252,272699.59303455026,361246.916486882,4.432598976273555e-06,0.0,0.0,0.0,4.432598976273555e-06,0.0,24.631715279317547,2.4316568955362365,0.01936467542809482,0.0
9534,1.7241379310344829,7.241379310344828,3.2142857142857144,0,324929.8729504057,580558.9823497701,269443.52704387135,243384.0681810087,106129.20095863115,2.1661991530027045e-06,0.0,0.0,0.0,2.1661991530027045e-06,0.0,24.64405289229249,2.71834977268823,0.004191837945501989,0.0
9535,1.7241379310344829,7.241379310344828,3.5714285714285716,0,268999.66018733167,444807.69747280324,172771.24716383603,178951.32515666098,120204.3271404747,1.7933310679155446e-06,0.0,0.0,0.0,1.7933310679155446e-06,0.0,23.52064934483603,3.0048488248884335,0.004232119168831537,0.0
9536,1.7241379310344829,7.241379310344828,3.928571428571429,0,50768.309780640964,281723.7170239064,331240.52140865894,279307.02325279545,-29217.91860588816,3.384553985376064e-07,0.0,0.0,0.0,3.384553985376064e-07,0.0,24.109546090642027,3.2971210043196346,-0.0009905834887638729,0.0
9537,1.7241379310344829,7.241379310344828,4.285714285714286,0,235756.5657626728,437874.5473366641,235058.3170442124,179207.5982647129,19368.032415651498,1.5717104384178188e-06,0.0,0.0,0.0,1.5717104384178188e-06,0.0,23.424954864240647,3.5953431520953636,0.0006489577458482059,0.0
9538,1.7241379310344829,7.241379310344828,4.642857142857143,0,67539.59963072432,154366.8083811674,201973.7851919315,124674.6956825048,52082.05750414885,4.502639975381621e-07,0.0,0.0,0.0,4.502639975381621e-07,0.0,24.335612743351927,3.8970397399683625,0.001738813274302642,0.0
9539,1.7241379310344829,7.241379310344828,5.0,0,181590.8440340522,342001.6230973519,234453.11656376044,132342.0796528265,59806.61699902438,1.2106056268936814e-06,0.0,0.0,0.0,1.2106056268936814e-06,0.0,23.735032849139035,4.200116420600324,0.0019945122789817777,0.0
9540,2.0689655172413794,7.241379310344828,0.0,0,289791.005969649,414601.7088447714,309259.98223541095,86874.1829828642,6094.889535621658,1.93194003979766e-06,0.0,0.0,0.0,1.93194003979766e-06,0.0,23.547127568572826,-0.04987818479782313,0.00020326065288115604,0.0
9541,2.0689655172413794,7.241379310344828,0.35714285714285715,0,173339.4073019199,245541.5290016612,288935.68493128737,98021.99859972042,-44151.35650661596,1.1555960486794662e-06,0.0,0.0,0.0,1.1555960486794662e-06,0.0,22.93049672617275,0.25421091693544345,-0.001474038631558605,0.0
9542,2.0689655172413794,7.241379310344828,0.7142857142857143,0,146765.476069457,365801.63502832473,266809.3909951921,197181.59987145773,-60791.83460091162,9.784365071297134e-07,0.0,0.0,0.0,9.784365071297134e-07,0.0,24.496736747110496,0.559744061028809,-0.0020369302932756127,0.0
9543,2.0689655172413794,7.241379310344828,1.0714285714285714,0,190330.90442658984,301454.9535689274,288798.0549991372,105111.49074881394,29064.747126706694,1.2688726961772657e-06,0.0,0.0,0.0,1.2688726961772657e-06,0.0,24.056376192903457,0.868912640961903,0.0009853904720992252,0.0
9544,2.0689655172413794,7.241379310344828,1.4285714285714286,0,234639.05697357195,375624.99417422415,298489.74223075353,112128.26439828983,18988.442939186014,1.564260379823813e-06,0.0,0.0,0.0,1.564260379823813e-06,0.0,24.090243516614137,1.1843068939701935,0.0006685396046955955,0.0
9545,2.0689655172413794,7.241379310344828,1.7857142857142858,0,456888.3455731244,690830.0511339534,441749.0814619003,163529.13722008275,68636.1274873649,3.0459223038208296e-06,0.0,0.0,0.0,3.0459223038208296e-06,0.0,24.38534580485278,1.5057417846223378,0.002710955335902297,0.0
9546,2.0689655172413794,7.241379310344828,2.142857142857143,0,591423.1598340202,894791.6914435554,640535.9748765777,218758.67110307107,348949.08735117933,3.942821065560135e-06,0.0,0.0,0.0,3.942821065560135e-06,0.0,23.593259917429343,1.8269738690217785,0.018705449123829057,0.0
9547,2.0689655172413794,7.241379310344828,2.5,0,96129.19815539269,600670.6343902756,708888.3015833251,633389.6311835537,683432.528248913,6.408613210359512e-07,0.0,0.0,0.0,6.408613210359512e-07,0.0,23.51980806417046,2.138101836967185,0.0683432528248913,0.0
9548,2.0689655172413794,7.241379310344828,2.857142857142857,0,345255.1547866381,692616.6927922944,732174.2847606757,368844.15404615295,371645.5055825356,2.3017010319109208e-06,0.0,0.0,0.0,2.3017010319109208e-06,0.0,24.258300123201618,2.4341167261646355,0.01992209278879019,0.0
9549,2.0689655172413794,7.241379310344828,3.2142857142857144,0,428405.20550573594,694245.2874324896,448623.64637104806,199569.53552731784,83654.61465842581,2.856034703371573e-06,0.0,0.0,0.0,2.856034703371573e-06,0.0,24.567438540194136,2.720027498908052,0.0033041480089746928,0.0
9550,2.0689655172413794,7.241379310344828,3.5714285714285716,0,256799.52963655294,441950.3627198848,212443.7715603126,164590.05043328632,-18974.416237835314,1.7119968642436862e-06,0.0,0.0,0.0,1.7119968642436862e-06,0.0,24.259172189089632,3.005735465398765,-0.000668045756653067,0.0
9551,2.0689655172413794,7.241379310344828,3.928571428571429,0,275683.8105496359,470976.82274692826,281189.73558649764,154752.73550060063,36498.15945891459,1.837892070330906e-06,0.0,0.0,0.0,1.837892070330906e-06,0.0,24.799236582586307,3.2974840695333323,0.0012374075860073655,0.0
9552,2.0689655172413794,7.241379310344828,4.285714285714286,0,318912.79899598163,452707.97208472807,253852.7726407064,84863.1027916068,-19549.53482698585,2.1260853266398777e-06,0.0,0.0,0.0,2.1260853266398777e-06,0.0,24.284781735437114,3.595458346743095,-0.000655039282330475,0.0
9553,2.0689655172413794,7.241379310344828,4.642857142857143,0,256858.5668697342,314529.89923994336,277636.43649034854,41219.52259746187,32675.140322218067,1.712390445798228e-06,0.0,0.0,0.0,1.712390445798228e-06,0.0,24.26224684224179,3.897068059792587,0.0010908933028893554,0.0
9554,2.0689655172413794,7.241379310344828,5.0,0,279267.60540849314,506580.02145382634,229266.48191683192,225398.53094295517,-13255.015411525806,1.861784036056621e-06,0.0,0.0,0.0,1.861784036056621e-06,0.0,24.423167193775807,4.200121815202177,-0.00044204625379182027,0.0
9555,2.413793103448276,7.241379310344828,0.0,0,117950.22779068796,331104.2692179463,284136.013966499,196905.44751392357,19421.16645590075,7.863348519379198e-07,0.0,0.0,0.0,7.863348519379198e-07,0.0,23.906228843251732,-0.04987302082862276,0.0006476834322375224,0.0
9556,2.413793103448276,7.241379310344828,0.35714285714285715,0,95943.33493987679,266105.6244559785,226641.91251555062,156723.97707888187,58120.99657682266,6.39622232932512e-07,0.0,0.0,0.0,6.39622232932512e-07,0.0,23.40568786763017,0.2542380260167138,0.0019404294915850266,0.0
9557,2.413793103448276,7.241379310344828,0.7142857142857143,0,91343.65304193304,288711.0966078465,279290.04910456506,193022.02676427964,21843.712778518424,6.089576869462202e-07,0.0,0.0,0.0,6.089576869462202e-07,0.0,24.041170222982764,0.5598543308187114,0.0007319094837040591,0.0
9558,2.413793103448276,7.241379310344828,1.0714285714285714,0,71770.72300724262,186878.52846344365,207332.53001090506,266655.9573200027,48460.887564913035,4.784714867149508e-07,0.0,0.0,0.0,4.784714867149508e-07,0.0,24.39332443262438,0.8692601842343018,0.0016429833938606151,0.0
9559,2.413793103448276,7.241379310344828,1.4285714285714286,0,360054.158738903,523047.52177626034,246421.88116756448,115945.40026453427,-9726.821760357034,2.4003610582593533e-06,0.0,0.0,0.0,2.4003610582593533e-06,0.0,23.61139718459104,1.185155628392485,-0.0003424591260821075,0.0
9560,2.413793103448276,7.241379310344828,1.7857142857142858,0,562771.6434991804,747866.5257817442,465185.51756743144,99790.87544633044,65180.0171804247,3.751810956661203e-06,0.0,0.0,0.0,3.751810956661203e-06,0.0,23.342837448400893,1.5073477838715843,0.0025744476245692055,0.0
9561,2.413793103448276,7.241379310344828,2.142857142857143,0,194251.75552484824,669465.60934275,532318.4126765935,447182.1240165237,287058.0585312379,1.2950117034989883e-06,0.0,0.0,0.0,1.2950117034989883e-06,0.0,23.687608967959726,1.8293285357700284,0.015387774618356703,0.0
9562,2.413793103448276,7.241379310344828,2.5,0,943933.1263703668,943414.7687912562,1127994.3712667827,105404.87379031966,406289.13853535475,6.292887509135778e-06,0.0,0.0,0.0,6.292887509135778e-06,0.0,24.72301461658581,2.140776839239174,0.040628913853535474,0.0
9563,2.413793103448276,7.241379310344828,2.857142857142857,0,452760.4914934762,856152.6862218216,683235.0742605004,342415.64856698643,406629.95320947136,3.0184032766231746e-06,0.0,0.0,0.0,3.0184032766231746e-06,0.0,24.3078995064459,2.4364713929128854,0.0217974374420127,0.0
9564,2.413793103448276,7.241379310344828,3.2142857142857144,0,241313.9034143459,458108.53117950313,399737.28932388936,192963.17094381482,91983.81201953234,1.6087593560956392e-06,0.0,0.0,0.0,1.6087593560956392e-06,0.0,24.00181813191207,2.7216334981572987,0.0036331304684532203,0.0
9565,2.413793103448276,7.241379310344828,3.5714285714285716,0,114599.21003092214,256883.7532995339,341986.81626039103,211679.48471112543,24684.64730773612,7.63994733539481e-07,0.0,0.0,0.0,7.63994733539481e-07,0.0,23.585696410013608,3.0065841998210567,0.000869089919906383,0.0
9566,2.413793103448276,7.241379310344828,3.928571428571429,0,193246.09612715145,326282.03779290774,205683.36152982037,103391.11583527066,42173.735941512045,1.2883073075143431e-06,0.0,0.0,0.0,1.2883073075143431e-06,0.0,24.211929266255964,3.297831612805731,0.0014298282860823045,0.0
9567,2.413793103448276,7.241379310344828,4.285714285714286,0,90537.26587002167,309378.1198475385,292457.1999464321,211574.17460849741,-37533.04811409847,6.035817724668112e-07,0.0,0.0,0.0,6.035817724668112e-07,0.0,24.171593895937434,3.595568616532997,-0.0012576064401489835,0.0
9568,2.413793103448276,7.241379310344828,4.642857142857143,0,214586.74844541718,303955.64914837206,289695.5134670754,82594.49344664786,-45325.992221196495,1.4305783229694479e-06,0.0,0.0,0.0,1.4305783229694479e-06,0.0,24.311876515862355,3.897095168873857,-0.0015132550579223276,0.0
9569,2.413793103448276,7.241379310344828,5.0,0,152765.99722995088,344167.69473987934,313249.43552813807,178307.4486316767,40901.94533658126,1.0184399815330058e-06,0.0,0.0,0.0,1.0184399815330058e-06,0.0,25.34056383436841,4.200126979171378,0.0013640536164983813,0.0
9570,2.7586206896551726,7.241379310344828,0.0,0,290505.80714785354,416070.4882728387,197967.9571122453,86299.74368664944,-2275.9854693056145,1.93670538098569e-06,0.0,0.0,0.0,1.93670538098569e-06,0.0,24.34128115312412,-0.04986814590960637,-7.590265413922684e-05,0.0
9571,2.7586206896551726,7.241379310344828,0.35714285714285715,0,148615.16426453338,304008.923322463,147396.86568439016,164949.58511907325,6953.178211560805,9.907677617635559e-07,0.0,0.0,0.0,9.907677617635559e-07,0.0,23.75204378316941,0.2542636176828669,0.00023213903505810463,0.0
9572,2.7586206896551726,7.241379310344828,0.7142857142857143,0,235655.57795810423,335727.08109452605,187643.36983020866,63980.996204599964,-47626.373656901946,1.5710371863873616e-06,0.0,0.0,0.0,1.5710371863873616e-06,0.0,23.411276424144262,0.5599584283210141,-0.001595799894796273,0.0
9573,2.7586206896551726,7.241379310344828,1.0714285714285714,0,221397.9307849925,383108.8088794568,215298.3369271974,132180.2874511294,49454.52998508904,1.4759862052332832e-06,0.0,0.0,0.0,1.4759862052332832e-06,0.0,23.828784117148206,0.8695882739733939,0.0016766711383039638,0.0
9574,2.7586206896551726,7.241379310344828,1.4285714285714286,0,160608.49789880132,431784.790783032,401704.3510629056,258262.8213207129,30978.062036265597,1.0707233193253421e-06,0.0,0.0,0.0,1.0707233193253421e-06,0.0,23.884831325313556,1.1859568553972437,0.001090666644668466,0.0
9575,2.7586206896551726,7.241379310344828,1.7857142857142858,0,349389.3254734673,488389.54021762515,634211.7899310741,235532.64274682614,26602.692425505607,2.3292621698231155e-06,0.0,0.0,0.0,2.3292621698231155e-06,0.0,24.532409628282213,1.5088638882433667,0.0010507398016236893,0.0
9576,2.7586206896551726,7.241379310344828,2.142857142857143,0,277691.52951955755,840875.1265824786,634348.83722047,525190.8096547296,483212.6891956986,1.851276863463717e-06,0.0,0.0,0.0,1.851276863463717e-06,0.0,23.813678116591475,1.8315514014113343,0.025902662312001643,0.0
9577,2.7586206896551726,7.241379310344828,2.5,0,602830.5270037786,1076977.9956787182,681299.5644188838,383171.4640243771,427733.64486905053,4.01887018002519e-06,0.0,0.0,0.0,4.01887018002519e-06,0.0,23.631554319629334,2.143302109808879,0.04277336448690505,0.0
9578,2.7586206896551726,7.241379310344828,2.857142857142857,0,348229.28017437673,638801.442771617,519748.45813175564,246658.9230161157,283971.7986008588,2.3215285344958447e-06,0.0,0.0,0.0,2.3215285344958447e-06,0.0,24.401245793484183,2.4386942585541913,0.01522233536030093,0.0
9579,2.7586206896551726,7.241379310344828,3.2142857142857144,0,394781.24244299566,697524.4770376328,481609.0982559278,241877.78682995844,113608.22117974336,2.631874949619971e-06,0.0,0.0,0.0,2.631874949619971e-06,0.0,23.82750508657135,2.7231496025290816,0.004487240534750307,0.0
9580,2.7586206896551726,7.241379310344828,3.5714285714285716,0,272196.4784988736,499998.34476423246,442236.1755345562,203556.8524624583,49714.497444300985,1.8146431899924906e-06,0.0,0.0,0.0,1.8146431899924906e-06,0.0,24.429973927133652,3.0073854268258153,0.0017503336411257065,0.0
9581,2.7586206896551726,7.241379310344828,3.928571428571429,0,318948.45855503186,286131.9380031676,353606.04547303816,6319.070943201186,-49728.521521819115,2.126323057033546e-06,0.0,0.0,0.0,2.126323057033546e-06,0.0,23.723420423090545,3.2981597025448233,-0.001685960352091121,0.0
9582,2.7586206896551726,7.241379310344828,4.285714285714286,0,158527.42463588962,337235.2573772471,301152.98645007773,163776.95215677415,-9195.308938452745,1.0568494975725975e-06,0.0,0.0,0.0,1.0568494975725975e-06,0.0,23.915196966955605,3.5956727140352998,-0.000308103932966049,0.0
9583,2.7586206896551726,7.241379310344828,4.642857142857143,0,269719.22076096805,365198.38172826834,299244.8308636171,68619.5294942572,24136.06494223554,1.7981281384064536e-06,0.0,0.0,0.0,1.7981281384064536e-06,0.0,23.86492095361851,3.89712076054001,0.0008058074531261867,0.0
9584,2.7586206896551726,7.241379310344828,5.0,0,231887.35891783063,288254.5806472899,280354.7365055014,52518.244883124156,47662.7202840258,1.5459157261188709e-06,0.0,0.0,0.0,1.5459157261188709e-06,0.0,24.366295186936988,4.200131854090394,0.0015895211203421533,0.0
9585,3.1034482758620694,7.241379310344828,0.0,0,166742.9099119669,350336.15566031914,220666.56934369574,162243.3128895496,44383.85177746053,1.1116193994131128e-06,0.0,0.0,0.0,1.1116193994131128e-06,0.0,24.08915138713922,-0.04986363467145917,0.0014801729607962328,0.0
9586,3.1034482758620694,7.241379310344828,0.35714285714285715,0,138726.87290417828,330054.8424602785,176650.29722939827,213409.74329673147,22387.2589385643,9.248458193611885e-07,0.0,0.0,0.0,9.248458193611885e-07,0.0,23.555005265209083,0.2542873001481987,0.0007474217587222844,0.0
9587,3.1034482758620694,7.241379310344828,0.7142857142857143,0,82727.58842626197,226504.85400823937,223112.75230806638,142133.388908409,2880.175067994148,5.515172561750798e-07,0.0,0.0,0.0,5.515172561750798e-07,0.0,23.517912222662783,0.5600547598953108,9.650499749593757e-05,0.0
9588,3.1034482758620694,7.241379310344828,1.0714285714285714,0,281413.2710114294,360677.32409286546,259142.17770768056,42587.118791136956,-5713.802892019377,1.8760884734095291e-06,0.0,0.0,0.0,1.8760884734095291e-06,0.0,24.01734519587989,0.8698918874163507,-0.00019371670101596582,0.0
9589,3.1034482758620694,7.241379310344828,1.4285714285714286,0,176393.53220331878,299424.3908057826,157116.48697078758,102072.08872977222,23947.90019323984,1.1759568813554587e-06,0.0,0.0,0.0,1.1759568813554587e-06,0.0,23.47233349380021,1.1866983089098648,0.0008431507406770262,0.0
9590,3.1034482758620694,7.241379310344828,1.7857142857142858,0,417525.98243987985,653214.7187033677,368120.419930013,173964.61919955272,136785.81707319402,2.783506549599199e-06,0.0,0.0,0.0,2.783506549599199e-06,0.0,23.97768228146775,1.5102668875248213,0.005402697591564945,0.0
9591,3.1034482758620694,7.241379310344828,2.142857142857143,0,315868.02324216807,705382.1997174332,435743.05669569364,357857.06288258976,289857.0625236582,2.105786821614454e-06,0.0,0.0,0.0,2.105786821614454e-06,0.0,24.317715298543025,1.8336084358448246,0.015537815494448525,0.0
9592,3.1034482758620694,7.241379310344828,2.5,0,529663.7933183222,927736.2867864533,865447.6680739075,369682.27934471465,526958.9639412469,3.531091955455481e-06,0.0,0.0,0.0,3.531091955455481e-06,0.0,23.603022026399298,2.145638989024265,0.05269589639412469,0.0
9593,3.1034482758620694,7.241379310344828,2.857142857142857,0,598151.3643448184,1038371.746739531,480754.1354442288,406601.1806311203,400604.89605346014,3.987675762298789e-06,0.0,0.0,0.0,3.987675762298789e-06,0.0,24.623202339732256,2.440751292987682,0.021474463678259857,0.0
9594,3.1034482758620694,7.241379310344828,3.2142857142857144,0,242223.83370709006,604511.6627257419,421041.3299134382,329947.71480785176,116306.31934443078,1.6148255580472671e-06,0.0,0.0,0.0,1.6148255580472671e-06,0.0,24.895523701353966,2.724552601810536,0.004593808662704409,0.0
9595,3.1034482758620694,7.241379310344828,3.5714285714285716,0,107844.80956035,301011.28260871366,214977.6498388627,180025.47576331743,-14365.051030291877,7.18965397069e-07,0.0,0.0,0.0,7.18965397069e-07,0.0,24.750204036286103,3.0081268803384367,-0.0005057605601460163,0.0
9596,3.1034482758620694,7.241379310344828,3.928571428571429,0,125857.97710523407,263287.5535888728,336796.1570463341,191471.1672184581,-43352.29766437857,8.390531807015605e-07,0.0,0.0,0.0,8.390531807015605e-07,0.0,24.547604237592207,3.29846331598778,-0.0014697854027718351,0.0
9597,3.1034482758620694,7.241379310344828,4.285714285714286,0,169079.97858474142,282207.30139566853,115381.6100282558,110959.77757709807,-54935.261634547984,1.1271998572316095e-06,0.0,0.0,0.0,1.1271998572316095e-06,0.0,24.428849339245108,3.5957690456095968,-0.0018406961942674176,0.0
9598,3.1034482758620694,7.241379310344828,4.642857142857143,0,87709.89332572963,344846.06843690004,254150.76537064626,338534.2579796505,4160.389792198162,5.847326221715309e-07,0.0,0.0,0.0,5.847326221715309e-07,0.0,24.342607295095572,3.897144443005342,0.00013889890959801468,0.0
9599,3.1034482758620694,7.241379310344828,5.0,0,190716.67023344507,342455.01614740316,142057.98244521528,163176.66642182873,-35298.03664658603,1.2714444682229672e-06,0.0,0.0,0.0,1.2714444682229672e-06,0.0,24.41236863560111,4.200136365328541,-0.001177166859592026,0.0
9600,3.4482758620689657,7.241379310344828,0.0,0,85404.21867590057,263758.1937986133,189760.02686941947,170304.845340303,28434.198470611103,5.693614578393372e-07,0.0,0.0,0.0,5.693614578393372e-07,0.0,23.91862485954378,-0.049859580724213204,0.000948262263246956,0.0
9601,3.4482758620689657,7.241379310344828,0.35714285714285715,0,6998.48400569619,243241.49673990818,235206.80235931624,238474.78779728655,-54474.79746561694,4.66565600379746e-08,0.0,0.0,0.0,4.66565600379746e-08,0.0,24.21330518348369,0.25430858199189144,-0.0018186973688705972,0.0
9602,3.4482758620689657,7.241379310344828,0.7142857142857143,0,176129.62402389845,336256.74311242404,239088.17256563215,132945.77580835935,51371.04788221786,1.1741974934926564e-06,0.0,0.0,0.0,1.1741974934926564e-06,0.0,24.304885708279024,0.5601413266221331,0.0017212713568448947,0.0
9603,3.4482758620689657,7.241379310344828,1.0714285714285714,0,201220.21166263326,316032.9917216201,244611.27588916765,88844.25659182061,-10835.4299802761,1.3414680777508885e-06,0.0,0.0,0.0,1.3414680777508885e-06,0.0,24.555843679077157,0.8701647244603615,-0.00036735669562565994,0.0
9604,3.4482758620689657,7.241379310344828,1.4285714285714286,0,281290.895523725,545560.1578605836,278355.28076103353,252033.5712117803,-25650.97869739045,1.8752726368248334e-06,0.0,0.0,0.0,1.8752726368248334e-06,0.0,23.44501207511463,1.1873646034674605,-0.0009031122358652789,0.0
9605,3.4482758620689657,7.241379310344828,1.7857142857142858,0,215586.4287578134,549953.1346140126,312085.64631633944,367444.22414400143,27964.429068698726,1.4372428583854227e-06,0.0,0.0,0.0,1.4372428583854227e-06,0.0,24.350292459565264,1.5115276689084567,0.001104524992515143,0.0
9606,3.4482758620689657,7.241379310344828,2.142857142857143,0,678881.1950947555,1102392.9606891843,539681.1986359024,348388.92121013644,235130.9010466281,4.5258746339650364e-06,0.0,0.0,0.0,4.5258746339650364e-06,0.0,24.78049890566443,1.8354569547667678,0.012604214386557332,0.0
9607,3.4482758620689657,7.241379310344828,2.5,0,51372.31771595306,728970.4370865226,672249.2600379552,715648.0028099394,693324.5399114556,3.4248211810635376e-07,0.0,0.0,0.0,3.4248211810635376e-07,0.0,23.953001453952645,2.147738985688204,0.06933245399114556,0.0
9608,3.4482758620689657,7.241379310344828,2.857142857142857,0,268668.4433747105,554377.1310996207,597826.260868489,310081.278897065,359408.18733942375,1.7911229558314033e-06,0.0,0.0,0.0,1.7911229558314033e-06,0.0,24.20426449686226,2.442599811909625,0.019266110176695644,0.0
9609,3.4482758620689657,7.241379310344828,3.2142857142857144,0,89663.32443439921,423652.8202139999,374997.7004414016,320179.6904038957,62796.900279387846,5.977554962293281e-07,0.0,0.0,0.0,5.977554962293281e-07,0.0,23.33198469199611,2.7258133831941715,0.0024803204685734928,0.0
9610,3.4482758620689657,7.241379310344828,3.5714285714285716,0,182764.07686102286,471767.6081995994,322401.3434895484,267972.13322859036,-41054.11344501103,1.2184271790734857e-06,0.0,0.0,0.0,1.2184271790734857e-06,0.0,24.301652621576075,3.008793174896032,-0.0014454213471614095,0.0
9611,3.4482758620689657,7.241379310344828,3.928571428571429,0,270176.7116402836,443148.39895080775,235698.59947966202,137634.2749308519,-1595.0067590290225,1.8011780776018906e-06,0.0,0.0,0.0,1.8011780776018906e-06,0.0,23.52886621059874,3.2987361530317907,-5.407597239464276e-05,0.0
9612,3.4482758620689657,7.241379310344828,4.285714285714286,0,99823.74329999198,268531.3268897444,235648.2364495877,156414.25450231225,-24526.74652495188,6.654916219999466e-07,0.0,0.0,0.0,6.654916219999466e-07,0.0,24.001254117351607,3.5958556123364187,-0.0008218089373374111,0.0
9613,3.4482758620689657,7.241379310344828,4.642857142857143,0,93283.56506275017,288087.41545590525,197837.13871377273,192040.87518158506,-83484.3363011978,6.218904337516678e-07,0.0,0.0,0.0,6.218904337516678e-07,0.0,24.258245148174804,3.897165724849035,-0.0027872107807051395,0.0
9614,3.4482758620689657,7.241379310344828,5.0,0,122081.64046099978,243080.9583463681,155299.34676466402,103666.76045317316,-22004.89856980031,8.138776030733319e-07,0.0,0.0,0.0,8.138776030733319e-07,0.0,23.983992997307617,4.200140419275787,-0.0007338492393898693,0.0
9615,3.793103448275862,7.241379310344828,0.0,0,143760.28561820957,201793.11505388535,231265.55504186224,75053.00776342838,19152.98269694919,9.584019041213971e-07,0.0,0.0,0.0,9.584019041213971e-07,0.0,24.19065853598551,-0.049856097368700156,0.0006387396760598222,0.0
9616,3.793103448275862,7.241379310344828,0.35714285714285715,0,131279.3768782688,361993.148943889,297995.89588839014,210988.05832884987,-13487.92955082123,8.751958458551255e-07,0.0,0.0,0.0,8.751958458551255e-07,0.0,24.464052916403777,0.2543268684231292,-0.0004503084568799642,0.0
9617,3.793103448275862,7.241379310344828,0.7142857142857143,0,160787.746270561,331688.88751291006,250455.649843899,146491.5985522643,-4599.360696198035,1.0719183084704067e-06,0.0,0.0,0.0,1.0719183084704067e-06,0.0,24.26294605735547,0.5602157091108106,-0.00015410913642087222,0.0
9618,3.793103448275862,7.241379310344828,1.0714285714285714,0,202685.02459280044,327819.9547403907,175507.65869964325,97774.42258231596,34264.09084057272,1.3512334972853363e-06,0.0,0.0,0.0,1.3512334972853363e-06,0.0,24.35749736956452,0.8703991597807431,0.0011616653157948327,0.0
9619,3.793103448275862,7.241379310344828,1.4285714285714286,0,149280.2132408063,273713.7137345596,328061.6844286141,159221.5223621622,37546.93517867506,9.952014216053753e-07,0.0,0.0,0.0,9.952014216053753e-07,0.0,23.356758262772736,1.187937117286633,0.0013219416295625246,0.0
9620,3.793103448275862,7.241379310344828,1.7857142857142858,0,418834.1123742084,723195.1406347202,344705.2544051878,273218.40389908064,164151.35531929525,2.792227415828056e-06,0.0,0.0,0.0,2.792227415828056e-06,0.0,24.21751735910475,1.5126109957296925,0.006483567894770256,0.0
9621,3.793103448275862,7.241379310344828,2.142857142857143,0,634590.3471702763,725619.5425126469,680115.1692515251,69501.80366735099,127325.19450111815,4.230602314468509e-06,0.0,0.0,0.0,4.230602314468509e-06,0.0,23.190947751102293,1.8370452952623488,0.006825279200473758,0.0
9622,3.793103448275862,7.241379310344828,2.5,0,500247.689359013,1050671.1954829292,594522.6040516009,515686.3303656186,467813.0518716306,3.3349845957267534e-06,0.0,0.0,0.0,3.3349845957267534e-06,0.0,24.107865695786774,2.149543408516839,0.04678130518716306,0.0
9623,3.793103448275862,7.241379310344828,2.857142857142857,0,212712.32465658517,572124.4451171029,621804.820428589,388648.9389509668,377583.8128764257,1.4180821643772345e-06,0.0,0.0,0.0,1.4180821643772345e-06,0.0,25.23113932329912,2.444188152405206,0.020240416317906445,0.0
9624,3.793103448275862,7.241379310344828,3.2142857142857144,0,174397.6762771254,523827.03359955933,324732.27481190773,398097.4606703144,80856.9300586387,1.162651175180836e-06,0.0,0.0,0.0,1.162651175180836e-06,0.0,24.78352449926996,2.726896710015407,0.003193646465959161,0.0
9625,3.793103448275862,7.241379310344828,3.5714285714285716,0,234621.19911474828,402317.91641417204,228626.58169288043,135415.04354345915,8560.002652461571,1.5641413274316553e-06,0.0,0.0,0.0,1.5641413274316553e-06,0.0,23.606220862689586,3.0093656887152047,0.00030137809655051285,0.0
9626,3.793103448275862,7.241379310344828,3.928571428571429,0,192983.68646476534,348533.22928218206,126517.97629904845,220953.82486375276,-19575.10826391642,1.2865579097651022e-06,0.0,0.0,0.0,1.2865579097651022e-06,0.0,24.05317929242102,3.2989705883521725,-0.0006636605193736526,0.0
9627,3.793103448275862,7.241379310344828,4.285714285714286,0,178330.07683978573,327346.926041345,254787.56661761444,124175.15297063513,7194.854978040934,1.188867178931905e-06,0.0,0.0,0.0,1.188867178931905e-06,0.0,24.24150342169653,3.5959299948250965,0.00024107543647443487,0.0
9628,3.793103448275862,7.241379310344828,4.642857142857143,0,183978.1682379949,347820.26967612223,244993.70928475584,135416.3368115078,5345.570847527021,1.2265211215866327e-06,0.0,0.0,0.0,1.2265211215866327e-06,0.0,24.5874658133319,3.8971840112802725,0.00017846740305266885,0.0
9629,3.793103448275862,7.241379310344828,5.0,0,102389.08388928055,244901.54605297177,248506.77740368637,144362.69295898319,-58606.79879751793,6.825938925952036e-07,0.0,0.0,0.0,6.825938925952036e-07,0.0,24.76425559712083,4.2001439026313,-0.001954499112286703,0.0
9630,4.137931034482759,7.241379310344828,0.0,0,81949.46040524803,329471.97296843294,239325.84846471614,259479.6162154935,6771.339325353916,5.463297360349868e-07,0.0,0.0,0.0,5.463297360349868e-07,0.0,25.128570004548635,-0.04985331340493012,0.00022581981906435013,0.0
9631,4.137931034482759,7.241379310344828,0.35714285714285715,0,239370.79555459955,324235.62361595785,173585.86829750982,48219.774108694044,-16391.005088595695,1.5958053036973304e-06,0.0,0.0,0.0,1.5958053036973304e-06,0.0,23.841376715781845,0.254341483285683,-0.0005472306316804395,0.0
9632,4.137931034482759,7.241379310344828,0.7142857142857143,0,155541.6781390156,332770.9636782068,284062.4197352622,158704.22746771463,26753.2241953854,1.0369445209267706e-06,0.0,0.0,0.0,1.0369445209267706e-06,0.0,24.432333779896215,0.5602751570060451,0.0008964107295679049,0.0
9633,4.137931034482759,7.241379310344828,1.0714285714285714,0,182565.72309132342,332399.08255707036,294419.17959033384,133830.76802337318,11502.945715063284,1.2171048206088228e-06,0.0,0.0,0.0,1.2171048206088228e-06,0.0,23.446481970777977,0.8705865249336583,0.0003899876733585164,0.0
9634,4.137931034482759,7.241379310344828,1.4285714285714286,0,116238.47586277507,283812.2437145965,206513.37539312316,150136.25017141356,79261.97309880191,7.749231724185004e-07,0.0,0.0,0.0,7.749231724185004e-07,0.0,24.537712034200986,1.1883946811857111,0.0027906326144052696,0.0
9635,4.137931034482759,7.241379310344828,1.7857142857142858,0,142874.76396200314,401692.11606719287,439865.3819162401,281781.2687699096,57452.03228261104,9.524984264133543e-07,0.0,0.0,0.0,9.524984264133543e-07,0.0,24.583878260410042,1.5134768110649741,0.00226921155340017,0.0
9636,4.137931034482759,7.241379310344828,2.142857142857143,0,235296.33140354947,450251.8356845498,707120.4063271038,502016.26621264615,216605.48295275704,1.5686422093569965e-06,0.0,0.0,0.0,1.5686422093569965e-06,0.0,24.35230634678595,1.8383147271011677,0.011611157581958713,0.0
9637,4.137931034482759,7.241379310344828,2.5,0,583317.5375257824,1106347.6293830937,576210.5212916145,481452.26344940567,312014.1346803967,3.8887835835052155e-06,0.0,0.0,0.0,3.8887835835052155e-06,0.0,24.673803599213176,2.150985537453131,0.031201413468039667,0.0
9638,4.137931034482759,7.241379310344828,2.857142857142857,0,421559.904973379,941911.736874174,517849.8536994232,522899.1707162167,228972.87353631854,2.810399366489193e-06,0.0,0.0,0.0,2.810399366489193e-06,0.0,23.921164328329823,2.445457584244025,0.012274112734274431,0.0
9639,4.137931034482759,7.241379310344828,3.2142857142857144,0,387697.66528710653,637474.3153011547,440082.4078830991,190803.06673131412,78038.71232029676,2.5846511019140434e-06,0.0,0.0,0.0,2.5846511019140434e-06,0.0,23.696717752609327,2.727762525350689,0.0030823339153363276,0.0
9640,4.137931034482759,7.241379310344828,3.5714285714285716,0,254082.0661030297,404136.8274597829,151522.67573580638,148611.85780298698,28884.34643180343,1.6938804406868647e-06,0.0,0.0,0.0,1.6938804406868647e-06,0.0,23.885872549844606,3.0098232526142827,0.0010169517114833157,0.0
9641,4.137931034482759,7.241379310344828,3.928571428571429,0,110539.1506411393,187871.38907210357,158028.4126615338,65474.54837294166,-19619.970068426555,7.369276709409287e-07,0.0,0.0,0.0,7.369276709409287e-07,0.0,24.5509708287236,3.2991579535050874,-0.0006651814820206955,0.0
9642,4.137931034482759,7.241379310344828,4.285714285714286,0,93368.46410430607,252728.99480418407,159667.86152427038,253340.65120992903,-13675.18155472688,6.224564273620405e-07,0.0,0.0,0.0,6.224564273620405e-07,0.0,25.0259540498104,3.595989442720331,-0.00045820942496197273,0.0
9643,4.137931034482759,7.241379310344828,4.642857142857143,0,216415.6540093854,327827.9830685941,108021.33383824381,114970.72207454943,2217.1827565885787,1.442771026729236e-06,0.0,0.0,0.0,1.442771026729236e-06,0.0,23.946175307834448,3.8971986261428264,7.40229359871974e-05,0.0
9644,4.137931034482759,7.241379310344828,5.0,0,202426.16479468078,325550.8844649378,290648.61575673084,107942.99673301709,12046.171394341194,1.349507765297872e-06,0.0,0.0,0.0,1.349507765297872e-06,0.0,24.03845648055298,4.20014668659507,0.0004017320819387676,0.0
9645,4.482758620689656,7.241379310344828,0.0,0,183420.8836861112,304399.87079505663,96334.14794803194,166092.94039363088,32499.096731167043,1.2228058912407412e-06,0.0,0.0,0.0,1.2228058912407412e-06,0.0,24.400407797371013,-0.04985136057013025,0.0010838240104299266,0.0
9646,4.482758620689656,7.241379310344828,0.35714285714285715,0,127348.78615677172,342167.69088308123,244926.16514967883,198017.99213628555,-18723.466162838406,8.489919077118115e-07,0.0,0.0,0.0,8.489919077118115e-07,0.0,26.070616379936624,0.2543517350039336,-0.0006251022533490794,0.0
9647,4.482758620689656,7.241379310344828,0.7142857142857143,0,217895.36911122038,320418.40158194746,275666.14402918913,83621.38188524854,-23735.483585117723,1.4526357940748024e-06,0.0,0.0,0.0,1.4526357940748024e-06,0.0,24.128418022445416,0.5603168572321192,-0.0007952963725715118,0.0
9648,4.482758620689656,7.241379310344828,1.0714285714285714,0,126752.2291471506,337301.31243239064,211203.4312103232,209904.715630546,66896.85870541506,8.45014860981004e-07,0.0,0.0,0.0,8.45014860981004e-07,0.0,24.839003676687703,0.8707179537959276,0.0022680234200665966,0.0
9649,4.482758620689656,7.241379310344828,1.4285714285714286,0,177260.44427155636,333816.5142372996,216752.9947720012,129877.17419623658,73061.37812848426,1.181736295143709e-06,0.0,0.0,0.0,1.181736295143709e-06,0.0,24.272449418403408,1.1887156432308708,0.002572323860832905,0.0
9650,4.482758620689656,7.241379310344828,1.7857142857142858,0,264756.25535211223,655941.064067335,409314.63596649107,376175.21031487,28725.655791643792,1.765041702347415e-06,0.0,0.0,0.0,1.765041702347415e-06,0.0,24.096282909666606,1.5140841445134887,0.001134591543789896,0.0
9651,4.482758620689656,7.241379310344828,2.142857142857143,0,444695.22591532714,742319.3191482963,568909.6858696504,237044.71350538553,399177.6773099749,2.9646348394355145e-06,0.0,0.0,0.0,2.9646348394355145e-06,0.0,23.70649720609562,1.8392051807405374,0.02139795748133156,0.0
9652,4.482758620689656,7.241379310344828,2.5,0,292847.58259580814,701412.6551988604,860864.870849918,522892.85342428513,762200.4234041907,1.9523172173053876e-06,0.0,0.0,0.0,1.9523172173053876e-06,0.0,24.223943393135627,2.1519971309239203,0.07622004234041907,0.0
9653,4.482758620689656,7.241379310344828,2.857142857142857,0,479528.4522452395,687045.7908047879,141580.92752397727,331859.74367512757,413345.7983882338,3.196856348301597e-06,0.0,0.0,0.0,3.196856348301597e-06,0.0,24.80528977733433,2.446348037883394,0.02215744096363942,0.0
9654,4.482758620689656,7.241379310344828,3.2142857142857144,0,359307.0168719106,510051.2257603512,283044.57626250794,95794.64968035265,15924.656864082746,2.395380112479404e-06,0.0,0.0,0.0,2.395380112479404e-06,0.0,23.950464019954083,2.728369858799203,0.0006289841090764558,0.0
9655,4.482758620689656,7.241379310344828,3.5714285714285716,0,363478.66478199634,458822.9977866961,310901.5706892323,44706.17550876597,8822.515058561698,2.423191098546642e-06,0.0,0.0,0.0,2.423191098546642e-06,0.0,24.43829604992829,3.010144214659442,0.0003106205573865034,0.0
9656,4.482758620689656,7.241379310344828,3.928571428571429,0,213111.21957094828,326562.09101064503,233865.3119147581,82800.75288547887,-57484.18641572451,1.4207414638063218e-06,0.0,0.0,0.0,1.4207414638063218e-06,0.0,23.96797895900204,3.299289382367357,-0.0019489028871812163,0.0
9657,4.482758620689656,7.241379310344828,4.285714285714286,0,103280.12678612035,307772.1244607109,271852.48860619083,191328.1991403486,-30842.326259065198,6.885341785741357e-07,0.0,0.0,0.0,6.885341785741357e-07,0.0,24.190775891498124,3.596031142946405,-0.001033422812201784,0.0
9658,4.482758620689656,7.241379310344828,4.642857142857143,0,235795.67090186683,239077.28973337906,239758.15600744847,3622.789227005923,-487.5437662948586,1.571971139345779e-06,0.0,0.0,0.0,1.571971139345779e-06,0.0,23.647111264413983,3.8972088778610767,-1.627715211845219e-05,0.0
9659,4.482758620689656,7.241379310344828,5.0,0,195535.09907594827,368642.94188545225,214429.8958578913,148715.80657492756,7001.268081004626,1.3035673271729885e-06,0.0,0.0,0.0,1.3035673271729885e-06,0.0,25.56818371591553,4.2001486394298695,0.0002334877954430144,0.0
9660,4.827586206896552,7.241379310344828,0.0,0,117063.42716629169,279302.41637806117,205409.0930831123,144331.88743675465,-22257.574577563235,7.804228477752779e-07,0.0,0.0,0.0,7.804228477752779e-07,0.0,24.51093230189429,-0.049850351211370436,-0.0007422758220219463,0.0
9661,4.827586206896552,7.241379310344828,0.35714285714285715,0,328185.56275720894,314818.28567275574,374253.9306868855,20412.186386655645,-88396.07465054656,2.1879037517147264e-06,0.0,0.0,0.0,2.1879037517147264e-06,0.0,24.19923007747712,0.25435703379399005,-0.002951194237792422,0.0
9662,4.827586206896552,7.241379310344828,0.7142857142857143,0,304436.5977346301,417674.4315284462,324522.9799578882,77545.05248202915,6242.460399688456,2.0295773182308674e-06,0.0,0.0,0.0,2.0295773182308674e-06,0.0,25.01256494233948,0.560338410764695,0.00020916389143663263,0.0
9663,4.827586206896552,7.241379310344828,1.0714285714285714,0,251342.91923978878,365806.0488223959,265319.0643979893,79765.95459280607,24389.688519423893,1.675619461598592e-06,0.0,0.0,0.0,1.675619461598592e-06,0.0,24.326675614191938,0.8707858852325415,0.0008268906169985098,0.0
9664,4.827586206896552,7.241379310344828,1.4285714285714286,0,110632.02788801694,260193.91073905013,276146.1059199566,158403.93344159613,34410.49585582593,7.375468525867796e-07,0.0,0.0,0.0,7.375468525867796e-07,0.0,24.606215699904986,1.1888815383961318,0.0012115147814125852,0.0
9665,4.827586206896552,7.241379310344828,1.7857142857142858,0,79516.6053219965,357108.36992820184,446387.71138695924,383179.5212375484,46843.48538360595,5.301107021466433e-07,0.0,0.0,0.0,5.301107021466433e-07,0.0,25.162635127330695,1.5143980560314678,0.0018502004891858923,0.0
9666,4.827586206896552,7.241379310344828,2.142857142857143,0,269123.5766319182,808369.2378529458,708650.7463353508,503618.51256560965,297789.5154302368,1.7941571775461214e-06,0.0,0.0,0.0,1.7941571775461214e-06,0.0,25.122980291076175,1.839665428161964,0.01596303538941231,0.0
9667,4.827586206896552,7.241379310344828,2.5,0,427094.00507562194,729832.9166607958,755186.9093384887,315980.69892045396,579712.5856013423,2.847293367170813e-06,0.0,0.0,0.0,2.847293367170813e-06,0.0,23.819075556281163,2.152519991706198,0.05797125856013423,0.0
9668,4.827586206896552,7.241379310344828,2.857142857142857,0,644304.097298756,925121.2790462356,450170.0790437978,191718.47873417666,342342.7574203231,4.295360648658373e-06,0.0,0.0,0.0,4.295360648658373e-06,0.0,24.401941117760938,2.446808285304821,0.018351316177516185,0.0
9669,4.827586206896552,7.241379310344828,3.2142857142857144,0,522473.04423217056,557387.4166515656,584166.2299525033,48818.72793625054,53056.14658430152,3.4831536282144703e-06,0.0,0.0,0.0,3.4831536282144703e-06,0.0,25.03886834074162,2.7286837703171822,0.0020955850650461673,0.0
9670,4.827586206896552,7.241379310344828,3.5714285714285716,0,238405.6577047514,398607.03699028573,289090.7509095109,125120.99235080993,-84780.92673732246,1.5893710513650093e-06,0.0,0.0,0.0,1.5893710513650093e-06,0.0,23.864392403515097,3.0103101098247036,-0.002984942337200687,0.0
9671,4.827586206896552,7.241379310344828,3.928571428571429,0,262071.3773767372,285091.08468162746,366149.14032181684,73125.35898788345,46597.836908886005,1.7471425158449147e-06,0.0,0.0,0.0,1.7471425158449147e-06,0.0,24.280904780152763,3.299357313803971,0.0015798198522174003,0.0
9672,4.827586206896552,7.241379310344828,4.285714285714286,0,270103.9213292275,434509.88228744525,237651.8089492095,126578.3336081038,-14959.747226498832,1.8006928088615167e-06,0.0,0.0,0.0,1.8006928088615167e-06,0.0,24.26739854503034,3.596052696478981,-0.0005012509082090499,0.0
9673,4.827586206896552,7.241379310344828,4.642857142857143,0,342202.21097077115,503878.76534880075,209088.50156184036,128610.0314835369,-39317.11694810482,2.2813480731384745e-06,0.0,0.0,0.0,2.2813480731384745e-06,0.0,24.669814545212873,3.8972141766511332,-0.0013126425516355243,0.0
9674,4.827586206896552,7.241379310344828,5.0,0,210784.35646169342,303286.1509560614,313738.9897485865,97922.68799836718,-12609.083870641041,1.4052290430779562e-06,0.0,0.0,0.0,1.4052290430779562e-06,0.0,24.825262905251407,4.20014964878863,-0.0004205048516139091,0.0
9675,5.172413793103448,7.241379310344828,0.0,0,215273.21905494973,347487.17480560136,246750.2395693138,100315.22334715465,3624.9992697258544,1.435154793699665e-06,0.0,0.0,0.0,1.435154793699665e-06,0.0,24.932746318361755,-0.049850351211370436,0.00012089139826929415,0.0
9676,5.172413793103448,7.241379310344828,0.35714285714285715,0,215007.44354534222,330959.23568619695,235906.6753045633,84807.78374321914,-19772.835801647107,1.4333829569689482e-06,0.0,0.0,0.0,1.4333829569689482e-06,0.0,24.403776022063276,0.25435703379399005,-0.0006601365424123597,0.0
9677,5.172413793103448,7.241379310344828,0.7142857142857143,0,190994.6321352247,308756.15203330066,149784.76705850172,96888.34755993268,-17582.93417772957,1.2732975475681648e-06,0.0,0.0,0.0,1.2732975475681648e-06,0.0,23.846806735915237,0.560338410764695,-0.0005891450966467692,0.0
9678,5.172413793103448,7.241379310344828,1.0714285714285714,0,48865.103515182964,279688.8218820606,279171.3265982867,230567.02592630973,-10677.289837228876,3.2576735676788643e-07,0.0,0.0,0.0,3.2576735676788643e-07,0.0,24.194618880749807,0.8707858852325415,-0.00036199522492248097,0.0
9679,5.172413793103448,7.241379310344828,1.4285714285714286,0,95768.87667961909,305306.16587875976,234470.84877767155,196346.36887095225,19008.826285439114,6.384591778641273e-07,0.0,0.0,0.0,6.384591778641273e-07,0.0,23.847768161609892,1.1888815383961318,0.0006692572556525519,0.0
9680,5.172413793103448,7.241379310344828,1.7857142857142858,0,129986.26917952018,431690.026128793,340960.34581255174,282775.56497911504,14208.218154214643,8.665751278634679e-07,0.0,0.0,0.0,8.665751278634679e-07,0.0,24.040331623929667,1.5143980560314678,0.0005611890738725425,0.0
9681,5.172413793103448,7.241379310344828,2.142857142857143,0,396317.0281075393,894612.3742211497,498089.3040436509,498501.7100447294,340041.2695919357,2.6421135207169287e-06,0.0,0.0,0.0,2.6421135207169287e-06,0.0,24.740593836192485,1.839665428161964,0.018227944702869838,0.0
9682,5.172413793103448,7.241379310344828,2.5,0,266584.6173721552,872501.012170099,767089.5766444098,569328.3701143081,427428.30379338266,1.7772307824810346e-06,0.0,0.0,0.0,1.7772307824810346e-06,0.0,23.673329978067702,2.152519991706198,0.042742830379338265,0.0
9683,5.172413793103448,7.241379310344828,2.857142857142857,0,214109.8554399962,400812.76183179475,325161.63723350904,566827.1139429485,478111.89285277785,1.4273990362666413e-06,0.0,0.0,0.0,1.4273990362666413e-06,0.0,24.119198032604462,2.446808285304821,0.025629233637326547,0.0
9684,5.172413793103448,7.241379310344828,3.2142857142857144,0,288042.79569517705,608241.7255709007,367429.4211815451,289150.57723179896,118729.36813044813,1.9202853046345138e-06,0.0,0.0,0.0,1.9202853046345138e-06,0.0,24.845725126212344,2.7286837703171822,0.004689513028263415,0.0
9685,5.172413793103448,7.241379310344828,3.5714285714285716,0,198870.96029553143,386931.5548631185,349385.8534154045,171963.90533978725,-5808.551090584763,1.3258064019702096e-06,0.0,0.0,0.0,1.3258064019702096e-06,0.0,24.74733247313506,3.0103101098247036,-0.00020450578609265222,0.0
9686,5.172413793103448,7.241379310344828,3.928571428571429,0,306926.6707996619,425893.35565541126,151276.84217908824,94566.26183500809,11446.734361196719,2.046177805331079e-06,0.0,0.0,0.0,2.046177805331079e-06,0.0,24.008635139233604,3.299357313803971,0.00038808192367893247,0.0
9687,5.172413793103448,7.241379310344828,4.285714285714286,0,238176.8208743923,349973.6299982174,239229.76018530206,76587.83205553584,-38039.28897143836,1.5878454724959486e-06,0.0,0.0,0.0,1.5878454724959486e-06,0.0,23.964616594829106,3.596052696478981,-0.001274568871777819,0.0
9688,5.172413793103448,7.241379310344828,4.642857142857143,0,41943.11687194428,228628.62048218702,186249.19080795144,187135.87611008438,18238.697268963406,2.796207791462952e-07,0.0,0.0,0.0,2.796207791462952e-07,0.0,25.2069812394104,3.8972141766511332,0.0006089177432119421,0.0
9689,5.172413793103448,7.241379310344828,5.0,0,70227.46049162293,179832.7627983928,200993.65618636296,122618.9719026706,27439.424550345808,4.6818306994415286e-07,0.0,0.0,0.0,4.6818306994415286e-07,0.0,24.611396699546706,4.20014964878863,0.0009150871916856881,0.0
9690,5.517241379310345,7.241379310344828,0.0,0,272591.020774451,281336.0499360135,338820.422148471,42071.65996553118,8752.130544581083,1.8172734718296736e-06,0.0,0.0,0.0,1.8172734718296736e-06,0.0,23.93632970658485,-0.04985136057013025,0.00029187793448847316,0.0
9691,5.517241379310345,7.241379310344828,0.35714285714285715,0,255081.38998961807,287595.06956770987,121582.45769063913,-6115.709608463326,29657.059081068837,1.700542599930787e-06,0.0,0.0,0.0,1.700542599930787e-06,0.0,24.326968150176462,0.2543517350039336,0.00099013154391668,0.0
9692,5.517241379310345,7.241379310344828,0.7142857142857143,0,114717.94727769407,391936.4748810116,281307.64486455725,273525.6740452219,-227.25636241449055,7.647863151846271e-07,0.0,0.0,0.0,7.647863151846271e-07,0.0,24.895485475204282,0.5603168572321192,-7.614597782425791e-06,0.0
9693,5.517241379310345,7.241379310344828,1.0714285714285714,0,234015.57713273415,339112.08909446397,205328.50268253984,68898.49591162028,-3226.4261273130332,1.560103847551561e-06,0.0,0.0,0.0,1.560103847551561e-06,0.0,23.909959965312506,0.8707179537959276,-0.00010938645194215071,0.0
9694,5.517241379310345,7.241379310344828,1.4285714285714286,0,334877.33965256053,484296.9164880232,234686.38278688365,103730.49404135709,-21088.139225249688,2.232515597683737e-06,0.0,0.0,0.0,2.232515597683737e-06,0.0,23.90428190032204,1.1887156432308708,-0.000742465103988061,0.0
9695,5.517241379310345,7.241379310344828,1.7857142857142858,0,127976.89181856696,415677.42154193885,270142.7233200033,365109.70192402357,91007.77387066593,8.531792787904464e-07,0.0,0.0,0.0,8.531792787904464e-07,0.0,24.47675578074966,1.5140841445134887,0.0035945794032259367,0.0
9696,5.517241379310345,7.241379310344828,2.142857142857143,0,765050.8839967063,999630.1429838188,712847.9189926642,132623.23368544815,245920.87747697235,5.100339226644709e-06,0.0,0.0,0.0,5.100339226644709e-06,0.0,23.69504995418101,1.8392051807405374,0.013182612102674579,0.0
9697,5.517241379310345,7.241379310344828,2.5,0,567998.113517853,1128021.1028921658,652363.6583937631,499124.15951041516,609692.4143754385,3.7866540901190198e-06,0.0,0.0,0.0,3.7866540901190198e-06,0.0,24.03929081707629,2.1519971309239203,0.06096924143754384,0.0
9698,5.517241379310345,7.241379310344828,2.857142857142857,0,127364.17548471295,499669.9005225865,533279.5621330412,640468.3851239812,341420.37673788663,8.490945032314197e-07,0.0,0.0,0.0,8.490945032314197e-07,0.0,24.163142097043195,2.446348037883394,0.018301871873021548,0.0
9699,5.517241379310345,7.241379310344828,3.2142857142857144,0,282669.6442745467,715115.672698455,408288.31170424464,465292.1602167688,135575.39808795115,1.8844642951636447e-06,0.0,0.0,0.0,1.8844642951636447e-06,0.0,23.05691977431946,2.728369858799203,0.0053548890696269065,0.0
9700,5.517241379310345,7.241379310344828,3.5714285714285716,0,242123.05844738107,402163.59904597246,262903.74515980517,122584.64197029587,27998.216386726934,1.6141537229825404e-06,0.0,0.0,0.0,1.6141537229825404e-06,0.0,24.43168806731992,3.010144214659442,0.0009857531012580517,0.0
9701,5.517241379310345,7.241379310344828,3.928571428571429,0,249545.51294963653,366351.4710582229,101867.7053636415,135068.10045803364,-59463.45755894449,1.663636752997577e-06,0.0,0.0,0.0,1.663636752997577e-06,0.0,24.70112677691925,3.299289382367357,-0.0020160066853917224,0.0
9702,5.517241379310345,7.241379310344828,4.285714285714286,0,144872.5752862709,272699.7521265838,198447.6138250783,105754.47007451658,-21874.101574240296,9.658171685751393e-07,0.0,0.0,0.0,9.658171685751393e-07,0.0,25.374715339963537,3.596031142946405,-0.0007329277102305063,0.0
9703,5.517241379310345,7.241379310344828,4.642857142857143,0,245042.12432076625,412519.86614994874,288945.8668750829,130295.25012401133,-22662.552285818067,1.6336141621384416e-06,0.0,0.0,0.0,1.6336141621384416e-06,0.0,24.702688265556358,3.8972088778610767,-0.0007566127114125448,0.0
9704,5.517241379310345,7.241379310344828,5.0,0,106830.74437460153,250683.40539104663,131014.37494344657,216777.6446192056,-24051.399250773098,7.122049624973436e-07,0.0,0.0,0.0,7.122049624973436e-07,0.0,23.89601924900752,4.2001486394298695,-0.0008020987231754409,0.0
9705,5.862068965517242,7.241379310344828,0.0,0,306685.81303469016,388684.7803678961,160620.65809594354,40033.3359406158,32209.983035128294,2.0445720868979346e-06,0.0,0.0,0.0,2.0445720868979346e-06,0.0,24.087945807593165,-0.04985331340493012,0.0010741822542881187,0.0
9706,5.862068965517242,7.241379310344828,0.35714285714285715,0,198833.74845192715,387996.1719506481,204857.16982745292,176510.28773214202,-73436.86906227379,1.3255583230128478e-06,0.0,0.0,0.0,1.3255583230128478e-06,0.0,25.249197907932746,0.254341483285683,-0.002451765711032723,0.0
9707,5.862068965517242,7.241379310344828,0.7142857142857143,0,128987.35894490039,269214.9125763545,185527.72264604727,120670.42985127134,47632.59013414387,8.599157262993359e-07,0.0,0.0,0.0,8.599157262993359e-07,0.0,24.550283157387376,0.5602751570060451,0.0015960081880793209,0.0
9708,5.862068965517242,7.241379310344828,1.0714285714285714,0,245556.29793094815,481121.5766297472,239212.35020408922,232073.87195154143,34617.95238735661,1.637041986206321e-06,0.0,0.0,0.0,1.637041986206321e-06,0.0,24.852143096394197,0.8705865249336583,0.0011736623854793902,0.0
9709,5.862068965517242,7.241379310344828,1.4285714285714286,0,199960.58908640846,418854.9641669287,192706.92202869,265444.42780998925,12468.077711679081,1.3330705939093898e-06,0.0,0.0,0.0,1.3330705939093898e-06,0.0,24.04612371810955,1.1883946811857111,0.00043897247243365674,0.0
9710,5.862068965517242,7.241379310344828,1.7857142857142858,0,407597.267439742,648443.2958968184,356931.0577681253,182685.6241952312,80429.95291319245,2.7173151162649464e-06,0.0,0.0,0.0,2.7173151162649464e-06,0.0,24.22948104117965,1.5134768110649741,0.003176781936838271,0.0
9711,5.862068965517242,7.241379310344828,2.142857142857143,0,267346.0643060863,590125.5388661344,586578.59002779,321023.6475784825,326816.600121484,1.7823070953739086e-06,0.0,0.0,0.0,1.7823070953739086e-06,0.0,24.30779203615214,1.8383147271011677,0.017519035034021687,0.0
9712,5.862068965517242,7.241379310344828,2.5,0,751318.7673817879,1423091.076618315,829522.9070547728,578367.6600845435,592668.8050308237,5.008791782545252e-06,0.0,0.0,0.0,5.008791782545252e-06,0.0,24.80719004269686,2.150985537453131,0.059266880503082375,0.0
9713,5.862068965517242,7.241379310344828,2.857142857142857,0,259652.01132465704,641538.4005052015,806253.609258213,506937.8476508054,416139.94417266664,1.7310134088310469e-06,0.0,0.0,0.0,1.7310134088310469e-06,0.0,24.13751589320473,2.445457584244025,0.022307221415028503,0.0
9714,5.862068965517242,7.241379310344828,3.2142857142857144,0,647520.6419701648,690992.469289134,371417.213221714,-54189.66124655251,47576.91942707331,4.316804279801099e-06,0.0,0.0,0.0,4.316804279801099e-06,0.0,24.657840535494948,2.727762525350689,0.001879169299147326,0.0
9715,5.862068965517242,7.241379310344828,3.5714285714285716,0,173569.22756436048,320672.96487246425,431387.4592884637,231347.79330767054,29064.649516137077,1.1571281837624033e-06,0.0,0.0,0.0,1.1571281837624033e-06,0.0,24.360876943985865,3.0098232526142827,0.0010232997703058249,0.0
9716,5.862068965517242,7.241379310344828,3.928571428571429,0,65045.588821704114,301831.0540597146,228463.36856372995,251225.4417085464,-29791.803333974916,4.3363725881136075e-07,0.0,0.0,0.0,4.3363725881136075e-07,0.0,23.759391837857095,3.2991579535050874,-0.0010100400675765032,0.0
9717,5.862068965517242,7.241379310344828,4.285714285714286,0,205639.33521997023,387104.7506436905,289479.9333551844,150836.79399738275,17810.553626007473,1.3709289014664682e-06,0.0,0.0,0.0,1.3709289014664682e-06,0.0,24.36925111210577,3.595989442720331,0.0005967718602175628,0.0
9718,5.862068965517242,7.241379310344828,4.642857142857143,0,188437.24760556885,401790.9451575939,362059.1523679981,196655.9613076678,-9090.16928259128,1.256248317370459e-06,0.0,0.0,0.0,1.256248317370459e-06,0.0,24.927542499204577,3.8971986261428264,-0.0003034846888099367,0.0
9719,5.862068965517242,7.241379310344828,5.0,0,27497.18335609111,248503.46292915315,242544.83387408854,218515.51742268007,14261.726650446419,1.8331455570727407e-07,0.0,0.0,0.0,1.8331455570727407e-07,0.0,24.38321162949457,4.20014668659507,0.0004756194272660677,0.0
9720,6.206896551724139,7.241379310344828,0.0,0,265050.2385149719,412089.72911874205,143880.11539473291,150316.08789863402,-29249.022076060377,1.7670015900998127e-06,0.0,0.0,0.0,1.7670015900998127e-06,0.0,24.10834778581619,-0.049856097368700156,-0.0009754361073434928,0.0
9721,6.206896551724139,7.241379310344828,0.35714285714285715,0,197672.06404117213,409092.6638601574,243013.5921519489,190452.42241164244,15201.352834564617,1.3178137602744809e-06,0.0,0.0,0.0,1.3178137602744809e-06,0.0,24.989262795341453,0.2543268684231292,0.0005075128626397576,0.0
9722,6.206896551724139,7.241379310344828,0.7142857142857143,0,120916.41963234084,275775.6797373372,196092.9368865152,136642.9395756072,-1582.910348632509,8.061094642156056e-07,0.0,0.0,0.0,8.061094642156056e-07,0.0,24.477083976056676,0.5602157091108106,-5.303801179608862e-05,0.0
9723,6.206896551724139,7.241379310344828,1.0714285714285714,0,291094.1214360355,461542.9822454684,225612.63358760535,136241.26875555888,54951.05815541453,1.9406274762402366e-06,0.0,0.0,0.0,1.9406274762402366e-06,0.0,23.596061892240726,0.8703991597807431,0.0018630215120076085,0.0
9724,6.206896551724139,7.241379310344828,1.4285714285714286,0,292083.89684555255,287999.2363918068,445838.46429073723,108794.68177372878,15632.870986262238,1.94722597897035e-06,0.0,0.0,0.0,1.94722597897035e-06,0.0,24.147180517959075,1.187937117286633,0.0005503975983120297,0.0
9725,6.206896551724139,7.241379310344828,1.7857142857142858,0,250572.04347236652,509439.64693510946,265155.2678368077,253020.85642236762,90040.93186773844,1.670480289815777e-06,0.0,0.0,0.0,1.670480289815777e-06,0.0,24.430272779114038,1.5126109957296925,0.0035563915627581997,0.0
9726,6.206896551724139,7.241379310344828,2.142857142857143,0,282412.9969910352,945200.4077238446,655630.7847324242,670534.2043742072,287242.23167410155,1.8827533132735679e-06,0.0,0.0,0.0,1.8827533132735679e-06,0.0,24.41874531154333,1.8370452952623488,0.015397647237253526,0.0
9727,6.206896551724139,7.241379310344828,2.5,0,535965.3792762231,841653.9623167756,532276.9942212584,222774.4545603236,617279.3780918829,3.573102528508154e-06,0.0,0.0,0.0,3.573102528508154e-06,0.0,24.561293965901406,2.149543408516839,0.061727937809188296,0.0
9728,6.206896551724139,7.241379310344828,2.857142857142857,0,415977.03067680675,908078.401731595,550721.2211038016,451445.18537055195,366212.7463246101,2.773180204512045e-06,0.0,0.0,0.0,2.773180204512045e-06,0.0,24.22988276119585,2.444188152405206,0.019630869210380694,0.0
9729,6.206896551724139,7.241379310344828,3.2142857142857144,0,299369.893190193,610256.7232586636,494257.9606329665,270245.73181125347,40702.19422118971,1.99579928793462e-06,0.0,0.0,0.0,1.99579928793462e-06,0.0,24.209341730009694,2.726896710015407,0.0016076348512986617,0.0
9730,6.206896551724139,7.241379310344828,3.5714285714285716,0,97843.54892119553,391211.75206610386,310353.96965864283,282446.3820709903,-12458.131449264274,6.522903261413036e-07,0.0,0.0,0.0,6.522903261413036e-07,0.0,24.32705788732538,3.0093656887152047,-0.00043862228730450793,0.0
9731,6.206896551724139,7.241379310344828,3.928571428571429,0,166974.83715907516,407947.76506107923,229067.90397614407,256201.39249232202,-27985.498290642954,1.113165581060501e-06,0.0,0.0,0.0,1.113165581060501e-06,0.0,24.721993868621517,3.2989705883521725,-0.0009488003887434272,0.0
9732,6.206896551724139,7.241379310344828,4.285714285714286,0,217359.32993334072,323950.5053269147,193502.39714108463,73031.6839083576,-2576.864697693315,1.4490621995556047e-06,0.0,0.0,0.0,1.4490621995556047e-06,0.0,23.987283958269007,3.5959299948250965,-8.63420852300665e-05,0.0
9733,6.206896551724139,7.241379310344828,4.642857142857143,0,225473.91866816115,354043.33788304444,258252.21344942952,96489.64117252282,-22101.148601012406,1.503159457787741e-06,0.0,0.0,0.0,1.503159457787741e-06,0.0,24.298191765461787,3.8971840112802725,-0.0007378696696403426,0.0
9734,6.206896551724139,7.241379310344828,5.0,0,289231.5304861979,415878.7464621371,352359.2504880094,100166.83093486408,9887.251016682449,1.9282102032413196e-06,0.0,0.0,0.0,1.9282102032413196e-06,0.0,24.462927611525256,4.2001439026313,0.00032973347344608883,0.0
9735,6.551724137931035,7.241379310344828,0.0,0,264694.59201230574,398178.68791577034,178688.02354537763,104229.3567749495,-27174.886779616783,1.7646306134153716e-06,0.0,0.0,0.0,1.7646306134153716e-06,0.0,23.95204398443768,-0.049859580724213204,-0.0009062650268743577,0.0
9736,6.551724137931035,7.241379310344828,0.35714285714285715,0,275818.38606058876,397936.400136649,372190.046640102,110147.55259041769,-4212.176824858895,1.838789240403925e-06,0.0,0.0,0.0,1.838789240403925e-06,0.0,24.45704633585545,0.25430858199189144,-0.00014062787316325122,0.0
9737,6.551724137931035,7.241379310344828,0.7142857142857143,0,142366.45182450386,265687.7182317417,324242.2719163496,161935.93889759952,-32621.297603522667,9.491096788300258e-07,0.0,0.0,0.0,9.491096788300258e-07,0.0,24.405039493451696,0.5601413266221331,-0.001093030169771814,0.0
9738,6.551724137931035,7.241379310344828,1.0714285714285714,0,290590.5918496524,392717.5830652619,346127.14585620683,81646.60029350448,40901.07898812222,1.937270612331016e-06,0.0,0.0,0.0,1.937270612331016e-06,0.0,23.2008948315974,0.8701647244603615,0.00138668103175891,0.0
9739,6.551724137931035,7.241379310344828,1.4285714285714286,0,222164.6035916082,340459.3896937652,314598.1278035994,106495.93892523932,6218.137237435939,1.481097357277388e-06,0.0,0.0,0.0,1.481097357277388e-06,0.0,24.257008786856343,1.1873646034674605,0.00021892637663720874,0.0
9740,6.551724137931035,7.241379310344828,1.7857142857142858,0,366509.8335992532,440024.6198886936,552740.381823193,143110.89729347723,63265.22238892986,2.443398890661688e-06,0.0,0.0,0.0,2.443398890661688e-06,0.0,24.953417395610728,1.5115276689084567,0.002498818020347778,0.0
9741,6.551724137931035,7.241379310344828,2.142857142857143,0,427147.3012982564,864024.6275009004,436749.7707040963,437004.99607624713,382817.429490805,2.847648675321709e-06,0.0,0.0,0.0,2.847648675321709e-06,0.0,24.997747447387937,1.8354569547667678,0.020520964835906652,0.0
9742,6.551724137931035,7.241379310344828,2.5,0,387647.1599868943,844879.2533004404,584187.8400803211,399414.0281726006,778232.4655739275,2.5843143999126287e-06,0.0,0.0,0.0,2.5843143999126287e-06,0.0,24.595496310008034,2.147738985688204,0.07782324655739276,0.0
9743,6.551724137931035,7.241379310344828,2.857142857142857,0,618196.3999632125,1015206.614920217,747879.1749315439,308333.66715708125,337726.6985224244,4.1213093330880835e-06,0.0,0.0,0.0,4.1213093330880835e-06,0.0,24.893997725508058,2.442599811909625,0.018103871899834652,0.0
9744,6.551724137931035,7.241379310344828,3.2142857142857144,0,478582.80909047497,688040.9461040203,449166.8923792773,137041.76265263392,-25886.349914063903,3.1905520606031664e-06,0.0,0.0,0.0,3.1905520606031664e-06,0.0,24.18723159507573,2.7258133831941715,-0.0010224460644211635,0.0
9745,6.551724137931035,7.241379310344828,3.5714285714285716,0,234361.24976084955,255860.65069870252,276862.8939466534,32707.380702527294,54009.03674161853,1.562408331738997e-06,0.0,0.0,0.0,1.562408331738997e-06,0.0,24.553230757305617,3.008793174896032,0.0019015345380804227,0.0
9746,6.551724137931035,7.241379310344828,3.928571428571429,0,209101.21993793614,296535.82854885637,70897.32700342887,258139.49188721285,-48013.041176694656,1.3940081329195743e-06,0.0,0.0,0.0,1.3940081329195743e-06,0.0,24.35511193239018,3.2987361530317907,-0.0016277999290951865,0.0
9747,6.551724137931035,7.241379310344828,4.285714285714286,0,113397.78978145115,244257.35402595563,211437.25843651503,118069.39533180541,-17121.1328054193,7.559852652096744e-07,0.0,0.0,0.0,7.559852652096744e-07,0.0,24.61228012955296,3.5958556123364187,-0.00057367168297353,0.0
9748,6.551724137931035,7.241379310344828,4.642857142857143,0,158381.1748732676,312060.07189514744,159968.18174895362,323966.60983449966,41008.12789229979,1.0558744991551172e-06,0.0,0.0,0.0,1.0558744991551172e-06,0.0,25.205079853597244,3.897165724849035,0.0013690986982945348,0.0
9749,6.551724137931035,7.241379310344828,5.0,0,159949.40030082487,375108.3398056738,274603.0771744283,190662.45309261393,-11525.283245419345,1.0663293353388325e-06,0.0,0.0,0.0,1.0663293353388325e-06,0.0,24.788561227977137,4.200140419275787,-0.0003843607966005974,0.0
9750,6.8965517241379315,7.241379310344828,0.0,0,88919.08027614561,332785.00403045444,231440.97778077968,267842.5986620747,-20014.13279532965,5.927938685076374e-07,0.0,0.0,0.0,5.927938685076374e-07,0.0,23.98987327277009,-0.04986363467145917,-0.0006674584789523885,0.0
9751,6.8965517241379315,7.241379310344828,0.35714285714285715,0,103639.63934514366,308541.6989012183,200904.91136148345,209425.22217317333,9840.01412015359,6.909309289676244e-07,0.0,0.0,0.0,6.909309289676244e-07,0.0,24.956020858007893,0.2542873001481987,0.000328519033067876,0.0
9752,6.8965517241379315,7.241379310344828,0.7142857142857143,0,285318.1831713125,442169.2753585971,431131.77307567844,151492.50520716052,344.7972264800437,1.9021212211420834e-06,0.0,0.0,0.0,1.9021212211420834e-06,0.0,24.29456453685065,0.5600547598953108,1.1552997540957274e-05,0.0
9753,6.8965517241379315,7.241379310344828,1.0714285714285714,0,197370.65888305721,194878.4345699992,328143.0315422844,101399.56110585933,-24836.594645818124,1.3158043925537148e-06,0.0,0.0,0.0,1.3158043925537148e-06,0.0,24.501231643528204,0.8698918874163507,-0.0008420422037971782,0.0
9754,6.8965517241379315,7.241379310344828,1.4285714285714286,0,387301.1206697363,524076.07822099957,382823.8972167392,85974.78570764745,42152.85095411412,2.5820074711315752e-06,0.0,0.0,0.0,2.5820074711315752e-06,0.0,24.062013973136985,1.1866983089098648,0.0014841053794621374,0.0
9755,6.8965517241379315,7.241379310344828,1.7857142857142858,0,269268.5677811644,536332.3245255962,686373.4695390089,375511.2071273632,137302.17977550358,1.7951237852077627e-06,0.0,0.0,0.0,1.7951237852077627e-06,0.0,24.553474159118625,1.5102668875248213,0.005423092626575402,0.0
9756,6.8965517241379315,7.241379310344828,2.142857142857143,0,429367.0715390488,877766.8251394916,767250.0731905686,403944.69323767576,460073.8038742386,2.8624471435936586e-06,0.0,0.0,0.0,2.8624471435936586e-06,0.0,24.389011704559024,1.8336084358448246,0.024662300156455742,0.0
9757,6.8965517241379315,7.241379310344828,2.5,0,378232.5990340215,938528.0236273085,572656.8763070207,549040.6970311679,663272.044833536,2.52155066022681e-06,0.0,0.0,0.0,2.52155066022681e-06,0.0,24.760104629502255,2.145638989024265,0.06632720448335361,0.0
9758,6.8965517241379315,7.241379310344828,2.857142857142857,0,683670.7854870554,1166854.3922330195,465840.8589344579,501958.117922164,273799.34972987865,4.55780523658037e-06,0.0,0.0,0.0,4.55780523658037e-06,0.0,23.94780893932549,2.440751292987682,0.014677040267927254,0.0
9759,6.8965517241379315,7.241379310344828,3.2142857142857144,0,224038.41778176857,453675.6857249542,537438.6479504269,283587.7415387366,-12152.084151592848,1.4935894518784572e-06,0.0,0.0,0.0,1.4935894518784572e-06,0.0,24.679041301629308,2.724552601810536,-0.00047997692438517774,0.0
9760,6.8965517241379315,7.241379310344828,3.5714285714285716,0,296466.27906536765,421129.5640769996,121055.55029051458,128407.7846590909,-92061.24031322297,1.9764418604357845e-06,0.0,0.0,0.0,1.9764418604357845e-06,0.0,22.989105408251806,3.0081268803384367,-0.0032412655110217606,0.0
9761,6.8965517241379315,7.241379310344828,3.928571428571429,0,168985.26603172917,399674.0286650604,247451.43058146423,217840.30716556302,37582.56758311541,1.1265684402115279e-06,0.0,0.0,0.0,1.1265684402115279e-06,0.0,23.90523378494134,3.29846331598778,0.0012741725861911315,0.0
9762,6.8965517241379315,7.241379310344828,4.285714285714286,0,131178.86330631908,237852.13698996275,93265.31860128584,126457.79251885926,6832.678799209792,8.745257553754606e-07,0.0,0.0,0.0,8.745257553754606e-07,0.0,23.54526752264046,3.5957690456095968,0.00022894012858305408,0.0
9763,6.8965517241379315,7.241379310344828,4.642857142857143,0,125780.15379855131,285445.0853995878,251776.11626039384,146256.8208417321,-14653.687022093744,8.385343586570087e-07,0.0,0.0,0.0,8.385343586570087e-07,0.0,24.391372333122376,3.897144443005342,-0.0004892284739223911,0.0
9764,6.8965517241379315,7.241379310344828,5.0,0,135290.5134035786,339367.63293015724,304551.7080126865,190071.79556963395,-67613.78073971982,9.019367560238573e-07,0.0,0.0,0.0,9.019367560238573e-07,0.0,24.708085590356802,4.200136365328541,-0.002254876177262337,0.0
9765,7.241379310344828,7.241379310344828,0.0,0,144304.07773670476,292964.8949701106,269182.08326819225,138246.8450638343,-42132.13334075038,9.62027184911365e-07,0.0,0.0,0.0,9.62027184911365e-07,0.0,24.089754541984806,-0.04986814590960637,-0.0014050795966137827,0.0
9766,7.241379310344828,7.241379310344828,0.35714285714285715,0,294562.5415932853,298085.95504658925,316158.9392188443,12976.02722890767,-62884.606569470445,1.9637502772885686e-06,0.0,0.0,0.0,1.9637502772885686e-06,0.0,24.776940891429312,0.2542636176828669,-0.0020994675305134394,0.0
9767,7.241379310344828,7.241379310344828,0.7142857142857143,0,152701.46665260263,332320.79761809146,390542.36821717984,217294.75745104146,51527.6726281266,1.0180097776840175e-06,0.0,0.0,0.0,1.0180097776840175e-06,0.0,23.716642383948592,0.5599584283210141,0.0017265193262755347,0.0
9768,7.241379310344828,7.241379310344828,1.0714285714285714,0,172695.01113496305,415962.48176106915,247126.64525272322,239651.08112756573,23638.215237798307,1.1513000742330869e-06,0.0,0.0,0.0,1.1513000742330869e-06,0.0,23.40782872694371,0.8695882739733939,0.0008014132024343015,0.0
9769,7.241379310344828,7.241379310344828,1.4285714285714286,0,470803.2516197615,398488.6605417758,539698.3028675518,14450.127611138856,-50492.270376195964,3.1386883441317435e-06,0.0,0.0,0.0,3.1386883441317435e-06,0.0,24.47485806181723,1.1859568553972437,-0.0017777172454632138,0.0
9770,7.241379310344828,7.241379310344828,1.7857142857142858,0,544175.2165048517,745013.1447758038,455050.01312281424,117260.71925540062,164756.51869738798,3.6278347766990116e-06,0.0,0.0,0.0,3.6278347766990116e-06,0.0,24.703235980802106,1.5088638882433667,0.00650747033433075,0.0
9771,7.241379310344828,7.241379310344828,2.142857142857143,0,79267.25596609937,726785.8099296346,807944.6115449397,730715.0462264589,276883.5129494005,5.284483731073292e-07,0.0,0.0,0.0,5.284483731073292e-07,0.0,24.175478006122418,1.8315514014113343,0.014842367131597459,0.0
9772,7.241379310344828,7.241379310344828,2.5,0,281362.32479410386,800844.3463600706,617273.5073316875,476914.42851056554,653747.1925267171,1.8757488319606924e-06,0.0,0.0,0.0,1.8757488319606924e-06,0.0,25.038588943794256,2.143302109808879,0.06537471925267171,0.0
9773,7.241379310344828,7.241379310344828,2.857142857142857,0,783252.5394144568,1257787.3307463985,929640.0754680531,363834.2098762121,374378.227802826,5.2216835960963785e-06,0.0,0.0,0.0,5.2216835960963785e-06,0.0,24.38641825297442,2.4386942585541913,0.020068580624162446,0.0
9774,7.241379310344828,7.241379310344828,3.2142857142857144,0,352191.61091584124,532190.104240729,556662.808664731,192873.12358113442,58798.94825124589,2.347944072772275e-06,0.0,0.0,0.0,2.347944072772275e-06,0.0,24.335802975752372,2.7231496025290816,0.0023224113647219093,0.0
9775,7.241379310344828,7.241379310344828,3.5714285714285716,0,302865.54887933546,315647.55204745923,425369.7490509915,82935.49409765446,-7589.053621065134,2.01910365919557e-06,0.0,0.0,0.0,2.01910365919557e-06,0.0,23.926534377511356,3.0073854268258153,-0.0002671932039972759,0.0
9776,7.241379310344828,7.241379310344828,3.928571428571429,0,119358.1408263411,239873.23100089066,261707.97337312985,132939.85420179748,1487.4015679223523,7.95720938842274e-07,0.0,0.0,0.0,7.95720938842274e-07,0.0,23.494838734272527,3.2981597025448233,5.0427802685727636e-05,0.0
9777,7.241379310344828,7.241379310344828,4.285714285714286,0,251753.6058167206,434155.6128572025,160408.47211131835,212566.31052253707,-9999.33097147782,1.6783573721114706e-06,0.0,0.0,0.0,1.6783573721114706e-06,0.0,24.017810169498162,3.5956727140352998,-0.0003350440121112384,0.0
9778,7.241379310344828,7.241379310344828,4.642857142857143,0,171153.21574740967,331872.8998445242,282128.03068183485,141357.74959276573,8872.633987900637,1.1410214383160644e-06,0.0,0.0,0.0,1.1410214383160644e-06,0.0,24.94634821486958,3.89712076054001,0.000296222048350556,0.0
9779,7.241379310344828,7.241379310344828,5.0,0,187611.54640907334,338045.9993384553,128414.02547490702,185912.79570326197,10284.122988216639,1.2507436427271556e-06,0.0,0.0,0.0,1.2507436427271556e-06,0.0,24.256092458458944,4.200131854090394,0.0003429688988910954,0.0
9780,7.586206896551724,7.241379310344828,0.0,0,106843.73760776207,351494.44583180523,229727.21675523365,273431.1715688155,-19032.21949930212,7.122915840517472e-07,0.0,0.0,0.0,7.122915840517472e-07,0.0,23.826584126962317,-0.04987302082862276,-0.0006347123009524804,0.0
9781,7.586206896551724,7.241379310344828,0.35714285714285715,0,288910.29041439714,436691.2794852684,268065.51624920365,103093.07963304424,39989.13206500503,1.9260686027626476e-06,0.0,0.0,0.0,1.9260686027626476e-06,0.0,23.574431799039516,0.2542380260167138,0.0013350784702953246,0.0
9782,7.586206896551724,7.241379310344828,0.7142857142857143,0,231720.9355402011,351205.34418398165,428197.3561512944,167780.7235067868,-30486.940583088646,1.5448062369346742e-06,0.0,0.0,0.0,1.5448062369346742e-06,0.0,24.30106209240671,0.5598543308187114,-0.0010215150312646707,0.0
9783,7.586206896551724,7.241379310344828,1.0714285714285714,0,299892.9034221926,551256.4936600381,286626.40308498935,225514.61493238926,14885.09799059044,1.9992860228146174e-06,0.0,0.0,0.0,1.9992860228146174e-06,0.0,23.473900384151282,0.8692601842343018,0.000504653753643482,0.0
9784,7.586206896551724,7.241379310344828,1.4285714285714286,0,310786.320339723,447815.3707229175,317475.03559369413,93082.28307165821,-9319.508798125662,2.07190880226482e-06,0.0,0.0,0.0,2.07190880226482e-06,0.0,24.21961819838776,1.185155628392485,-0.00032811856916389886,0.0
9785,7.586206896551724,7.241379310344828,1.7857142857142858,0,428850.6779146854,757448.7862723299,429465.4163674826,272158.04164608713,11519.202275945412,2.859004519431236e-06,0.0,0.0,0.0,2.859004519431236e-06,0.0,23.8152759682485,1.5073477838715843,0.0004549796735117495,0.0
9786,7.586206896551724,7.241379310344828,2.142857142857143,0,585124.7099383272,1074739.506361986,399499.4543815582,716893.7459842814,323444.52986367553,3.900831399588848e-06,0.0,0.0,0.0,3.900831399588848e-06,0.0,23.920273773701282,1.8293285357700284,0.01733827488609233,0.0
9787,7.586206896551724,7.241379310344828,2.5,0,626107.859895517,1081215.1784766342,781103.6924055261,361544.7637821703,556467.773648416,4.174052399303446e-06,0.0,0.0,0.0,4.174052399303446e-06,0.0,24.376399439748077,2.140776839239174,0.05564677736484161,0.0
9788,7.586206896551724,7.241379310344828,2.857142857142857,0,217096.64009369034,816995.8072598192,667011.2594157599,568051.161419557,410100.42064088944,1.4473109339579357e-06,0.0,0.0,0.0,1.4473109339579357e-06,0.0,23.585108338775438,2.4364713929128854,0.02198347217982236,0.0
9789,7.586206896551724,7.241379310344828,3.2142857142857144,0,398661.74882637453,666254.2075322,316309.38682449784,232273.77254939274,59904.244419007504,2.65774499217583e-06,0.0,0.0,0.0,2.65774499217583e-06,0.0,24.068077244460948,2.7216334981572987,0.0023660677983442357,0.0
9790,7.586206896551724,7.241379310344828,3.5714285714285716,0,241696.94433678777,480643.1602023124,201784.02465565267,331436.0777464295,65200.507284363055,1.6113129622452518e-06,0.0,0.0,0.0,1.6113129622452518e-06,0.0,23.305943784344027,3.0065841998210567,0.002295560594696603,0.0
9791,7.586206896551724,7.241379310344828,3.928571428571429,0,268915.2334556573,332328.8152009223,226568.16138438074,26611.750727214036,-35466.69041760251,1.7927682230377155e-06,0.0,0.0,0.0,1.7927682230377155e-06,0.0,24.017750538666867,3.297831612805731,-0.0012024373947601035,0.0
9792,7.586206896551724,7.241379310344828,4.285714285714286,0,195719.95617106935,376404.32511665876,259730.58033986707,150446.66283803072,-80023.66870971896,1.304799707807129e-06,0.0,0.0,0.0,1.304799707807129e-06,0.0,24.32750912784395,3.595568616532997,-0.0026813244910926562,0.0
9793,7.586206896551724,7.241379310344828,4.642857142857143,0,360278.7633487149,452905.7373938688,220958.28661277905,37848.29065227015,14334.769444507448,2.401858422324766e-06,0.0,0.0,0.0,2.401858422324766e-06,0.0,24.47944788730643,3.897095168873857,0.00047858108125225086,0.0
9794,7.586206896551724,7.241379310344828,5.0,0,384141.30359383574,513354.8672234865,177832.998879192,94330.42988417229,62541.154282050615,2.560942023958905e-06,0.0,0.0,0.0,2.560942023958905e-06,0.0,24.65561251513123,4.200126979171378,0.002085707341702317,0.0
9795,7.931034482758621,7.241379310344828,0.0,0,293293.83837394376,434039.3679028666,280934.3317912947,95875.66590022271,18119.50900626146,1.9552922558262918e-06,0.0,0.0,0.0,1.9552922558262918e-06,0.0,24.275053234274285,-0.04987818479782313,0.0006042739920015695,0.0
9796,7.931034482758621,7.241379310344828,0.35714285714285715,0,329986.3305286872,508901.5314167448,299498.3950971049,128512.2355460024,-34941.684777870694,2.1999088701912483e-06,0.0,0.0,0.0,2.1999088701912483e-06,0.0,23.74710702125589,0.25421091693544345,-0.0011665642301750506,0.0
9797,7.931034482758621,7.241379310344828,0.7142857142857143,0,241748.21505820449,325134.35859797674,269391.2416384891,60383.657584411376,-38042.73560276922,1.6116547670546966e-06,0.0,0.0,0.0,1.6116547670546966e-06,0.0,23.050047350999655,0.559744061028809,-0.0012746843568230341,0.0
9798,7.931034482758621,7.241379310344828,1.0714285714285714,0,259352.15114849433,437002.2168724152,225098.1357191025,147785.24894117977,77877.29791689497,1.7290143409899621e-06,0.0,0.0,0.0,1.7290143409899621e-06,0.0,24.4552998233043,0.868912640961903,0.002640296405318715,0.0
9799,7.931034482758621,7.241379310344828,1.4285714285714286,0,300354.92859379976,564545.2305191454,364710.23953482194,219143.38641325207,-11297.131963735925,2.002366190625332e-06,0.0,0.0,0.0,2.002366190625332e-06,0.0,23.70240698644205,1.1843068939701935,-0.0003977461533533065,0.0
9800,7.931034482758621,7.241379310344828,1.7857142857142858,0,422396.48967611487,523567.11901410844,422238.45095029566,59722.230911691026,2453.5483025563517,2.8159765978407657e-06,0.0,0.0,0.0,2.8159765978407657e-06,0.0,23.24613281105513,1.5057417846223378,9.690902016483404e-05,0.0
9801,7.931034482758621,7.241379310344828,2.142857142857143,0,529087.499647995,853358.5794005161,436832.3421129969,258038.61412813386,468986.0787834483,3.5272499976533e-06,0.0,0.0,0.0,3.5272499976533e-06,0.0,24.909957255769097,1.8269738690217785,0.025140043503364188,0.0
9802,7.931034482758621,7.241379310344828,2.5,0,489158.4890107131,1498621.268990001,1008935.6427604468,1009991.6269254814,625298.0928413959,3.2610565934047543e-06,0.0,0.0,0.0,3.2610565934047543e-06,0.0,23.948634474657577,2.138101836967185,0.06252980928413959,0.0
9803,7.931034482758621,7.241379310344828,2.857142857142857,0,305622.6902522834,760826.7764558407,728428.3462615289,440295.53036662604,164858.3723785423,2.0374846016818894e-06,0.0,0.0,0.0,2.0374846016818894e-06,0.0,24.228131953604052,2.4341167261646355,0.008837248781970963,0.0
9804,7.931034482758621,7.241379310344828,3.2142857142857144,0,426927.2786179347,466817.64458151604,431328.5114241149,23253.52431966462,200070.44578072865,2.8461818574528976e-06,0.0,0.0,0.0,2.8461818574528976e-06,0.0,24.102438509183674,2.720027498908052,0.007902282112950843,0.0
9805,7.931034482758621,7.241379310344828,3.5714285714285716,0,479902.38643196324,581419.8185121507,171803.25408901655,53397.97978456318,31623.089163599445,3.199349242879755e-06,0.0,0.0,0.0,3.199349242879755e-06,0.0,23.98590862606269,3.005735465398765,0.0011133765731289925,0.0
9806,7.931034482758621,7.241379310344828,3.928571428571429,0,286216.56757075514,474930.7591842828,211158.72138122842,170597.18997570514,-57683.01686756294,1.9081104504717008e-06,0.0,0.0,0.0,1.9081104504717008e-06,0.0,23.804340360414084,3.2974840695333323,-0.0019556438931136143,0.0
9807,7.931034482758621,7.241379310344828,4.285714285714286,0,251106.69072625777,404099.78266345157,410530.5304052802,156270.23178960392,51922.23303260015,1.6740446048417184e-06,0.0,0.0,0.0,1.6740446048417184e-06,0.0,23.71069056020716,3.595458346743095,0.0017397397208511443,0.0
9808,7.931034482758621,7.241379310344828,4.642857142857143,0,244013.12067019785,367380.68929411424,147689.53323234082,104746.85903030985,-38850.49621985628,1.626754137801319e-06,0.0,0.0,0.0,1.626754137801319e-06,0.0,25.120064785748518,3.897068059792587,-0.0012970639367492229,0.0
9809,7.931034482758621,7.241379310344828,5.0,0,86958.9239358694,338185.0088291766,240852.9814305177,310889.8113036473,-41074.270790443166,5.797261595724627e-07,0.0,0.0,0.0,5.797261595724627e-07,0.0,23.28325729316313,4.200121815202177,-0.0013698005597457194,0.0
9810,8.275862068965518,7.241379310344828,0.0,0,119475.61232148054,400642.8963651136,264240.5982108087,350336.767077299,-33820.06489531981,7.965040821432036e-07,0.0,0.0,0.0,7.965040821432036e-07,0.0,23.649403597937123,-0.04988357939967609,-0.001127877450596751,0.0
9811,8.275862068965518,7.241379310344828,0.35714285714285715,0,319300.5870274297,499185.9647481322,289845.64505725296,131674.90665842852,73571.72802884692,2.1286705801828647e-06,0.0,0.0,0.0,2.1286705801828647e-06,0.0,23.425521602696104,0.2541825971112195,0.0024562681168990314,0.0
9812,8.275862068965518,7.241379310344828,0.7142857142857143,0,220735.9674258379,398699.7102014069,152432.43060043923,218656.60226182805,77842.16087344535,1.4715731161722527e-06,0.0,0.0,0.0,1.4715731161722527e-06,0.0,24.13429813565924,0.5596288663810778,0.0026082294870366806,0.0
9813,8.275862068965518,7.241379310344828,1.0714285714285714,0,307575.604553606,561971.8728440977,288097.592713702,229209.78153721202,-21231.185592802758,2.0505040303573735e-06,0.0,0.0,0.0,2.0505040303573735e-06,0.0,23.6731399784577,0.8685495757482053,-0.00071980698484366,0.0
9814,8.275862068965518,7.241379310344828,1.4285714285714286,0,180789.06991909645,373789.3790973365,165286.427095201,278458.5004422054,83437.08686889677,1.2052604661273098e-06,0.0,0.0,0.0,1.2052604661273098e-06,0.0,23.635379094138912,1.183420253459862,0.002937628811953314,0.0
9815,8.275862068965518,7.241379310344828,1.7857142857142858,0,413046.2137798909,650087.3537728136,469576.91889677825,177511.37847099407,-80514.14492840218,2.7536414251992726e-06,0.0,0.0,0.0,2.7536414251992726e-06,0.0,24.210485313122206,1.5040640584025158,-0.0031801073108246635,0.0
9816,8.275862068965518,7.241379310344828,2.142857142857143,0,300566.39102289977,894826.4462966368,550711.467377317,761869.0383592418,453091.83597948524,2.003775940152665e-06,0.0,0.0,0.0,2.003775940152665e-06,0.0,24.861894809606234,1.8245140383933798,0.02428803110124517,0.0
9817,8.275862068965518,7.241379310344828,2.5,0,396365.393199933,890835.1320797788,599402.5647139711,439495.1926771844,811698.7327703002,2.64243595466622e-06,0.0,0.0,0.0,2.64243595466622e-06,0.0,23.48386271301349,2.135307364023375,0.08116987327703003,0.0
9818,8.275862068965518,7.241379310344828,2.857142857142857,0,428128.2978694899,937368.4572954287,838331.146826491,468400.7017067738,510373.8842874306,2.8541886524632657e-06,0.0,0.0,0.0,2.8541886524632657e-06,0.0,23.12813671045647,2.4316568955362365,0.02735864076658771,0.0
9819,8.275862068965518,7.241379310344828,3.2142857142857144,0,390426.3636342715,707130.8276659194,426105.4350618921,261329.26495293656,73767.42799635795,2.6028424242284766e-06,0.0,0.0,0.0,2.6028424242284766e-06,0.0,23.939806985737974,2.71834977268823,0.0029136288695676927,0.0
9820,8.275862068965518,7.241379310344828,3.5714285714285716,0,290270.55186453054,503381.12277461693,362094.07309189456,169516.26431133394,31518.21865582944,1.9351370124302037e-06,0.0,0.0,0.0,1.9351370124302037e-06,0.0,24.33207963452085,3.0048488248884335,0.001109684322635715,0.0
9821,8.275862068965518,7.241379310344828,3.928571428571429,0,336932.67210333195,562245.7572147461,314181.2224103897,178653.0624359836,-27863.727668992007,2.246217814022213e-06,0.0,0.0,0.0,2.246217814022213e-06,0.0,23.810358645885586,3.2971210043196346,-0.0009446719643730604,0.0
9822,8.275862068965518,7.241379310344828,4.285714285714286,0,330686.1891395132,415892.73555439134,363034.27845076146,61961.07445881391,962.2959534555523,2.2045745942634213e-06,0.0,0.0,0.0,2.2045745942634213e-06,0.0,24.239187485152,3.5953431520953636,3.224330687761082e-05,0.0
9823,8.275862068965518,7.241379310344828,4.642857142857143,0,406710.50492100406,466588.45670606266,173866.1297526507,2188.515263000902,-6229.178717039103,2.711403366140027e-06,0.0,0.0,0.0,2.711403366140027e-06,0.0,23.653350129922035,3.8970397399683625,-0.00020796756426775704,0.0
9824,8.275862068965518,7.241379310344828,5.0,0,228205.2469606584,384270.0337673194,335188.25653417717,135517.48377225923,-8408.832680841288,1.521368313071056e-06,0.0,0.0,0.0,1.521368313071056e-06,0.0,25.128150595254933,4.200116420600324,-0.0002804291711419624,0.0
9825,8.620689655172415,7.241379310344828,0.0,0,375705.7929140216,519571.51468272693,273590.6079263535,87105.87980748067,44139.73849613921,2.504705286093477e-06,0.0,0.0,0.0,2.504705286093477e-06,0.0,24.090475720326523,-0.04988915924157275,0.0014720319395934143,0.0
9826,8.620689655172415,7.241379310344828,0.35714285714285715,0,357246.88902571774,575734.1144544741,242938.7714611112,198242.18799096276,8363.541219852448,2.381645926838118e-06,0.0,0.0,0.0,2.381645926838118e-06,0.0,23.545842476638114,0.25415330483979365,0.0002792254605551688,0.0
9827,8.620689655172415,7.241379310344828,0.7142857142857143,0,245101.10018019416,431793.2821464854,183515.13487623227,189997.842340295,66095.59354374121,1.6340073345346278e-06,0.0,0.0,0.0,1.6340073345346278e-06,0.0,23.416798781439315,0.5595097161751492,0.0022146414502065307,0.0
9828,8.620689655172415,7.241379310344828,1.0714285714285714,0,164500.4825799184,322305.7028617259,330288.2532578556,161941.82013675512,10229.939554101229,1.0966698838661227e-06,0.0,0.0,0.0,1.0966698838661227e-06,0.0,23.932732967456584,0.8681740435873838,0.0003468285797504738,0.0
9829,8.620689655172415,7.241379310344828,1.4285714285714286,0,151674.37225021463,416038.7912488903,240936.33276976796,325411.5299187764,108281.82629807899,1.0111624816680976e-06,0.0,0.0,0.0,1.0111624816680976e-06,0.0,24.13917990017574,1.182503167453947,0.003812355208948905,0.0
9830,8.620689655172415,7.241379310344828,1.7857142857142858,0,384646.93700692366,707195.6474312848,537942.1945492183,266945.2186524688,152672.6890744443,2.564312913379491e-06,0.0,0.0,0.0,2.564312913379491e-06,0.0,23.1531894979887,1.5023287223559145,0.006030189293081972,0.0
9831,8.620689655172415,7.241379310344828,2.142857142857143,0,972089.9662989861,1082407.69254614,1076720.9562879298,107486.83349760654,365478.57323559123,6.480599775326574e-06,0.0,0.0,0.0,6.480599775326574e-06,0.0,23.817310220814488,1.8219697420072585,0.019591513791889788,0.0
9832,8.620689655172415,7.241379310344828,2.5,0,811517.4053241267,1330050.6113086718,1045656.661386054,414613.3372943701,693754.4242506458,5.410116035494178e-06,0.0,0.0,0.0,5.410116035494178e-06,0.0,24.187917581238167,2.1324169343612813,0.06937544242506458,0.0
9833,8.620689655172415,7.241379310344828,2.857142857142857,0,409529.6841717098,1083141.5927953336,970315.7788975715,629026.1412147755,290773.6667939762,2.7301978944780653e-06,0.0,0.0,0.0,2.7301978944780653e-06,0.0,23.98809693986858,2.4291125991501157,0.015586950153820377,0.0
9834,8.620689655172415,7.241379310344828,3.2142857142857144,0,567909.5018137954,670382.806045431,372346.11492237286,15497.086255530274,81242.41276029778,3.786063345425303e-06,0.0,0.0,0.0,3.786063345425303e-06,0.0,24.137914204854283,2.716614436641629,0.003208872068352786,0.0
9835,8.620689655172415,7.241379310344828,3.5714285714285716,0,225151.5583655112,407870.411218206,398423.8643789864,178144.25715252754,-40042.060656247246,1.5010103891034081e-06,0.0,0.0,0.0,1.5010103891034081e-06,0.0,24.57614812156216,3.003931738882519,-0.001409789285412158,0.0
9836,8.620689655172415,7.241379310344828,3.928571428571429,0,236595.287107678,434407.17180354876,189473.00906101216,207141.36991158882,53757.76431879785,1.5773019140511867e-06,0.0,0.0,0.0,1.5773019140511867e-06,0.0,22.28072993715793,3.296745472158813,0.0018225649282330898,0.0
9837,8.620689655172415,7.241379310344828,4.285714285714286,0,244695.29395896313,535145.8927259287,255006.044073678,363184.9699286998,-13406.72056663466,1.631301959726421e-06,0.0,0.0,0.0,1.631301959726421e-06,0.0,23.949364569079084,3.5952240018894353,-0.0004492141985010896,0.0
9838,8.620689655172415,7.241379310344828,4.642857142857143,0,195670.23942605354,468460.0962902482,407866.4338188325,249660.88138718664,13838.005067236723,1.3044682628403569e-06,0.0,0.0,0.0,1.3044682628403569e-06,0.0,22.66919272993854,3.8970104476969367,0.0004619960895143532,0.0
9839,8.620689655172415,7.241379310344828,5.0,0,240649.47992456888,430615.5393851552,225018.01353774336,165923.55482436964,-88745.55287037851,1.6043298661637924e-06,0.0,0.0,0.0,1.6043298661637924e-06,0.0,23.82709751556287,4.200110840758428,-0.0029596072104844844,0.0
9840,8.965517241379311,7.241379310344828,0.0,0,244779.10404068246,482756.82113673934,369207.88519737613,201824.39739649394,-10693.857466708816,1.6318606936045497e-06,0.0,0.0,0.0,1.6318606936045497e-06,0.0,24.348086533852065,-0.04989488906761649,-0.00035663328068497236,0.0
9841,8.965517241379311,7.241379310344828,0.35714285714285715,0,358046.2074773677,370688.77296123025,361616.4831471156,8192.634679113244,-14881.41339936515,2.3869747165157846e-06,0.0,0.0,0.0,2.3869747165157846e-06,0.0,23.638975744812992,0.2541232252026275,-0.0004968313541979415,0.0
9842,8.965517241379311,7.241379310344828,0.7142857142857143,0,287900.16559878766,360849.94796250144,367518.3856065427,76341.92821215754,36997.45804822377,1.919334437325251e-06,0.0,0.0,0.0,1.919334437325251e-06,0.0,23.240791431673177,0.5593873632544591,0.0012396606150703424,0.0
9843,8.965517241379311,7.241379310344828,1.0714285714285714,0,152794.27947368176,351944.26520357816,184819.17494855632,219412.39298941358,21887.71942566257,1.018628529824545e-06,0.0,0.0,0.0,1.018628529824545e-06,0.0,24.125528192538663,0.8677884172568919,0.0007420656400003873,0.0
9844,8.965517241379311,7.241379310344828,1.4285714285714286,0,231238.99093332895,468870.9107108312,387161.1511653856,207870.38068779503,55017.78803561033,1.5415932728888598e-06,0.0,0.0,0.0,1.5415932728888598e-06,0.0,23.7873996904444,1.1815614305054185,0.0019370503617570298,0.0
9845,8.965517241379311,7.241379310344828,1.7857142857142858,0,273441.66515229666,630766.7753151027,460661.69889657764,315348.1339705339,103062.29629241074,1.8229444343486445e-06,0.0,0.0,0.0,1.8229444343486445e-06,0.0,23.81675895836663,1.5005467410993498,0.004070702883342132,0.0
9846,8.965517241379311,7.241379310344828,2.142857142857143,0,744084.5814982193,1267344.8122437778,936686.588676252,415240.10478573927,510566.1459547124,4.960563876654795e-06,0.0,0.0,0.0,4.960563876654795e-06,0.0,24.805656543207537,1.8193570558476564,0.027368946971607765,0.0
9847,8.965517241379311,7.241379310344828,2.5,0,626412.6427184609,1086795.5680106822,443155.9586809612,479163.1692672206,743292.762315564,4.1760842847897395e-06,0.0,0.0,0.0,4.1760842847897395e-06,0.0,22.97817193537637,2.1294488109875074,0.0743292762315564,0.0
9848,8.965517241379311,7.241379310344828,2.857142857142857,0,398188.8768678608,856824.0100029868,789562.4985745556,429288.0645900815,244494.11625250938,2.6545925124524053e-06,0.0,0.0,0.0,2.6545925124524053e-06,0.0,23.418237578987455,2.4264999129905136,0.013106130431097129,0.0
9849,8.965517241379311,7.241379310344828,3.2142857142857144,0,716396.0872513923,956564.5827982262,513428.7238640034,130061.6884596206,66345.91606807907,4.775973915009282e-06,0.0,0.0,0.0,4.775973915009282e-06,0.0,23.92920672620468,2.7148324553850642,0.0026204977140237857,0.0
9850,8.965517241379311,7.241379310344828,3.5714285714285716,0,280562.90054541436,437506.3050571356,145227.06991961238,170349.42552536138,4178.890254506094,1.8704193369694292e-06,0.0,0.0,0.0,1.8704193369694292e-06,0.0,24.355387363060984,3.00299000193399,0.00014712915891846904,0.0
9851,8.965517241379311,7.241379310344828,3.928571428571429,0,316470.6596406374,426543.538040607,216401.6481234737,62563.40438854935,-134860.16591396555,2.1098043976042495e-06,0.0,0.0,0.0,2.1098043976042495e-06,0.0,23.27038904503074,3.296359845828321,-0.004572202950124205,0.0
9852,8.965517241379311,7.241379310344828,4.285714285714286,0,316058.85215680674,437939.8209402736,134149.6118090455,110896.69425142303,-40826.865689566985,2.1070590143787117e-06,0.0,0.0,0.0,2.1070590143787117e-06,0.0,23.54992419230583,3.595101648968745,-0.0013679712094315812,0.0
9853,8.965517241379311,7.241379310344828,4.642857142857143,0,76205.02355824385,309376.60323261505,222115.61278443903,255930.5451099969,81751.94642153033,5.080334903882923e-07,0.0,0.0,0.0,5.080334903882923e-07,0.0,23.725858864785035,3.8969803680597708,0.0027293731555538404,0.0
9854,8.965517241379311,7.241379310344828,5.0,0,306219.1174490037,499243.5378603528,324200.2605796081,145657.92909181942,-10990.907921342927,2.041460782993358e-06,0.0,0.0,0.0,2.041460782993358e-06,0.0,23.688754962215594,4.200105110932384,-0.0003665397226302594,0.0
9855,9.310344827586208,7.241379310344828,0.0,0,220651.87599801124,466333.3995453646,305700.90485962416,214742.0763166014,-4357.380263920438,1.4710125066534082e-06,0.0,0.0,0.0,1.4710125066534082e-06,0.0,23.960657426430537,-0.04990074139236876,-0.00014531583421152118,0.0
9856,9.310344827586208,7.241379310344828,0.35714285714285715,0,323130.6171975581,542652.8870356551,303612.98512191337,175023.404338715,-90120.11700741468,2.1542041146503874e-06,0.0,0.0,0.0,2.1542041146503874e-06,0.0,23.59157925095784,0.2540925024889215,-0.0030087531722746757,0.0
9857,9.310344827586208,7.241379310344828,0.7142857142857143,0,199010.90902127948,358650.557848747,204215.69920027012,134063.70247166438,-55908.47397107234,1.3267393934751965e-06,0.0,0.0,0.0,1.3267393934751965e-06,0.0,23.946184695989146,0.5592623945345012,-0.0018733052724942863,0.0
9858,9.310344827586208,7.241379310344828,1.0714285714285714,0,332706.838053664,436065.20138415234,395130.01954941783,84784.86395633862,20983.609325347003,2.218045587024427e-06,0.0,0.0,0.0,2.218045587024427e-06,0.0,23.024681968355022,0.8673945465700962,0.0007114133355197812,0.0
9859,9.310344827586208,7.241379310344828,1.4285714285714286,0,296451.49715388374,500813.74447374424,345961.4754009719,159003.28506721868,-16847.41174688309,1.976343314359225e-06,0.0,0.0,0.0,1.976343314359225e-06,0.0,23.70318629921792,1.1805995600381587,-0.0005931587979845162,0.0
9860,9.310344827586208,7.241379310344828,1.7857142857142858,0,380775.1420694319,749371.6826762812,503061.1067679878,310799.1568216201,-3952.5830197251053,2.538500947129546e-06,0.0,0.0,0.0,2.538500947129546e-06,0.0,23.652882239449735,1.4987266626299025,-0.00015611714151403928,0.0
9861,9.310344827586208,7.241379310344828,2.142857142857143,0,339879.5426045178,747798.0247241856,936575.7995725415,544209.8706274877,534579.746687693,2.265863617363452e-06,0.0,0.0,0.0,2.265863617363452e-06,0.0,24.06216943185201,1.8166885127252215,0.028656198330252694,0.0
9862,9.310344827586208,7.241379310344828,2.5,0,698683.6220065348,1268379.781681313,622584.2694008992,526710.1056383636,628980.8832864634,4.657890813376899e-06,0.0,0.0,0.0,4.657890813376899e-06,0.0,24.904967168669486,2.126417231711706,0.06289808832864634,0.0
9863,9.310344827586208,7.241379310344828,2.857142857142857,0,213140.03848496947,753735.641915211,786430.9404121954,558832.3998105089,260559.34093854812,1.4209335898997965e-06,0.0,0.0,0.0,1.4209335898997965e-06,0.0,24.12794450765454,2.4238313698680782,0.013967308333319729,0.0
9864,9.310344827586208,7.241379310344828,3.2142857142857144,0,618223.7638909563,762817.0360341758,558547.4867874596,68308.99591227373,77859.07718094661,4.121491759273042e-06,0.0,0.0,0.0,4.121491759273042e-06,0.0,23.30276345585729,2.713012376915617,0.0030752387767065074,0.0
9865,9.310344827586208,7.241379310344828,3.5714285714285716,0,8499.177051184945,285356.3140928715,293612.9436738947,284890.38666962046,-34249.49277084471,5.6661180341232965e-08,0.0,0.0,0.0,5.6661180341232965e-08,0.0,23.97590249629212,3.0020281314667305,-0.00120584623138282,0.0
9866,9.310344827586208,7.241379310344828,3.928571428571429,0,248984.80590105057,269244.8621627156,355101.1699250348,74549.46000901934,-34627.139724762375,1.6598987060070038e-06,0.0,0.0,0.0,1.6598987060070038e-06,0.0,23.63891535009807,3.2959659751415256,-0.0011739738664189674,0.0
9867,9.310344827586208,7.241379310344828,4.285714285714286,0,206813.28153309168,482974.52743447083,330125.1355782658,247648.8215178316,-2530.301456799206,1.3787552102206112e-06,0.0,0.0,0.0,1.3787552102206112e-06,0.0,23.49938909520315,3.594976680248787,-8.478190734510958e-05,0.0
9868,9.310344827586208,7.241379310344828,4.642857142857143,0,139937.02367553618,368462.8659052416,281224.9582009074,207053.71216490414,-26624.948749090483,9.329134911702413e-07,0.0,0.0,0.0,9.329134911702413e-07,0.0,23.409037158981523,3.896949645346065,-0.0008889014092589975,0.0
9869,9.310344827586208,7.241379310344828,5.0,0,298113.2235843097,331906.38171179657,278606.94679328066,10738.63126668941,-68948.37100281449,1.9874214905620644e-06,0.0,0.0,0.0,1.9874214905620644e-06,0.0,23.38721796842919,4.200099258607631,-0.0022993839056830107,0.0
9870,9.655172413793103,7.241379310344828,0.0,0,266082.43413372344,538610.5239558114,345587.3805733309,235081.05124249274,23987.97000032421,1.773882894224823e-06,0.0,0.0,0.0,1.773882894224823e-06,0.0,22.951613703962273,-0.04990669465504395,0.0007999833983967633,0.0
9871,9.655172413793103,7.241379310344828,0.35714285714285715,0,173880.32410755227,457686.8485344238,368414.8840905418,257303.46060376763,37194.9994847987,1.1592021607170151e-06,0.0,0.0,0.0,1.1592021607170151e-06,0.0,22.880814443028356,0.2540612498854642,0.001241793468637369,0.0
9872,9.655172413793103,7.241379310344828,0.7142857142857143,0,213373.4392388154,506071.2659546059,307059.5327440531,280772.02867344976,-10792.362730068005,1.4224895949254359e-06,0.0,0.0,0.0,1.4224895949254359e-06,0.0,23.860796595337423,0.559135270417576,-0.0003616158440555528,0.0
9873,9.655172413793103,7.241379310344828,1.0714285714285714,0,310806.75177755347,429190.4130531564,410227.62260002596,109336.42498987385,27816.810285231408,2.0720450118503564e-06,0.0,0.0,0.0,2.0720450118503564e-06,0.0,23.35987358185524,0.8669938826018773,0.0009430813108321241,0.0
9874,9.655172413793103,7.241379310344828,1.4285714285714286,0,497894.004455153,792411.6529844422,429091.63492315647,224879.4332034679,-12547.396914264875,3.3192933630343534e-06,0.0,0.0,0.0,3.3192933630343534e-06,0.0,23.63378278258135,1.1796210997179455,-0.0004417651199672807,0.0
9875,9.655172413793103,7.241379310344828,1.7857142857142858,0,347637.03238744295,649691.1068532891,252979.9243236628,398263.0695443446,-63305.530513617516,2.3175802159162863e-06,0.0,0.0,0.0,2.3175802159162863e-06,0.0,23.11258265900267,1.4968751923720598,-0.002500410090438305,0.0
9876,9.655172413793103,7.241379310344828,2.142857142857143,0,955741.2790986995,1476997.5080276106,458813.0178370959,599236.5084591415,511133.42322882963,6.371608527324663e-06,0.0,0.0,0.0,6.371608527324663e-06,0.0,23.841749701417342,1.8139739439272835,0.027399355924015843,0.0
9877,9.655172413793103,7.241379310344828,2.5,0,621287.7203311985,1272546.2688058028,1206479.5662154476,620865.3405001226,730604.1831314828,4.141918135541324e-06,0.0,0.0,0.0,4.141918135541324e-06,0.0,23.205128951603868,2.123333365297339,0.07306041831314827,0.0
9878,9.655172413793103,7.241379310344828,2.857142857142857,0,378385.5606093298,732638.9014097756,712434.0052862795,344555.694436789,429511.8682364593,2.5225704040621985e-06,0.0,0.0,0.0,2.5225704040621985e-06,0.0,22.89225028872313,2.4211168010701405,0.023024024680403585,0.0
9879,9.655172413793103,7.241379310344828,3.2142857142857144,0,330335.28867570014,810412.7637603971,541597.0772055566,441644.0919706262,69990.37683730896,2.2022352578380008e-06,0.0,0.0,0.0,2.2022352578380008e-06,0.0,24.350484272336743,2.711160906657774,0.002764444797440593,0.0
9880,9.655172413793103,7.241379310344828,3.5714285714285716,0,213350.75839357084,548396.2772689426,478698.64733087824,308913.0898380136,-2882.7324562470003,1.4223383892904723e-06,0.0,0.0,0.0,1.4223383892904723e-06,0.0,23.675031724758238,3.001049671146517,-0.00010149441020071061,0.0
9881,9.655172413793103,7.241379310344828,3.928571428571429,0,170155.4905747363,350603.9911217369,310196.50447699736,163882.02885615188,6590.817216222956,1.1343699371649086e-06,0.0,0.0,0.0,1.1343699371649086e-06,0.0,23.4197828955429,3.2955653111733065,0.00022345036961446738,0.0
9882,9.655172413793103,7.241379310344828,4.285714285714286,0,226920.3720445137,351433.23484290135,304850.47701866576,104836.25758193567,6953.214429621917,1.512802480296758e-06,0.0,0.0,0.0,1.512802480296758e-06,0.0,23.48454637658115,3.594849556131862,0.00023297887290813236,0.0
9883,9.655172413793103,7.241379310344828,4.642857142857143,0,278742.5042237328,427419.33524462004,226047.7698617931,109283.55105316036,54273.9135598819,1.858283361491552e-06,0.0,0.0,0.0,1.858283361491552e-06,0.0,23.405747953489186,3.8969183927426077,0.0018119906522271925,0.0
9884,9.655172413793103,7.241379310344828,5.0,0,153464.55664859604,459496.3180273543,332398.5145222593,289008.26813211147,18816.589133427497,1.0230970443239737e-06,0.0,0.0,0.0,1.0230970443239737e-06,0.0,23.83671775065612,4.200093305344956,0.0006275211666927834,0.0
9885,10.0,7.241379310344828,0.0,0,125124.74365558557,226857.80466591055,366521.85707824444,264648.2044667335,52762.32704186073,8.341649577039038e-07,0.0,0.0,0.0,8.341649577039038e-07,0.0,22.66074473445791,-0.04991273181431152,0.0017595897315904059,0.0
9886,10.0,7.241379310344828,0.35714285714285715,0,331323.3525850078,543015.7478794191,262138.50029563546,177619.03285609858,67597.20891617406,2.2088223505667187e-06,0.0,0.0,0.0,2.2088223505667187e-06,0.0,22.536583097872384,0.25402955685344253,0.002256802626507012,0.0
9887,10.0,7.241379310344828,0.7142857142857143,0,217058.93187008775,405471.6569757949,232004.6150931572,162065.00834517248,-72501.74298852884,1.447059545800585e-06,0.0,0.0,0.0,1.447059545800585e-06,0.0,23.50020583377165,0.5590063547989481,-0.002429290012024124,0.0
9888,10.0,7.241379310344828,1.0714285714285714,0,475471.4478667912,340112.5754645534,568016.5167918991,21493.230756831017,59482.428480500035,3.1698096524452746e-06,0.0,0.0,0.0,3.1698096524452746e-06,0.0,22.57739782670539,0.8665875722606593,0.00201664986199554,0.0
9889,10.0,7.241379310344828,1.4285714285714286,0,379801.7087128974,640137.691189522,367107.0988507411,206401.8377287703,41956.91010142488,2.532011391419316e-06,0.0,0.0,0.0,2.532011391419316e-06,0.0,22.500097959677134,1.1786288504065299,0.0014772067506161539,0.0
9890,10.0,7.241379310344828,1.7857142857142858,0,557187.5410116705,768089.9282649277,434688.8040136185,124848.99678993424,118984.29651898798,3.71458360674447e-06,0.0,0.0,0.0,3.71458360674447e-06,0.0,23.909605124504825,1.4949976301955474,0.004699582061882953,0.0
9891,10.0,7.241379310344828,2.142857142857143,0,803504.723944215,1421514.287295371,961963.2016669528,493720.5203824098,544393.5871200669,5.3566981596281e-06,0.0,0.0,0.0,5.3566981596281e-06,0.0,23.54625989563883,1.811221119959975,0.029182270183056823,0.0
9892,10.0,7.241379310344828,2.5,0,573928.8394312756,1463189.1941450362,928077.4548891882,857054.1127898311,740641.9098225714,3.8261922628751705e-06,0.0,0.0,0.0,3.8261922628751705e-06,0.0,23.557742844892072,2.12020603937217,0.07406419098225715,0.0
9893,10.0,7.241379310344828,2.857142857142857,0,799652.7274316596,1143054.867590117,552087.5387800599,233150.58447326388,500146.0856377475,5.331018182877731e-06,0.0,0.0,0.0,5.331018182877731e-06,0.0,22.912922379933573,2.418363977102832,0.02681037864404524,0.0
9894,10.0,7.241379310344828,3.2142857142857144,0,355254.2100136461,748161.8761265908,614772.6037655774,345519.2822998598,-340.1987932436168,2.368361400090974e-06,0.0,0.0,0.0,2.368361400090974e-06,0.0,24.1721530073574,2.709283344481262,-1.3437001293248705e-05,0.0
9895,10.0,7.241379310344828,3.5714285714285716,0,288514.86920036614,590751.0137451676,285195.7669620246,323004.5984047642,-69300.92296219694,1.9234324613357744e-06,0.0,0.0,0.0,1.9234324613357744e-06,0.0,23.98478247409056,3.0000574218351015,-0.0024399268434262215,0.0
9896,10.0,7.241379310344828,3.928571428571429,0,245278.0401473079,425247.63200444565,470678.39468721196,205861.0692601792,24945.575656769543,1.635186934315386e-06,0.0,0.0,0.0,1.635186934315386e-06,0.0,22.806979873670137,3.2951590008320886,0.0008457370183215611,0.0
9897,10.0,7.241379310344828,4.285714285714286,0,233835.79457171654,373246.81131077337,359484.5594586528,132833.82644260832,-3119.551362192273,1.5589052971447768e-06,0.0,0.0,0.0,1.5589052971447768e-06,0.0,23.43689891179976,3.5947206405132337,-0.00010452569350462331,0.0
9898,10.0,7.241379310344828,4.642857142857143,0,284561.23135812924,503255.88568915444,289140.85080038,180348.51703335467,-130.51470693323537,1.8970748757208615e-06,0.0,0.0,0.0,1.8970748757208615e-06,0.0,23.291208037006292,3.8968866997105858,-4.357368271964883e-06,0.0
9899,10.0,7.241379310344828,5.0,0,149833.8807564415,435493.9464416248,323724.60939802433,265237.50126508746,-35770.727621592014,9.988925383762767e-07,0.0,0.0,0.0,9.988925383762767e-07,0.0,23.478426628890436,4.200087268185689,-0.00119293080012437,0.0
9900,0.0,7.586206896551724,0.0,0,225641.70782887924,451463.8555432156,394933.6874376261,202932.03459535845,17542.456819504256,1.5042780521925282e-06,0.0,0.0,0.0,1.5042780521925282e-06,0.0,23.93547736052951,-0.04991562469392928,0.0005850296720608628,0.0
9901,0.0,7.586206896551724,0.35714285714285715,0,319573.88481500087,546268.4289066553,330661.6301119075,179114.39987661157,-19123.06922601846,2.1304925654333393e-06,0.0,0.0,0.0,2.1304925654333393e-06,0.0,23.205934134807162,0.25401437021974665,-0.0006384434142787167,0.0
9902,0.0,7.586206896551724,0.7142857142857143,0,197327.76025420777,439725.5925167398,505960.4954287417,284036.4016263435,-2088.8589617405546,1.3155184016947185e-06,0.0,0.0,0.0,1.3155184016947185e-06,0.0,23.89297438394322,0.558944581148625,-6.99906513018078e-05,0.0
9903,0.0,7.586206896551724,1.0714285714285714,0,216380.3066057385,464983.28487571137,429827.78143207077,233177.83881907465,-22265.045849281807,1.44253537737159e-06,0.0,0.0,0.0,1.44253537737159e-06,0.0,22.540565941011412,0.8663928768993978,-0.0007548582461457208,0.0
9904,0.0,7.586206896551724,1.4285714285714286,0,368027.7688975706,474128.7069871458,429656.4853354609,85885.62244939961,-36438.216688752356,2.4535184593171372e-06,0.0,0.0,0.0,2.4535184593171372e-06,0.0,23.103005060062472,1.1781533854268094,-0.001282906189777097,0.0
9905,0.0,7.586206896551724,1.7857142857142858,0,437442.04131703964,838218.7358337367,395593.692047141,406150.8048252651,65316.09713797306,2.916280275446931e-06,0.0,0.0,0.0,2.916280275446931e-06,0.0,23.214444712887264,1.4940979419297968,0.002579822442475315,0.0
9906,0.0,7.586206896551724,2.142857142857143,0,509064.56033224234,1223399.9358335822,766790.43615705,674505.8065858925,566806.409139496,3.393763735548282e-06,0.0,0.0,0.0,3.393763735548282e-06,0.0,23.149769576354615,1.8099020246713888,0.03038371164601714,0.0
9907,0.0,7.586206896551724,2.5,0,1209880.924878028,1587720.8905810947,1070595.4336283177,205215.19259413143,712636.4410653197,8.065872832520186e-06,0.0,0.0,0.0,8.065872832520186e-06,0.0,23.436967931246848,2.11870749062995,0.07126364410653196,0.0
9908,0.0,7.586206896551724,2.857142857142857,0,938860.4954048031,1010965.8825315081,612208.6963612867,-61455.41265353872,416768.2280762371,6.259069969365354e-06,0.0,0.0,0.0,6.259069969365354e-06,0.0,23.50847461084791,2.417044881814246,0.02234090063362961,0.0
9909,0.0,7.586206896551724,3.2142857142857144,0,573571.111524087,701072.5912047123,739851.3396492038,147874.87469159588,60832.93342447104,3.82380741016058e-06,0.0,0.0,0.0,3.82380741016058e-06,0.0,23.5494693514059,2.7083836562155112,0.002402748690855525,0.0
9910,0.0,7.586206896551724,3.5714285714285716,0,390217.8649513,624090.8816002618,272154.3469576283,204451.75263366773,-27551.643443425553,2.601452433008667e-06,0.0,0.0,0.0,2.601452433008667e-06,0.0,23.88212061130257,2.9995819568553808,-0.0009700302902862084,0.0
9911,0.0,7.586206896551724,3.928571428571429,0,215052.49650445368,486974.02478822734,265430.347739189,279061.17729997745,57283.42885118887,1.4336833100296912e-06,0.0,0.0,0.0,1.4336833100296912e-06,0.0,23.810454567717464,3.294964305470827,0.0019420965457933885,0.0
9912,0.0,7.586206896551724,4.285714285714286,0,234583.87710469612,368418.99304962304,264377.73421853513,99808.52605368126,-61264.9241056662,1.5638925140313075e-06,0.0,0.0,0.0,1.5638925140313075e-06,0.0,22.697425005656054,3.5946588668629107,-0.0020527819343716834,0.0
9913,0.0,7.586206896551724,4.642857142857143,0,291930.3732990825,565750.7784194548,380706.63730013947,229215.71182761271,-3829.4206187655377,1.94620248866055e-06,0.0,0.0,0.0,1.94620248866055e-06,0.0,23.528155019496666,3.89687151307689,-0.00012784916195500393,0.0
9914,0.0,7.586206896551724,5.0,0,352123.6249259492,296118.04983456153,241721.95621094937,-80038.22654041015,-37827.48799997326,2.3474908328396614e-06,0.0,0.0,0.0,2.3474908328396614e-06,0.0,23.151902848707454,4.200084375306071,-0.0012615224382314298,0.0
9915,0.3448275862068966,7.586206896551724,0.0,0,329821.56755678216,493405.90343864425,145013.88363806935,185982.58091039033,24192.594286413925,2.198810450378548e-06,0.0,0.0,0.0,2.198810450378548e-06,0.0,23.888286488440247,-0.04990975756115692,0.0008068074869619212,0.0
9916,0.3448275862068966,7.586206896551724,0.35714285714285715,0,227999.34209869924,318644.6180308142,391442.2709998662,135933.7087912337,5712.664859856153,1.5199956139913283e-06,0.0,0.0,0.0,1.5199956139913283e-06,0.0,24.13098023550436,0.2540451706705197,0.0001907232157479347,0.0
9917,0.3448275862068966,7.586206896551724,0.7142857142857143,0,293554.28473703866,589357.1989940497,261531.11381601545,350800.593419953,50602.115294049814,1.957028564913591e-06,0.0,0.0,0.0,1.957028564913591e-06,0.0,23.90875829447563,0.5590698660744319,0.0016955070071981277,0.0
9918,0.3448275862068966,7.586206896551724,1.0714285714285714,0,261978.83571195672,304697.8778346047,214409.47673216424,9515.852483283395,32669.176256439547,1.7465255714130449e-06,0.0,0.0,0.0,1.7465255714130449e-06,0.0,24.445698348216546,0.8667877441893026,0.0011075924684321656,0.0
9919,0.3448275862068966,7.586206896551724,1.4285714285714286,0,393876.7021291332,630449.9331112523,281307.4985798192,203463.33044436818,10621.408492373816,2.625844680860888e-06,0.0,0.0,0.0,2.625844680860888e-06,0.0,23.873940678337682,1.179117689695645,0.0003739554768942221,0.0
9920,0.3448275862068966,7.586206896551724,1.7857142857142858,0,729929.9661255407,721982.6648985976,765785.3334809127,14940.414186886846,131945.90768371095,4.866199774170271e-06,0.0,0.0,0.0,4.866199774170271e-06,0.0,24.00160120947884,1.4959226257073368,0.00521153327817739,0.0
9921,0.3448275862068966,7.586206896551724,2.142857142857143,0,601097.9851272808,1007710.5254103619,618310.2211113602,315421.84849068476,501024.6848663307,4.0073199008485385e-06,0.0,0.0,0.0,4.0073199008485385e-06,0.0,23.109866584385113,1.8125773199550328,0.026857476039528493,0.0
9922,0.3448275862068966,7.586206896551724,2.5,0,1095048.6200450761,1326950.3639218847,864084.8942214804,76474.86844684329,621520.4669630083,7.300324133633841e-06,0.0,0.0,0.0,7.300324133633841e-06,0.0,23.499183116318754,2.1217467406500674,0.062152046696300825,0.0
9923,0.3448275862068966,7.586206896551724,2.857142857142857,0,485806.5699208017,1224873.3969781643,664010.0590625163,935371.9697654044,494214.5829062824,3.238710466138678e-06,0.0,0.0,0.0,3.238710466138678e-06,0.0,23.86131718542823,2.4197201770978896,0.026492419874147063,0.0
9924,0.3448275862068966,7.586206896551724,3.2142857142857144,0,323921.94811108994,601206.1843558414,332829.7363267702,241394.40200672476,99131.63274714863,2.1594796540739328e-06,0.0,0.0,0.0,2.1594796540739328e-06,0.0,23.665370583047643,2.710208339993051,0.003915451506235714,0.0
9925,0.3448275862068966,7.586206896551724,3.5714285714285716,0,213862.24197939414,428775.8249881715,282551.54030032095,183324.18493667556,31519.652747677235,1.4257482798626275e-06,0.0,0.0,0.0,1.4257482798626275e-06,0.0,23.069048240836853,3.0005462611242164,0.0011097348137265373,0.0
9926,0.3448275862068966,7.586206896551724,3.928571428571429,0,315477.94511142554,498183.2716770574,193898.69451317677,172592.12629036198,-17687.009512105025,2.1031863007428368e-06,0.0,0.0,0.0,2.1031863007428368e-06,0.0,23.068805856336937,3.295359172760732,-0.0005996477649427766,0.0
9927,0.3448275862068966,7.586206896551724,4.285714285714286,0,271392.16271178285,281819.74067881197,381380.53490866866,74268.75189101194,-36556.129671265946,1.809281084745219e-06,0.0,0.0,0.0,1.809281084745219e-06,0.0,22.630060958183552,3.594784151788718,-0.0012248731827414934,0.0
9928,0.3448275862068966,7.586206896551724,4.642857142857143,0,101180.44859132687,376744.7168282431,307219.7793230333,260666.84070523488,-44118.51132321091,6.745363239421791e-07,0.0,0.0,0.0,6.745363239421791e-07,0.0,23.72606102031367,3.896902313527663,-0.0014729420611917941,0.0
9929,0.3448275862068966,7.586206896551724,5.0,0,402694.0636389992,685879.5132182626,510329.0470895852,225211.48822627962,-145364.8006708851,2.684627090926661e-06,0.0,0.0,0.0,2.684627090926661e-06,0.0,23.029549009796185,4.2000902424388435,-0.004847822773097975,0.0
9930,0.6896551724137931,7.586206896551724,0.0,0,96530.02497878682,329115.6787145178,227825.9411625219,238180.1469706429,-28950.29501589849,6.435334998585788e-07,0.0,0.0,0.0,6.435334998585788e-07,0.0,23.899636947239948,-0.0499039923898561,-0.0009654737516802936,0.0
9931,0.6896551724137931,7.586206896551724,0.35714285714285715,0,385298.0781901225,501920.96134163113,215628.81068160225,63847.416267201,99573.28740995933,2.5686538546008167e-06,0.0,0.0,0.0,2.5686538546008167e-06,0.0,23.930601272899228,0.2540754358582593,0.0033243570283412317,0.0
9932,0.6896551724137931,7.586206896551724,0.7142857142857143,0,137334.62978199337,361523.76712098735,412279.9042066002,256791.64602260143,33684.7401185138,9.155641985466225e-07,0.0,0.0,0.0,9.155641985466225e-07,0.0,23.684186381484558,0.5591929737467328,0.0011286625583674717,0.0
9933,0.6896551724137931,7.586206896551724,1.0714285714285714,0,183580.35247168632,464859.9871144323,384607.6931128673,254817.9115070493,13706.455832444759,1.2238690164779088e-06,0.0,0.0,0.0,1.2238690164779088e-06,0.0,23.77547107899446,0.8671757493113467,0.00046469390993357317,0.0
9934,0.6896551724137931,7.586206896551724,1.4285714285714286,0,330511.4349550022,554465.4314509684,380939.5856479586,173331.3240480296,53282.77175234295,2.2034095663666815e-06,0.0,0.0,0.0,2.2034095663666815e-06,0.0,24.09201545234515,1.1800652358841561,0.0018759644104828326,0.0
9935,0.6896551724137931,7.586206896551724,1.7857142857142858,0,493889.5946736178,860928.8913384001,335202.5486675502,406660.93638114515,55719.63259331779,3.292597297824119e-06,0.0,0.0,0.0,3.292597297824119e-06,0.0,24.162507918369347,1.4977155993718982,0.0022007860994368825,0.0
9936,0.6896551724137931,7.586206896551724,2.142857142857143,0,577863.2325174081,998916.7157889137,1091581.5664070381,472985.36049465265,351688.98046686675,3.852421550116054e-06,0.0,0.0,0.0,3.852421550116054e-06,0.0,22.4768837697902,1.8152061228454521,0.01885232135573331,0.0
9937,0.6896551724137931,7.586206896551724,2.5,0,1397588.1031762573,1711415.0027277248,839412.0640710962,99420.05451848503,670933.3503422851,9.317254021175048e-06,0.0,0.0,0.0,9.317254021175048e-06,0.0,23.94955752001517,2.1247331733202994,0.06709333503422851,0.0
9938,0.6896551724137931,7.586206896551724,2.857142857142857,0,467528.81429101405,917941.3398915497,638783.7626623953,378191.99076680327,315883.49140998407,3.1168587619400935e-06,0.0,0.0,0.0,3.1168587619400935e-06,0.0,23.845196829880695,2.422348979988309,0.016932964698315553,0.0
9939,0.6896551724137931,7.586206896551724,3.2142857142857144,0,485772.78843923146,735246.1067040927,652192.2655919297,213300.88237991682,28070.33512515365,3.238485256261543e-06,0.0,0.0,0.0,3.238485256261543e-06,0.0,23.75437704297618,2.7120013136576127,0.0011087080168109655,0.0
9940,0.6896551724137931,7.586206896551724,3.5714285714285716,0,268972.6379051528,514351.2181482841,341023.3175214104,204495.9617992696,5388.035972457272,1.7931509193676853e-06,0.0,0.0,0.0,1.7931509193676853e-06,0.0,23.847672121515647,3.0014938073127277,0.00018970041148969776,0.0
9941,0.6896551724137931,7.586206896551724,3.928571428571429,0,113036.0816994772,327233.08711532684,196973.62163365496,254926.34209271695,2990.147507565032,7.535738779965146e-07,0.0,0.0,0.0,7.535738779965146e-07,0.0,23.458137201420715,3.295747177882776,0.00010137583001430675,0.0
9942,0.6896551724137931,7.586206896551724,4.285714285714286,0,319688.38488460396,386101.0903525684,289961.3179316549,29375.211896265453,54315.86612162126,2.1312558992306933e-06,0.0,0.0,0.0,2.1312558992306933e-06,0.0,22.422008450733106,3.5949072594610185,0.0018199423300012366,0.0
9943,0.6896551724137931,7.586206896551724,4.642857142857143,0,260201.15133871982,421398.0027121188,221957.02583322296,127069.93036549323,41827.36819355253,1.7346743422581322e-06,0.0,0.0,0.0,1.7346743422581322e-06,0.0,23.322559104592273,3.8969325787154023,0.0013964498817716565,0.0
9944,0.6896551724137931,7.586206896551724,5.0,0,308599.6387030889,372858.4863922025,40050.60567529015,96168.90368980782,-60629.79648280712,2.0573309246872594e-06,0.0,0.0,0.0,2.0573309246872594e-06,0.0,22.71603170458151,4.200096007610144,-0.00202196478625597,0.0
9945,1.0344827586206897,7.586206896551724,0.0,0,443955.8146294462,584446.4413476902,205653.2451774482,95911.82955544334,-11563.898739134644,2.9597054308629748e-06,0.0,0.0,0.0,2.9597054308629748e-06,0.0,22.821420687956866,-0.04989834847740244,-0.0003856485985235077,0.0
9946,1.0344827586206897,7.586206896551724,0.35714285714285715,0,204442.13089710195,326919.48361791583,233502.3502160114,92457.05070916523,-43428.940932914695,1.362947539314013e-06,0.0,0.0,0.0,1.362947539314013e-06,0.0,24.18687001548467,0.2541050644783095,-0.0014499200416005443,0.0
9947,1.0344827586206897,7.586206896551724,0.7142857142857143,0,313696.63624473504,487008.02311134856,184761.48493780225,162995.04289970288,-102777.06275441746,2.0913109082982335e-06,0.0,0.0,0.0,2.0913109082982335e-06,0.0,23.384470574073816,0.5593134920953795,-0.0034437143401364343,0.0
9948,1.0344827586206897,7.586206896551724,1.0714285714285714,0,234573.54191276742,475520.67999895173,330893.41751537164,204871.56838267072,3802.2674977263623,1.5638236127517829e-06,0.0,0.0,0.0,1.5638236127517829e-06,0.0,23.795950832567453,0.8675555935217135,0.00012890936736171968,0.0
9949,1.0344827586206897,7.586206896551724,1.4285714285714286,0,233256.9155283672,470483.11256393173,256895.19379595353,221583.7720042796,33163.202550568254,1.555046103522448e-06,0.0,0.0,0.0,1.555046103522448e-06,0.0,23.66846526953648,1.1809928523338182,0.0011676004396254764,0.0
9950,1.0344827586206897,7.586206896551724,1.7857142857142858,0,253550.03025165832,558885.3040973577,537750.0255856481,295429.16600794345,76010.72435645375,1.6903335350110554e-06,0.0,0.0,0.0,1.6903335350110554e-06,0.0,24.34042619991561,1.4994708614216261,0.003002233463970713,0.0
9951,1.0344827586206897,7.586206896551724,2.142857142857143,0,363233.4152782978,847459.3452852453,453930.82939165685,525036.8430459312,421403.75164953596,2.4215561018553188e-06,0.0,0.0,0.0,2.4215561018553188e-06,0.0,23.713100884289126,1.8177796341250487,0.02258938831709327,0.0
9952,1.0344827586206897,7.586206896551724,2.5,0,21390.00467846469,1056114.2206076677,1038956.9008529665,1032148.8104473319,640363.8065283067,1.426000311897646e-07,0.0,0.0,0.0,1.426000311897646e-07,0.0,23.381707011660264,2.1276567923526004,0.06403638065283067,0.0
9953,1.0344827586206897,7.586206896551724,2.857142857142857,0,207738.94454051525,643695.1647639083,445286.9454203385,427738.7405476455,274746.98344512074,1.3849262969367684e-06,0.0,0.0,0.0,1.3849262969367684e-06,0.0,24.425666215321616,2.424922491267906,0.014727838263655058,0.0
9954,1.0344827586206897,7.586206896551724,3.2142857142857144,0,337585.59777960903,540197.6714007129,156586.30336274204,408356.76506199007,46386.14080095217,2.25057065186406e-06,0.0,0.0,0.0,2.25057065186406e-06,0.0,23.44057005215875,2.713756575707341,0.0018321365222623573,0.0
9955,1.0344827586206897,7.586206896551724,3.5714285714285716,0,148261.93902061676,331907.2681525031,446999.6831663342,279695.0838760742,70508.54387948355,9.884129268041117e-07,0.0,0.0,0.0,9.884129268041117e-07,0.0,23.90330408578237,3.00242142376239,0.002482444411256853,0.0
9956,1.0344827586206897,7.586206896551724,3.928571428571429,0,266734.36435880925,515259.19975142385,214690.65212678025,306741.49684543395,15468.98462600386,1.778229095725395e-06,0.0,0.0,0.0,1.778229095725395e-06,0.0,23.948272623989663,3.2961270220931427,0.0005244494299937428,0.0
9957,1.0344827586206897,7.586206896551724,4.285714285714286,0,228092.49538967045,442797.9137458183,414305.02815753774,201797.63293294303,-59919.97504398745,1.5206166359311363e-06,0.0,0.0,0.0,1.5206166359311363e-06,0.0,23.08315691244767,3.5950277778096655,-0.002007717206441841,0.0
9958,1.0344827586206897,7.586206896551724,4.642857142857143,0,318458.0777160481,454548.57149723195,319316.0582546719,90791.00944191396,5109.160361081741,2.123053851440321e-06,0.0,0.0,0.0,2.123053851440321e-06,0.0,24.169125314597082,3.8969622073354526,0.00017057459482437156,0.0
9959,1.0344827586206897,7.586206896551724,5.0,0,225002.94736969963,438974.1059756349,336978.19525005907,181036.66194164846,50024.51882141015,1.5000196491313308e-06,0.0,0.0,0.0,1.5000196491313308e-06,0.0,24.390604430651088,4.200101651522598,0.001668285585206821,0.0
9960,1.3793103448275863,7.586206896551724,0.0,0,202051.22545969297,392463.24970748747,345256.83902733476,170987.95486819383,28914.231171663538,1.3470081697312864e-06,0.0,0.0,0.0,1.3470081697312864e-06,0.0,23.16186761376488,-0.04989284972978898,0.0009642710456293049,0.0
9961,1.3793103448275863,7.586206896551724,0.35714285714285715,0,252178.5430051774,490825.8967751794,274459.7300481985,213872.91392093757,48880.3426374673,1.6811902867011828e-06,0.0,0.0,0.0,1.6811902867011828e-06,0.0,23.748227211752624,0.2541339310323407,0.0016319207171052903,0.0
9962,1.3793103448275863,7.586206896551724,0.7142857142857143,0,225234.28732746857,334520.36111044383,276202.9555414066,85862.69626987129,-56718.02321285975,1.5015619155164571e-06,0.0,0.0,0.0,1.5015619155164571e-06,0.0,24.40812904904663,0.5594309106392427,-0.001900430549849715,0.0
9963,1.3793103448275863,7.586206896551724,1.0714285714285714,0,133576.19991873868,400975.10480322567,375430.2601669601,256471.14917164273,5189.865603927845,8.905079994582578e-07,0.0,0.0,0.0,8.905079994582578e-07,0.0,22.930244899576927,0.867925667909364,0.0001759535046113253,0.0
9964,1.3793103448275863,7.586206896551724,1.4285714285714286,0,296677.0336006116,524409.8051328989,329530.6106534316,182974.64044298817,-10154.236881843182,1.977846890670744e-06,0.0,0.0,0.0,1.977846890670744e-06,0.0,24.06194243637524,1.181896609927627,-0.0003575074340067971,0.0
9965,1.3793103448275863,7.586206896551724,1.7857142857142858,0,114392.01744516089,480861.07705825625,362309.77809506893,371140.15236897115,107728.66163360214,7.62613449634406e-07,0.0,0.0,0.0,7.62613449634406e-07,0.0,23.12780180454011,1.5011809770703337,0.004255012640959227,0.0
9966,1.3793103448275863,7.586206896551724,2.142857142857143,0,994391.0270872399,1568003.069242797,791256.9163010898,447296.3426033134,282988.1139580533,6.629273513914933e-06,0.0,0.0,0.0,6.629273513914933e-06,0.0,23.597378342409016,1.8202869531387795,0.015169604851161146,0.0
9967,1.3793103448275863,7.586206896551724,2.5,0,760072.2740921633,1145843.7687057182,315904.79865847173,483668.2130824447,558664.8697696463,5.067148493947755e-06,0.0,0.0,0.0,5.067148493947755e-06,0.0,23.65630716696199,2.1305052141359866,0.05586648697696463,0.0
9968,1.3793103448275863,7.586206896551724,2.857142857142857,0,534715.5599082066,995808.894824572,933366.2719176671,432613.50586233113,364912.00062078063,3.564770399388044e-06,0.0,0.0,0.0,3.564770399388044e-06,0.0,23.17753196351915,2.4274298102816365,0.01956114261281108,0.0
9969,1.3793103448275863,7.586206896551724,3.2142857142857144,0,408773.2984920585,817847.3033548939,632702.1358514186,349260.6776144825,8601.769763300712,2.72515532328039e-06,0.0,0.0,0.0,2.72515532328039e-06,0.0,23.315984399695406,2.715466691356048,0.0003397483874992198,0.0
9970,1.3793103448275863,7.586206896551724,3.5714285714285716,0,156119.60780757718,539730.0891607678,428700.0952529144,361220.83509859955,17571.017450251486,1.0407973853838478e-06,0.0,0.0,0.0,1.0407973853838478e-06,0.0,23.739733735949002,3.0033251813561983,0.0006186352982133508,0.0
9971,1.3793103448275863,7.586206896551724,3.928571428571429,0,382966.47618727805,395589.2975593549,365884.7501541064,-1364.470226828316,-79805.290845106,2.5531098412485205e-06,0.0,0.0,0.0,2.5531098412485205e-06,0.0,24.469198586609433,3.296497096480793,-0.0027056617034736112,0.0
9972,1.3793103448275863,7.586206896551724,4.285714285714286,0,173916.59996179582,390986.5467669247,260332.90388112905,193583.22119564467,44809.107499749836,1.1594439997453055e-06,0.0,0.0,0.0,1.1594439997453055e-06,0.0,24.026028918452983,3.5951451963535286,0.0015014027637112167,0.0
9973,1.3793103448275863,7.586206896551724,4.642857142857143,0,106620.22002322365,265584.1713383181,257794.5473314179,155282.76820361352,-105797.4533403941,7.10801466821491e-07,0.0,0.0,0.0,7.10801466821491e-07,0.0,22.970695327731,3.8969910738894837,-0.0035321572355515576,0.0
9974,1.3793103448275863,7.586206896551724,5.0,0,184424.03424072886,337513.994307962,172447.92174624847,138460.066456478,34359.62356250223,1.2294935616048591e-06,0.0,0.0,0.0,1.2294935616048591e-06,0.0,24.02786278449746,4.200107150270211,0.001145871385731787,0.0
9975,1.7241379310344829,7.586206896551724,0.0,0,424259.634735201,407038.7739332167,387180.5120622329,-26801.284842362547,-21428.731815075553,2.82839756490134e-06,0.0,0.0,0.0,2.82839756490134e-06,0.0,23.828018870657047,-0.049887525873688505,-0.0007146344480389666,0.0
9976,1.7241379310344829,7.586206896551724,0.35714285714285715,0,197239.1600168003,401709.1995978857,222477.9165066595,190395.5851224103,-53481.22363995509,1.3149277334453354e-06,0.0,0.0,0.0,1.3149277334453354e-06,0.0,23.495717312885464,0.2541618794654353,-0.0017855258806489028,0.0
9977,1.7241379310344829,7.586206896551724,0.7142857142857143,0,279051.24184944655,460530.3517064031,284252.79172333935,138801.62766219728,6297.147850220721,1.8603416123296436e-06,0.0,0.0,0.0,1.8603416123296436e-06,0.0,23.598361507505953,0.5595445946042105,0.0002109962843127889,0.0
9978,1.7241379310344829,7.586206896551724,1.0714285714285714,0,251563.7591322955,372141.29736640863,286307.1185465536,88893.82032621816,34015.65373664722,1.6770917275486367e-06,0.0,0.0,0.0,1.6770917275486367e-06,0.0,24.07049713679282,0.8682839718223316,0.0011532424812848029,0.0
9979,1.7241379310344829,7.586206896551724,1.4285714285714286,0,134280.8206614449,320192.8836043835,191402.50456881814,181023.91861406178,56909.08055660993,8.952054710762992e-07,0.0,0.0,0.0,8.952054710762992e-07,0.0,23.040455156116924,1.1827716228791898,0.0020036384415907634,0.0
9980,1.7241379310344829,7.586206896551724,1.7857142857142858,0,549187.0519877127,768963.5888640705,222856.37581200598,216747.66045284003,138333.0388891274,3.6612470132514184e-06,0.0,0.0,0.0,3.6612470132514184e-06,0.0,23.5077183292084,1.502836701294994,0.005463808982770709,0.0
9981,1.7241379310344829,7.586206896551724,2.142857142857143,0,1006934.6793865064,1210653.546599885,659414.5368699388,48456.85154492748,273989.51148137957,6.71289786257671e-06,0.0,0.0,0.0,6.71289786257671e-06,0.0,23.26319818718877,1.8227145251179746,0.014687233906761502,0.0
9982,1.7241379310344829,7.586206896551724,2.5,0,759772.8668205674,1305440.3863703602,674215.8182290943,462171.5211904815,661197.5206661503,5.065152445470449e-06,0.0,0.0,0.0,5.065152445470449e-06,0.0,23.441078126426135,2.1332630398727237,0.06611975206661502,0.0
9983,1.7241379310344829,7.586206896551724,2.857142857142857,0,371796.4217040483,909739.3982738936,641540.2490814222,485321.90919207135,187498.84874764064,2.478642811360322e-06,0.0,0.0,0.0,2.478642811360322e-06,0.0,24.010068344233275,2.4298573822608316,0.010050893678067841,0.0
9984,1.7241379310344829,7.586206896551724,3.2142857142857144,0,515634.4521430254,767396.3442906091,579625.9925683361,184189.58756734844,71901.49342474321,3.437563014286836e-06,0.0,0.0,0.0,3.437563014286836e-06,0.0,23.8745108856959,2.7171224155807083,0.002839929121803008,0.0
9985,1.7241379310344829,7.586206896551724,3.5714285714285716,0,494671.04846080206,747049.873074679,330139.82793260354,200454.4109226388,20553.243125926907,3.2978069897386803e-06,0.0,0.0,0.0,3.2978069897386803e-06,0.0,24.190458585257264,3.0042001943077614,0.0007236326368953275,0.0
9986,1.7241379310344829,7.586206896551724,3.928571428571429,0,204646.58113005667,390113.70659905515,324781.72904516495,160777.88612468282,-14060.667054742915,1.3643105408670444e-06,0.0,0.0,0.0,1.3643105408670444e-06,0.0,22.732825718023662,3.296855400393761,-0.000476702834767552,0.0
9987,1.7241379310344829,7.586206896551724,4.285714285714286,0,59427.59148937518,273028.76447313087,292058.3439080854,225446.75077636587,-67939.32670759114,3.9618394326250123e-07,0.0,0.0,0.0,3.9618394326250123e-07,0.0,23.72937924743222,3.595258880318496,-0.0022764187589325697,0.0
9988,1.7241379310344829,7.586206896551724,4.642857142857143,0,160888.0713121056,325691.5505907259,234925.2420710093,139930.05249248596,-21910.29023268435,1.072587142080704e-06,0.0,0.0,0.0,1.072587142080704e-06,0.0,23.81560798162178,3.8970190223225787,-0.0007314976659165242,0.0
9989,1.7241379310344829,7.586206896551724,5.0,0,220396.83477674602,415026.21148059657,184307.455404067,206653.89630194026,70357.23570177883,1.4693122318449735e-06,0.0,0.0,0.0,1.4693122318449735e-06,0.0,23.054675031849868,4.200112474126311,0.002346368638853158,0.0
9990,2.0689655172413794,7.586206896551724,0.0,0,138128.06325714552,244235.24731979953,270817.0261170342,121329.88627020828,14064.09020188539,9.208537550476368e-07,0.0,0.0,0.0,9.208537550476368e-07,0.0,23.538983623859192,-0.049882413935357584,0.0004690283785960559,0.0
9991,2.0689655172413794,7.586206896551724,0.35714285714285715,0,103090.01078713678,371937.43054290756,257860.29699453255,285447.9550368721,-17436.11929018614,6.872667385809118e-07,0.0,0.0,0.0,6.872667385809118e-07,0.0,23.87726424291244,0.2541887154023444,-0.0005821228485776484,0.0
9992,2.0689655172413794,7.586206896551724,0.7142857142857143,0,248135.35755214293,388349.91635273164,318683.70062931563,112827.96484094154,-5739.4251496465195,1.6542357170142861e-06,0.0,0.0,0.0,1.6542357170142861e-06,0.0,24.05300273877628,0.5596537533431323,-0.0001923088689468108,0.0
9993,2.0689655172413794,7.586206896551724,1.0714285714285714,0,338896.8099621808,485974.63377294684,249050.84815333103,97788.08940474833,14538.97530121005,2.259312066414539e-06,0.0,0.0,0.0,2.259312066414539e-06,0.0,24.071048069392408,0.8686280133351466,0.0004929190566648387,0.0
9994,2.0689655172413794,7.586206896551724,1.4285714285714286,0,339180.01056780387,545315.9555000019,276768.11814929155,164152.13452107366,-61508.942654107756,2.2612000704520256e-06,0.0,0.0,0.0,2.2612000704520256e-06,0.0,22.916519066014576,1.18361180566451,-0.0021655890553490533,0.0
9995,2.0689655172413794,7.586206896551724,1.7857142857142858,0,493739.9237890678,725992.4107478202,404863.89250608796,157461.89270088,-27473.82908805015,3.2915994919271186e-06,0.0,0.0,0.0,3.2915994919271186e-06,0.0,23.591727615999204,1.504426518895193,-0.001085147520562378,0.0
9996,2.0689655172413794,7.586206896551724,2.142857142857143,0,361405.6646539718,520395.5387463521,473433.61868674075,137804.58443594284,278364.824344867,2.409371097693145e-06,0.0,0.0,0.0,2.409371097693145e-06,0.0,23.14677033331917,1.8250454668296399,0.014921772970296676,0.0
9997,2.0689655172413794,7.586206896551724,2.5,0,611768.3948719333,1277793.0015011877,1067568.0102590432,588630.286500727,567426.5332211937,4.0784559658128884e-06,0.0,0.0,0.0,4.0784559658128884e-06,0.0,23.913385869591565,2.135911089487053,0.05674265332211938,0.0
9998,2.0689655172413794,7.586206896551724,2.857142857142857,0,1156071.3549930367,1046453.2294253308,850958.3914857582,-194901.33541652941,510392.9642319861,7.707142366620245e-06,0.0,0.0,0.0,7.707142366620245e-06,0.0,23.705539317466506,2.432188323972497,0.027359663548836198,0.0
9999,2.0689655172413794,7.586206896551724,3.2142857142857144,0,443000.90745579056,650647.2094048746,283110.0660558712,158759.92651536968,69572.8074257629,2.9533393830386035e-06,0.0,0.0,0.0,2.9533393830386035e-06,0.0,23.613132062422892,2.7187122331809075,0.0027479518502744127,0.0
10000,2.0689655172413794,7.586206896551724,3.5714285714285716,0,281230.47866352135,282568.4604403277,371939.6384741406,56883.60630201477,-16903.728082290167,1.874869857756809e-06,0.0,0.0,0.0,1.874869857756809e-06,0.0,25.51411095675516,3.0050403770930814,-0.0005951415672263931,0.0
10001,2.0689655172413794,7.586206896551724,3.928571428571429,0,175692.73657738583,314053.9433748956,123071.2433483461,159299.24968294002,2339.821380901261,1.1712849105159055e-06,0.0,0.0,0.0,1.1712849105159055e-06,0.0,23.40934046583678,3.2971994419065758,7.932763650420944e-05,0.0
10002,2.0689655172413794,7.586206896551724,4.285714285714286,0,316497.5727372166,276676.7497214591,323745.8567567901,-13650.271218027032,-73071.20440704934,2.109983818248111e-06,0.0,0.0,0.0,2.109983818248111e-06,0.0,23.931734614670212,3.595368039057418,-0.0024483707524204455,0.0
10003,2.0689655172413794,7.586206896551724,4.642857142857143,0,27369.772587910815,214769.49564836972,201721.97722761842,183317.31593429847,-32524.487357094516,1.824651505860721e-07,0.0,0.0,0.0,1.824651505860721e-07,0.0,24.18401700839971,3.897045858259488,-0.0010858635980711654,0.0
10004,2.0689655172413794,7.586206896551724,5.0,0,145859.0079419516,359468.01469786715,277664.04462646437,191067.27257713344,-26921.374273457586,9.723933862796773e-07,0.0,0.0,0.0,9.723933862796773e-07,0.0,24.12840769191468,4.200117586064643,-0.0008978105475578265,0.0
10005,2.413793103448276,7.586206896551724,0.0,0,239071.4179690588,295739.5791680724,110527.48287322574,25855.493945303104,-35911.840018540635,1.5938094531270585e-06,0.0,0.0,0.0,1.5938094531270585e-06,0.0,24.244230501178322,-0.049877559959333934,-0.0011976368079635222,0.0
10006,2.413793103448276,7.586206896551724,0.35714285714285715,0,378721.744977709,536757.6355103953,161991.94408823416,154200.07955586902,43448.680359784936,2.524811633184727e-06,0.0,0.0,0.0,2.524811633184727e-06,0.0,24.13742591439094,0.25421419712491156,0.0014505790627512808,0.0
10007,2.413793103448276,7.586206896551724,0.7142857142857143,0,143110.3466759933,341163.6823995399,280255.31017868366,177674.91818711156,23311.142937991895,9.540689778399553e-07,0.0,0.0,0.0,9.540689778399553e-07,0.0,23.799306312688074,0.5597574036352913,0.0007810781420398441,0.0
10008,2.413793103448276,7.586206896551724,1.0714285714285714,0,249269.53829938167,457889.9520544503,203642.562071616,213915.92013936682,-43801.9842018728,1.6617969219958779e-06,0.0,0.0,0.0,1.6617969219958779e-06,0.0,23.974741610042987,0.8689546935777942,-0.0014850312546468355,0.0
10009,2.413793103448276,7.586206896551724,1.4285714285714286,0,219949.51555470825,290071.53087802755,224897.49716968663,44900.29920443809,-48239.79349467002,1.466330103698055e-06,0.0,0.0,0.0,1.466330103698055e-06,0.0,23.64594869732893,1.1844095905420704,-0.0016984126911727883,0.0
10010,2.413793103448276,7.586206896551724,1.7857142857142858,0,521786.0233487973,541358.6979773378,592946.405751539,47282.67827384041,-12478.21915131031,3.478573488991982e-06,0.0,0.0,0.0,3.478573488991982e-06,0.0,23.607658032788535,1.5059361099766568,-0.0004928584410160703,0.0
10011,2.413793103448276,7.586206896551724,2.142857142857143,0,354257.39438240253,914581.7158679997,1024768.2024898668,628511.5011429708,321633.099318042,2.3617159625493503e-06,0.0,0.0,0.0,2.3617159625493503e-06,0.0,23.324301610361896,1.8272587828848277,0.017241172978848772,0.0
10012,2.413793103448276,7.586206896551724,2.5,0,654668.5352640146,863917.6005139201,936793.4144148909,248736.19538415896,630241.2994131015,4.3644569017600974e-06,0.0,0.0,0.0,4.3644569017600974e-06,0.0,24.381941427192313,2.1384255113179376,0.06302412994131015,0.0
10013,2.413793103448276,7.586206896551724,2.857142857142857,0,495085.59680618404,821435.2444212959,432110.28595911857,264240.9656142897,375722.13335787365,3.3005706453745604e-06,0.0,0.0,0.0,3.3005706453745604e-06,0.0,24.54481521802423,2.4344016400276844,0.020140620809674884,0.0
10014,2.413793103448276,7.586206896551724,3.2142857142857144,0,293792.18212278554,579162.3614992936,637474.0674603235,318898.7006466812,2359.046719967824,1.958614547485237e-06,0.0,0.0,0.0,1.958614547485237e-06,0.0,23.704030549837988,2.7202218242623712,9.317644405734979e-05,0.0
10015,2.413793103448276,7.586206896551724,3.5714285714285716,0,297170.5637798283,402957.5953715552,163899.6042735602,70241.35431672494,-2226.3692933546945,1.981137091865522e-06,0.0,0.0,0.0,1.981137091865522e-06,0.0,23.96362277235224,3.005838161970642,-7.838536588032448e-05,0.0
10016,2.413793103448276,7.586206896551724,3.928571428571429,0,332413.2345951675,498731.01740718726,232483.10167984557,126164.80332678967,-1799.6450653596312,2.2160882306344503e-06,0.0,0.0,0.0,2.2160882306344503e-06,0.0,24.806993010744094,3.2975261221492236,-6.101388368647766e-05,0.0
10017,2.413793103448276,7.586206896551724,4.285714285714286,0,157485.30628804336,379790.69944844133,251025.42415609476,204204.42154798735,42266.72357050886,1.049902041920289e-06,0.0,0.0,0.0,1.049902041920289e-06,0.0,24.572773265035238,3.595471689349577,0.0014162160132766383,0.0
10018,2.413793103448276,7.586206896551724,4.642857142857143,0,343026.34905146854,385711.6416592037,381806.8269304843,40749.55446054151,27248.96570748889,2.28684232700979e-06,0.0,0.0,0.0,2.28684232700979e-06,0.0,24.462098142396375,3.897071339982055,0.0009097348598300827,0.0
10019,2.413793103448276,7.586206896551724,5.0,0,254104.27358450316,389868.11578373925,310552.7643203328,105566.23284372043,-50505.276342810765,1.6940284905633544e-06,0.0,0.0,0.0,1.6940284905633544e-06,0.0,24.15596912712213,4.2001224400406665,-0.0016843185398824217,0.0
10020,2.7586206896551726,7.586206896551724,0.0,0,283797.58064820827,387592.4687566246,209674.50382369806,60306.05375800253,-65043.51949845679,1.891983870988055e-06,0.0,0.0,0.0,1.891983870988055e-06,0.0,23.70827146176155,-0.04987302082862276,-0.002169159615063648,0.0
10021,2.7586206896551726,7.586206896551724,0.35714285714285715,0,223652.1688464038,339629.45434341155,176479.18702150593,84685.39228324019,-3833.814330758446,1.4910144589760254e-06,0.0,0.0,0.0,1.4910144589760254e-06,0.0,23.76924744236249,0.2542380260167138,-0.00012799585056722174,0.0
10022,2.7586206896551726,7.586206896551724,0.7142857142857143,0,97937.66077016522,324232.10700805887,311963.3014550184,220738.09913343738,-22072.377983558217,6.529177384677681e-07,0.0,0.0,0.0,6.529177384677681e-07,0.0,24.149273631571052,0.5598543308187114,-0.0007395712870732347,0.0
10023,2.7586206896551726,7.586206896551724,1.0714285714285714,0,143991.29480202176,368848.98017101805,211782.7518064922,243080.8905016259,-34071.54124234703,9.599419653468117e-07,0.0,0.0,0.0,9.599419653468117e-07,0.0,24.255664932011758,0.8692601842343018,-0.0011551372514469484,0.0
10024,2.7586206896551726,7.586206896551724,1.4285714285714286,0,283065.89517594734,510771.2296053732,308342.43230002455,187310.93666465368,-26161.647095221946,1.887105967839649e-06,0.0,0.0,0.0,1.887105967839649e-06,0.0,23.556692477578956,1.185155628392485,-0.0009210917010541944,0.0
10025,2.7586206896551726,7.586206896551724,1.7857142857142858,0,452891.72081391804,728038.517250899,253154.50011398172,300926.2988899694,97027.16556197613,3.0192781387594537e-06,0.0,0.0,0.0,3.0192781387594537e-06,0.0,24.668934482581093,1.5073477838715843,0.003832330316947684,0.0
10026,2.7586206896551726,7.586206896551724,2.142857142857143,0,352316.29767979943,838033.4547350467,716483.1343973692,441035.28326246474,199660.7860973994,2.3487753178653297e-06,0.0,0.0,0.0,2.3487753178653297e-06,0.0,24.75436512081696,1.8293285357700284,0.010702835490181424,0.0
10027,2.7586206896551726,7.586206896551724,2.5,0,801853.6165375182,1194925.1372375274,826338.6365405344,275052.37658286665,789146.5634134568,5.345690776916788e-06,0.0,0.0,0.0,5.345690776916788e-06,0.0,24.45229777574862,2.140776839239174,0.07891465634134567,0.0
10028,2.7586206896551726,7.586206896551724,2.857142857142857,0,450253.5825262973,846099.9929720189,397637.8972411272,394076.0565054193,268869.6415487153,3.0016905501753153e-06,0.0,0.0,0.0,3.0016905501753153e-06,0.0,24.811844053987436,2.4364713929128854,0.014412782790488222,0.0
10029,2.7586206896551726,7.586206896551724,3.2142857142857144,0,487382.47344238986,598222.1941290845,538535.4062893583,83745.13347025712,100175.7659209622,3.2492164896159324e-06,0.0,0.0,0.0,3.2492164896159324e-06,0.0,24.383935204181864,2.7216334981572987,0.003956692154602183,0.0
10030,2.7586206896551726,7.586206896551724,3.5714285714285716,0,271675.8140075929,375518.5397111021,336383.5391540911,86397.54434258616,-22537.897063067776,1.8111720933839528e-06,0.0,0.0,0.0,1.8111720933839528e-06,0.0,24.206620011061332,3.0065841998210567,-0.0007935077584544305,0.0
10031,2.7586206896551726,7.586206896551724,3.928571428571429,0,190142.46133331308,343973.01087242545,302687.1101124766,136579.5279611616,-53964.31466970251,1.267616408888754e-06,0.0,0.0,0.0,1.267616408888754e-06,0.0,24.099886658921836,3.297831612805731,-0.0018295676641214467,0.0
10032,2.7586206896551726,7.586206896551724,4.285714285714286,0,326169.4677660172,439399.73613558064,216280.77134571134,65066.64896632749,-5051.612948198783,2.1744631184401144e-06,0.0,0.0,0.0,2.1744631184401144e-06,0.0,23.92054320508238,3.595568616532997,-0.00016926259112988053,0.0
10033,2.7586206896551726,7.586206896551724,4.642857142857143,0,266459.93285414873,351738.1459172994,254108.8550173385,50233.39977990463,-43308.00106479206,1.7763995523609916e-06,0.0,0.0,0.0,1.7763995523609916e-06,0.0,24.08114936616509,3.897095168873857,-0.0014458823392100944,0.0
10034,2.7586206896551726,7.586206896551724,5.0,0,231360.09749605015,354628.4201794385,246077.09832165515,88952.77673972024,5079.1348500432005,1.5424006499736677e-06,0.0,0.0,0.0,1.5424006499736677e-06,0.0,23.568053428734377,4.200126979171378,0.00016938588626707793,0.0
10035,3.1034482758620694,7.586206896551724,0.0,0,23914.53257071597,241371.11004514399,227718.66661662713,213757.56143685718,-855.936940897168,1.5943021713810648e-07,0.0,0.0,0.0,1.5943021713810648e-07,0.0,24.04189021774213,-0.049868865832292705,-2.8544947437527703e-05,0.0
10036,3.1034482758620694,7.586206896551724,0.35714285714285715,0,73483.40542668448,318746.56440016074,249418.27852414516,241714.95214638457,-23600.130720873225,4.898893695112298e-07,0.0,0.0,0.0,4.898893695112298e-07,0.0,23.504251744230476,0.2542598383337162,-0.0007879147356930553,0.0
10037,3.1034482758620694,7.586206896551724,0.7142857142857143,0,190200.01922380345,324394.8145322906,324241.9712815821,134118.41974200468,5166.375547123769,1.2680001281586897e-06,0.0,0.0,0.0,1.2680001281586897e-06,0.0,23.692750104131747,0.5599430553162018,0.00017310790055046247,0.0
10038,3.1034482758620694,7.586206896551724,1.0714285714285714,0,128143.32885852529,292926.28238976287,321306.49377054424,181352.18239176707,36704.77318016946,8.542888590568352e-07,0.0,0.0,0.0,8.542888590568352e-07,0.0,24.71217127551792,0.869539822041058,0.0012444124703589118,0.0
10039,3.1034482758620694,7.586206896551724,1.4285714285714286,0,264088.10068974,409851.35846073413,189198.69655718916,117242.75458568988,642.9454411378056,1.7605873379316e-06,0.0,0.0,0.0,1.7605873379316e-06,0.0,24.693714722848668,1.1858385310731494,2.2636637055272404e-05,0.0
10040,3.1034482758620694,7.586206896551724,1.7857142857142858,0,537145.8907942129,534394.3819757813,524408.0346355388,-7675.055038018708,18987.17944381285,3.580972605294753e-06,0.0,0.0,0.0,3.580972605294753e-06,0.0,23.688748950237926,1.5086399916148432,0.0007499460897821558,0.0
10041,3.1034482758620694,7.586206896551724,2.142857142857143,0,657208.5750021393,879957.3503726586,812600.2875062748,191664.13791111304,361298.2279217011,4.381390500014262e-06,0.0,0.0,0.0,4.381390500014262e-06,0.0,24.547152218064884,1.8312231310547464,0.019367425982454382,0.0
10042,3.1034482758620694,7.586206896551724,2.5,0,605511.2128787678,1043835.7120074942,682537.9836780395,344783.7300378118,633003.6378399521,4.036741419191785e-06,0.0,0.0,0.0,4.036741419191785e-06,0.0,23.82264678335648,2.142929180624589,0.06330036378399521,0.0
10043,3.1034482758620694,7.586206896551724,2.857142857142857,0,326629.34370139195,700544.6029789953,694343.5768605995,370858.89640497917,301983.9798850801,2.17752895800928e-06,0.0,0.0,0.0,2.17752895800928e-06,0.0,23.78963674263879,2.4383659881976034,0.01618788005674574,0.0
10044,3.1034482758620694,7.586206896551724,3.2142857142857144,0,287095.9944377301,537957.9920632248,466956.28400261444,222023.22761631888,141866.2183220323,1.913973296251534e-06,0.0,0.0,0.0,1.913973296251534e-06,0.0,24.822457602322217,2.7229257059005576,0.005603360731783602,0.0
10045,3.1034482758620694,7.586206896551724,3.5714285714285716,0,245142.3104255531,414398.1282291704,216286.7680493023,140246.27717442007,-7094.147311966976,1.6342820695036873e-06,0.0,0.0,0.0,1.6342820695036873e-06,0.0,23.583847099966388,3.007267102501721,-0.0002497686858677224,0.0
10046,3.1034482758620694,7.586206896551724,3.928571428571429,0,293441.21419931133,434333.77178798744,218985.46493637908,100105.92441111284,52475.36305413382,1.9562747613287424e-06,0.0,0.0,0.0,1.9562747613287424e-06,0.0,23.242121274194936,3.298111250612487,0.0017790873097250387,0.0
10047,3.1034482758620694,7.586206896551724,4.285714285714286,0,174684.55458793254,358345.3005640816,289773.4922887316,159778.7708372311,-22311.339149621428,1.1645636972528836e-06,0.0,0.0,0.0,1.1645636972528836e-06,0.0,23.80775669528769,3.5956573410304875,-0.0007475780735317457,0.0
10048,3.1034482758620694,7.586206896551724,4.642857142857143,0,220668.98687900236,294780.4640272175,204140.0836030423,43224.86742809381,28892.588578121806,1.471126579193349e-06,0.0,0.0,0.0,1.471126579193349e-06,0.0,23.84427631005558,3.8971169811908593,0.0009646089067161195,0.0
10049,3.1034482758620694,7.586206896551724,5.0,0,154904.22353256293,366800.9157075558,304059.24976737564,190368.264933764,-7466.260307911983,1.0326948235504196e-06,0.0,0.0,0.0,1.0326948235504196e-06,0.0,23.963430891402492,4.200131134167708,-0.00024899498766913435,0.0
10050,3.4482758620689657,7.586206896551724,0.0,0,311170.82165322045,449372.2023700935,321909.1032656778,94707.41473161305,8995.623508159937,2.074472144354803e-06,0.0,0.0,0.0,2.074472144354803e-06,0.0,23.277926118152752,-0.04986517726846455,0.0002999982684928461,0.0
10051,3.4482758620689657,7.586206896551724,0.35714285714285715,0,109841.48277954852,396468.1843257116,311164.3533989307,272529.1624977738,-67885.76485824086,7.322765518636567e-07,0.0,0.0,0.0,7.322765518636567e-07,0.0,24.318650858417055,0.25427920203878646,-0.002266436364621231,0.0
10052,3.4482758620689657,7.586206896551724,0.7142857142857143,0,257422.6497101447,372916.8275864168,368364.41199442634,113248.1622125038,72898.07144322479,1.7161509980676314e-06,0.0,0.0,0.0,1.7161509980676314e-06,0.0,25.095963372096737,0.5600218197593247,0.0024425696480271666,0.0
10053,3.4482758620689657,7.586206896551724,1.0714285714285714,0,252684.65924157694,396532.69859957753,236112.97471839143,105257.2753789764,11196.823618937222,1.6845643949438462e-06,0.0,0.0,0.0,1.6845643949438462e-06,0.0,24.30329380752046,0.8697880682047247,0.0003796091279850909,0.0
10054,3.4482758620689657,7.586206896551724,1.4285714285714286,0,349319.9866951364,518306.9477464423,295952.24634181365,115679.35570414532,45974.55717017763,2.3287999113009096e-06,0.0,0.0,0.0,2.3287999113009096e-06,0.0,24.04659420807237,1.186444772312842,0.0016186589061063458,0.0
10055,3.4482758620689657,7.586206896551724,1.7857142857142858,0,453880.91172783833,700462.238014995,440486.27077820996,176371.1531967168,-18695.235747504397,3.0258727448522557e-06,0.0,0.0,0.0,3.0258727448522557e-06,0.0,24.496036057662977,1.509787138413932,-0.000738415044103098,0.0
10056,3.4482758620689657,7.586206896551724,2.142857142857143,0,451552.0682284873,950881.6124446266,587532.8096295802,445351.5241315331,336777.20406166586,3.0103471215232486e-06,0.0,0.0,0.0,3.0103471215232486e-06,0.0,24.20415398954349,1.8329050424407223,0.01805297415866589,0.0
10057,3.4482758620689657,7.586206896551724,2.5,0,715557.0566097783,1219696.8694556027,812411.2218340754,393470.15395217383,561807.0258384345,4.770380377398522e-06,0.0,0.0,0.0,4.770380377398522e-06,0.0,24.199975741091393,2.1448399039921795,0.056180702583843445,0.0
10058,3.4482758620689657,7.586206896551724,2.857142857142857,0,315847.9133889922,669309.556837258,305551.71783521766,510235.9068063527,231795.4063476661,2.1056527559266145e-06,0.0,0.0,0.0,2.1056527559266145e-06,0.0,24.135004923415597,2.4400478995835795,0.012425414874949943,0.0
10059,3.4482758620689657,7.586206896551724,3.2142857142857144,0,132695.75414142277,403255.6956495339,427140.50882004056,284124.4590336523,134812.21510864276,8.846383609428185e-07,0.0,0.0,0.0,8.846383609428185e-07,0.0,24.28967764120898,2.724072852699647,0.005324745251119565,0.0
10060,3.4482758620689657,7.586206896551724,3.5714285714285716,0,247974.65178504575,415058.8721048595,170830.30784387488,163500.64756230116,10944.560200599832,1.6531643452336382e-06,0.0,0.0,0.0,1.6531643452336382e-06,0.0,23.980231274062024,3.0078733437414136,0.00038533290873347476,0.0
10061,3.4482758620689657,7.586206896551724,3.928571428571429,0,181270.61765238008,351037.6360403818,175729.10534227325,164341.8333323582,-1653.577929021595,1.2084707843492006e-06,0.0,0.0,0.0,1.2084707843492006e-06,0.0,23.37623010066499,3.298359496776154,-5.6061727598318764e-05,0.0
10062,3.4482758620689657,7.586206896551724,4.285714285714286,0,78266.82939824527,299548.0809630436,284544.08125709125,214865.40620584114,21003.24021134529,5.217788626549684e-07,0.0,0.0,0.0,5.217788626549684e-07,0.0,25.119474715367023,3.5957361054736108,0.0007037480695276163,0.0
10063,3.4482758620689657,7.586206896551724,4.642857142857143,0,194404.7995621844,390380.22941587464,221186.4654221534,178020.56425411577,-28635.355787013686,1.2960319970812293e-06,0.0,0.0,0.0,1.2960319970812293e-06,0.0,24.464826764177477,3.8971363448959297,-0.000956020924343705,0.0
10064,3.4482758620689657,7.586206896551724,5.0,0,111435.9730389164,210172.43743628854,281219.1595362876,152785.90371579427,5402.803020494557,7.429064869261093e-07,0.0,0.0,0.0,7.429064869261093e-07,0.0,23.85378828924063,4.200134822731536,0.0001801800119453675,0.0
10065,3.793103448275862,7.586206896551724,0.0,0,117617.32857959878,295630.66022668,217108.51793021633,160403.2363339485,2985.361554489309,7.841155238639918e-07,0.0,0.0,0.0,7.841155238639918e-07,0.0,24.360160508866073,-0.04986204889988007,9.955989113589534e-05,0.0
10066,3.793103448275862,7.586206896551724,0.35714285714285715,0,245959.33354679085,298988.06310605846,305038.08237254067,56109.55159952836,4441.1700429827015,1.639728890311939e-06,0.0,0.0,0.0,1.639728890311939e-06,0.0,23.62432991232498,0.2542956249094329,0.0001482730482289106,0.0
10067,3.793103448275862,7.586206896551724,0.7142857142857143,0,83872.08469293326,223456.5655292932,216628.77566191403,303706.05897357786,34127.43956090709,5.591472312862217e-07,0.0,0.0,0.0,5.591472312862217e-07,0.0,24.38426669516828,0.5600886219676963,0.0011434959304962608,0.0
10068,3.793103448275862,7.586206896551724,1.0714285714285714,0,310636.51409432734,444511.9254579417,105748.36069808646,173029.8037932118,-14306.508692984822,2.0709100939621824e-06,0.0,0.0,0.0,2.0709100939621824e-06,0.0,24.570051115587127,0.8699986123448872,-0.0004850376744588371,0.0
10069,3.793103448275862,7.586206896551724,1.4285714285714286,0,84127.68496287042,289577.24715338234,296305.5659131122,209015.75686514773,-16077.27960507726,5.608512330858028e-07,0.0,0.0,0.0,5.608512330858028e-07,0.0,24.719993996338253,1.186958941549767,-0.0005660442083736046,0.0
10070,3.793103448275862,7.586206896551724,1.7857142857142858,0,320790.61227014737,502642.4566245833,151663.44776324052,224600.92430226994,25008.576885496557,2.1386040818009823e-06,0.0,0.0,0.0,2.1386040818009823e-06,0.0,24.49265705028597,1.5107600639684984,0.00098777622562608,0.0
10071,3.793103448275862,7.586206896551724,2.142857142857143,0,916167.3978539739,997301.3844746848,345592.63267838996,-50231.228600258786,262986.63823061157,6.107782652359826e-06,0.0,0.0,0.0,6.107782652359826e-06,0.0,24.118018505930053,1.8343315159916496,0.014097423836271045,0.0
10072,3.793103448275862,7.586206896551724,2.5,0,705764.8647919837,1121419.8475737604,519800.2364537421,344538.17032661237,682492.9379701405,4.705099098613225e-06,0.0,0.0,0.0,4.705099098613225e-06,0.0,24.729841314346423,2.1464604390392297,0.06824929379701404,0.0
10073,3.793103448275862,7.586206896551724,2.857142857142857,0,278131.681874205,656962.7727992281,420713.15241884586,350431.9645230738,312368.3970328498,1.8542112124947e-06,0.0,0.0,0.0,1.8542112124947e-06,0.0,23.946457762297616,2.4414743731345068,0.016744537728822517,0.0
10074,3.793103448275862,7.586206896551724,3.2142857142857144,0,447823.7642647752,647434.3836534133,336672.12390867254,134119.9677080239,118274.32834325093,2.985491761765168e-06,0.0,0.0,0.0,2.985491761765168e-06,0.0,24.376323559424257,2.725045778254213,0.004671540094994748,0.0
10075,3.793103448275862,7.586206896551724,3.5714285714285716,0,290432.0932055582,420732.19103824353,195495.9023758693,92934.44389591225,15776.9653688799,1.936213954703721e-06,0.0,0.0,0.0,1.936213954703721e-06,0.0,23.867179021493353,3.0083875129783384,0.0005554708316415128,0.0
10076,3.793103448275862,7.586206896551724,3.928571428571429,0,374276.594409507,501887.10718232323,143320.64137340948,113664.80105134557,-29694.030643259353,2.49517729606338e-06,0.0,0.0,0.0,2.49517729606338e-06,0.0,24.351553777211837,3.2985700409163163,-0.001006725251953212,0.0
10077,3.793103448275862,7.586206896551724,4.285714285714286,0,164175.33154990026,358993.55071461684,334938.28147667466,184117.68151529404,-50050.48932317625,1.0945022103326684e-06,0.0,0.0,0.0,1.0945022103326684e-06,0.0,24.98847708354018,3.595802907681982,-0.0016770238727770934,0.0
10078,3.793103448275862,7.586206896551724,4.642857142857143,0,123060.08866898376,321748.9243923872,186864.40517376602,215597.35996383187,-48076.92139138903,8.204005911265584e-07,0.0,0.0,0.0,8.204005911265584e-07,0.0,24.63256367047703,3.8971527677665763,-0.0016050976691213204,0.0
10079,3.793103448275862,7.586206896551724,5.0,0,168571.4761135991,274329.80629634793,84032.44318056235,143733.5895279239,-29490.697046532838,1.1238098407573273e-06,0.0,0.0,0.0,1.1238098407573273e-06,0.0,24.71190183415659,4.20013795110012,-0.0009834958124449826,0.0
10080,4.137931034482759,7.586206896551724,0.0,0,161458.13607640835,279021.7681605677,205808.78595417674,93927.485866975,33428.19331300929,1.0763875738427223e-06,0.0,0.0,0.0,1.0763875738427223e-06,0.0,24.77796278721621,-0.049859580724213204,0.0011148087849219294,0.0
10081,4.137931034482759,7.586206896551724,0.35714285714285715,0,148199.76362494627,273730.8406388481,155761.47537108656,107388.84999926589,42650.63835902535,9.879984241663085e-07,0.0,0.0,0.0,9.879984241663085e-07,0.0,24.190780112250962,0.25430858199189144,0.0014239356064273583,0.0
10082,4.137931034482759,7.586206896551724,0.7142857142857143,0,265679.95071617246,419127.23147935054,172031.75003475818,138119.32595402657,3062.093118482626,1.7711996714411496e-06,0.0,0.0,0.0,1.7711996714411496e-06,0.0,23.79407139440296,0.5601413266221331,0.00010260046065091969,0.0
10083,4.137931034482759,7.586206896551724,1.0714285714285714,0,169177.73615825453,340099.3049904236,285361.3265784069,150329.8179367911,31628.511622171114,1.1278515743883635e-06,0.0,0.0,0.0,1.1278515743883635e-06,0.0,23.308522331554407,0.8701647244603615,0.001072310516355023,0.0
10084,4.137931034482759,7.586206896551724,1.4285714285714286,0,226205.66027155766,438336.5255805751,240372.79139651565,191785.11318932506,-16906.091610189742,1.5080377351437178e-06,0.0,0.0,0.0,1.5080377351437178e-06,0.0,23.698037599207534,1.1873646034674605,-0.0005952247816327945,0.0
10085,4.137931034482759,7.586206896551724,1.7857142857142858,0,520227.4502011201,734982.239930683,264850.20435250865,176082.1569398316,24006.11968196868,3.468183001340801e-06,0.0,0.0,0.0,3.468183001340801e-06,0.0,24.303291374418887,1.5115276689084567,0.0009481816738294642,0.0
10086,4.137931034482759,7.586206896551724,2.142857142857143,0,228063.1422517447,441569.8136510086,659671.6913272042,422806.53156933596,379661.5288005095,1.5204209483449646e-06,0.0,0.0,0.0,1.5204209483449646e-06,0.0,23.233073594065903,1.8354569547667678,0.02035179247827051,0.0
10087,4.137931034482759,7.586206896551724,2.5,0,654571.1118221544,1234983.261458655,914590.6268828149,481933.8761899278,583798.0424277693,4.363807412147696e-06,0.0,0.0,0.0,4.363807412147696e-06,0.0,24.342780225789113,2.147738985688204,0.05837980424277693,0.0
10088,4.137931034482759,7.586206896551724,2.857142857142857,0,513301.48108038626,845080.5866150674,674819.8716785398,268282.78341616044,376544.87896801886,3.422009873869242e-06,0.0,0.0,0.0,3.422009873869242e-06,0.0,24.505944770362092,2.442599811909625,0.020184724166612274,0.0
10089,4.137931034482759,7.586206896551724,3.2142857142857144,0,543538.6142983218,613219.5568267353,118067.06117735065,31648.953102905965,62313.942138014514,3.6235907619888116e-06,0.0,0.0,0.0,3.6235907619888116e-06,0.0,23.481637104291043,2.7258133831941715,0.0024612448301553065,0.0
10090,4.137931034482759,7.586206896551724,3.5714285714285716,0,209479.34247927862,328568.20140558685,187850.99595825927,87825.92577318496,-9832.17682370857,1.3965289498618575e-06,0.0,0.0,0.0,1.3965289498618575e-06,0.0,24.708079365439605,3.008793174896032,-0.0003461684366680936,0.0
10091,4.137931034482759,7.586206896551724,3.928571428571429,0,46601.27723872655,287701.8528027039,240432.84439554327,241798.3191314192,-7093.941153468672,3.1067518159151033e-07,0.0,0.0,0.0,3.1067518159151033e-07,0.0,24.062486365737975,3.2987361530317907,-0.0002405079250057347,0.0
10092,4.137931034482759,7.586206896551724,4.285714285714286,0,296191.3103915551,361087.60027245333,214178.56113261543,20158.608994066984,10106.993416928417,1.9746087359437003e-06,0.0,0.0,0.0,1.9746087359437003e-06,0.0,23.460274656140626,3.5958556123364187,0.0003386514192248109,0.0
10093,4.137931034482759,7.586206896551724,4.642857142857143,0,271576.1510207254,484254.9944877162,208055.72549546981,217551.01068977744,7864.692235341145,1.8105076734715024e-06,0.0,0.0,0.0,1.8105076734715024e-06,0.0,23.436254368298897,3.897165724849035,0.0002625708720517951,0.0
10094,4.137931034482759,7.586206896551724,5.0,0,327984.0903054413,393597.4821392006,165038.96698422253,17795.152240928302,-30549.60214059148,2.1865606020362754e-06,0.0,0.0,0.0,2.1865606020362754e-06,0.0,24.259583433799666,4.200140419275787,-0.0010188096174778066,0.0
10095,4.482758620689656,7.586206896551724,0.0,0,303542.9684390361,407617.775431723,136256.96810817512,79815.4889056696,-3958.8234157156944,2.023619789593574e-06,0.0,0.0,0.0,2.023619789593574e-06,0.0,24.288856822744954,-0.04985786884488096,-0.00013202421921130133,0.0
10096,4.482758620689656,7.586206896551724,0.35714285714285715,0,233225.40322538724,312857.1580164882,358392.1361193545,105757.26565741525,-49471.41520229342,1.5548360215025815e-06,0.0,0.0,0.0,1.5548360215025815e-06,0.0,24.24379867575399,0.2543175687759217,-0.0016516542850756781,0.0
10097,4.482758620689656,7.586206896551724,0.7142857142857143,0,50732.27353750053,287209.3312261823,230242.31798944421,246900.71866969336,-11390.176531436,3.382151569166702e-07,0.0,0.0,0.0,3.382151569166702e-07,0.0,24.77440803107874,0.560177881560201,-0.00038164657761934057,0.0
10098,4.482758620689656,7.586206896551724,1.0714285714285714,0,144968.12602661218,283753.8635856283,278570.449468366,136263.54808911588,-30746.394001891997,9.664541735107478e-07,0.0,0.0,0.0,9.664541735107478e-07,0.0,24.29169308781707,0.8702799366395967,-0.0010424038292435023,0.0
10099,4.482758620689656,7.586206896551724,1.4285714285714286,0,186591.872271135,352614.72149096313,274031.64678191836,139584.72531225847,-114113.21756689838,1.2439458151409e-06,0.0,0.0,0.0,1.2439458151409e-06,0.0,23.97518403498328,1.1876459627977942,-0.004017665145428035,0.0
10100,4.482758620689656,7.586206896551724,1.7857142857142858,0,251113.57239664163,329958.46154979046,397034.74011947523,119194.31701040226,182677.63106034955,1.6740904826442776e-06,0.0,0.0,0.0,1.6740904826442776e-06,0.0,24.109882054216122,1.5120600649812643,0.007215309441288219,0.0
10101,4.482758620689656,7.586206896551724,2.142857142857143,0,251921.6952588439,709123.1585069875,570256.3977814225,418326.8236638283,248753.60675586754,1.6794779683922926e-06,0.0,0.0,0.0,1.6794779683922926e-06,0.0,24.815623918598348,1.836237537528638,0.013334460825965918,0.0
10102,4.482758620689656,7.586206896551724,2.5,0,511863.6124020473,866487.3650299032,464418.38055900607,290273.24048990186,471209.7187473923,3.4124240826803153e-06,0.0,0.0,0.0,3.4124240826803153e-06,0.0,23.719307752499628,2.1486257611365893,0.04712097187473923,0.0
10103,4.482758620689656,7.586206896551724,2.857142857142857,0,489698.6753014352,800280.8658941517,329343.8462796175,293761.55778624257,447405.22430719086,3.2646578353429017e-06,0.0,0.0,0.0,3.2646578353429017e-06,0.0,24.363838936745058,2.443380394671495,0.023983199739941095,0.0
10104,4.482758620689656,7.586206896551724,3.2142857142857144,0,342979.1286354863,574529.8176584044,435085.9468227539,183791.9358386359,-6641.569275164409,2.2865275242365754e-06,0.0,0.0,0.0,2.2865275242365754e-06,0.0,24.391594233425153,2.7263457792669787,-0.00026232537184715457,0.0
10105,4.482758620689656,7.586206896551724,3.5714285714285716,0,180980.8937854458,419103.2443390581,288223.9400161889,212571.28306635353,-51804.74900148112,1.206539291902972e-06,0.0,0.0,0.0,1.206539291902972e-06,0.0,24.80521555158041,3.009074534226366,-0.0018239266131364735,0.0
10106,4.482758620689656,7.586206896551724,3.928571428571429,0,134947.78224687284,335261.6244563931,298488.06186088646,185738.7201647249,-6691.639232188832,8.99651881645819e-07,0.0,0.0,0.0,8.99651881645819e-07,0.0,24.354379444230943,3.298851365211026,-0.00022686856738778711,0.0
10107,4.482758620689656,7.586206896551724,4.285714285714286,0,210276.80028213884,288434.0185168712,276475.3667246892,72433.08486962637,-16150.852699940015,1.401845335214259e-06,0.0,0.0,0.0,1.401845335214259e-06,0.0,23.82498159578945,3.595892167274487,-0.0005411608539651918,0.0
10108,4.482758620689656,7.586206896551724,4.642857142857143,0,98970.62108814328,197594.68298256755,175135.49265395736,89324.51683936581,-20801.51185618013,6.598041405876218e-07,0.0,0.0,0.0,6.598041405876218e-07,0.0,24.404093003984222,3.897174711633065,-0.0006944799547945759,0.0
10109,4.482758620689656,7.586206896551724,5.0,0,212053.9187628356,287858.3136053418,301383.7133005879,82890.84995473265,-29838.654706151956,1.4136927917522372e-06,0.0,0.0,0.0,1.4136927917522372e-06,0.0,24.672399691626392,4.200142131155119,-0.000995099976992317,0.0
10110,4.827586206896552,7.586206896551724,0.0,0,127674.51145201798,260536.26560199697,275898.35856868705,141237.84347220932,-6099.782823165797,8.511634096801198e-07,0.0,0.0,0.0,8.511634096801198e-07,0.0,24.329326042267642,-0.04985699094702338,-0.00020342384087909167,0.0
10111,4.827586206896552,7.586206896551724,0.35714285714285715,0,143409.58536010882,353661.8406845773,271153.0634125444,188067.05061779544,52941.59641495905,9.560639024007255e-07,0.0,0.0,0.0,9.560639024007255e-07,0.0,24.81237360848163,0.25432217744097074,0.0017675098684757382,0.0
10112,4.827586206896552,7.586206896551724,0.7142857142857143,0,235958.52862402474,383559.4261820147,373176.71949719545,142580.92988681924,-52267.16411135858,1.5730568574934982e-06,0.0,0.0,0.0,1.5730568574934982e-06,0.0,23.615532031140734,0.5601966279176162,-0.0017512972033325949,0.0
10113,4.827586206896552,7.586206896551724,1.0714285714285714,0,397336.0531702808,397123.56587086193,370735.0889543613,-12748.974695603938,28320.66163542091,2.6489070211352056e-06,0.0,0.0,0.0,2.6489070211352056e-06,0.0,24.194857843232082,0.8703390205501345,0.0009601635279134093,0.0
10114,4.827586206896552,7.586206896551724,1.4285714285714286,0,201783.85672973393,447385.4762254412,325607.42665650236,214466.49817958596,64477.46464437148,1.3452257115315596e-06,0.0,0.0,0.0,1.3452257115315596e-06,0.0,24.28138556970474,1.1877902514451644,0.002270103918640217,0.0
10115,4.827586206896552,7.586206896551724,1.7857142857142858,0,431640.47279406834,541742.6458893401,452543.3754774302,72471.23698942496,23776.582342040303,2.8776031519604556e-06,0.0,0.0,0.0,2.8776031519604556e-06,0.0,24.669328486529253,1.5123330920357407,0.00093911552311194,0.0
10116,4.827586206896552,7.586206896551724,2.142857142857143,0,535428.6550657995,738579.544106142,755668.4273416804,211899.89973945878,342072.62229916296,3.5695243671053297e-06,0.0,0.0,0.0,3.5695243671053297e-06,0.0,24.73759835770908,1.8366378414060216,0.018336835558570377,0.0
10117,4.827586206896552,7.586206896551724,2.5,0,350471.80247634614,825334.9183960547,565900.0531046028,426636.7293114644,548040.8651260468,2.336478683175641e-06,0.0,0.0,0.0,2.336478683175641e-06,0.0,24.30470321491531,2.1490805234855643,0.05480408651260468,0.0
10118,4.827586206896552,7.586206896551724,2.857142857142857,0,228226.54843234143,576030.4292828253,483283.31769033696,316031.41297735774,169248.31596767265,1.5215103228822762e-06,0.0,0.0,0.0,1.5215103228822762e-06,0.0,24.116887699006895,2.4437806985488786,0.009072572126950272,0.0
10119,4.827586206896552,7.586206896551724,3.2142857142857144,0,302083.047731214,667021.4411987193,464591.04324461205,319796.8557855273,126480.7847757717,2.0138869848747603e-06,0.0,0.0,0.0,2.0138869848747603e-06,0.0,24.396113030738718,2.726618806321455,0.00499567459484233,0.0
10120,4.827586206896552,7.586206896551724,3.5714285714285716,0,234039.4950928136,374983.83244901674,205434.06520555858,107961.47261961561,6252.759978955855,1.5602633006187573e-06,0.0,0.0,0.0,1.5602633006187573e-06,0.0,23.736482776319995,3.009218822873736,0.0002201453641025493,0.0
10121,4.827586206896552,7.586206896551724,3.928571428571429,0,194243.66034179358,251014.37885141763,273691.2961089,69104.50592008804,-17205.344189566313,1.2949577356119571e-06,0.0,0.0,0.0,1.2949577356119571e-06,0.0,24.066886498984278,3.2989104491215637,-0.0005833177271309517,0.0
10122,4.827586206896552,7.586206896551724,4.285714285714286,0,147426.86582648236,270893.6739130219,237357.29086815615,109587.72252618315,-49379.649308232714,9.828457721765491e-07,0.0,0.0,0.0,9.828457721765491e-07,0.0,24.60125051426421,3.595910913631902,-0.0016545462759526104,0.0
10123,4.827586206896552,7.586206896551724,4.642857142857143,0,87587.87668022644,267412.3537654571,171058.04174903454,192617.13888301593,16851.578326313233,5.839191778681763e-07,0.0,0.0,0.0,5.839191778681763e-07,0.0,24.497785847494825,3.897179320298114,0.0005626073448501911,0.0
10124,4.827586206896552,7.586206896551724,5.0,0,136684.26618559423,326225.86304211454,228083.13715467497,170109.68406682997,4920.15083670786,9.112284412372949e-07,0.0,0.0,0.0,9.112284412372949e-07,0.0,23.99459086810365,4.200143009052977,0.0001640838714956303,0.0
10125,5.172413793103448,7.586206896551724,0.0,0,227101.78295160783,391119.5483903139,309743.9308168974,134541.19680886445,19525.615049032156,1.5140118863440522e-06,0.0,0.0,0.0,1.5140118863440522e-06,0.0,23.868511310294004,-0.04985699094702338,0.0006511667257588122,0.0
10126,5.172413793103448,7.586206896551724,0.35714285714285715,0,78546.18999301335,299936.0590376398,230971.5522863017,214439.82161027147,17900.249550236775,5.23641266620089e-07,0.0,0.0,0.0,5.23641266620089e-07,0.0,23.864468534584137,0.25432217744097074,0.0005976183166112854,0.0
10127,5.172413793103448,7.586206896551724,0.7142857142857143,0,47022.807799411894,177707.05851465638,231979.11097745824,203410.36200714583,-26294.49032615202,3.134853853294126e-07,0.0,0.0,0.0,3.134853853294126e-07,0.0,23.903648940480583,0.5601966279176162,-0.0008810400976248612,0.0
10128,5.172413793103448,7.586206896551724,1.0714285714285714,0,116724.92086295146,320580.798200382,255153.84955700612,185817.37069950305,-113733.38186289296,7.781661390863431e-07,0.0,0.0,0.0,7.781661390863431e-07,0.0,24.347286728097057,0.8703390205501345,-0.003855935520744244,0.0
10129,5.172413793103448,7.586206896551724,1.4285714285714286,0,283471.7616773856,375103.135076104,306598.570765203,63656.727496050196,610.2234558084574,1.889811744515904e-06,0.0,0.0,0.0,1.889811744515904e-06,0.0,24.878973984349535,1.1877902514451644,2.148457086390541e-05,0.0
10130,5.172413793103448,7.586206896551724,1.7857142857142858,0,202966.68948652485,529704.8525051138,351558.3539264156,308747.7686330843,48598.23898508143,1.353111263243499e-06,0.0,0.0,0.0,1.353111263243499e-06,0.0,24.944158039733836,1.5123330920357407,0.0019195088667599248,0.0
10131,5.172413793103448,7.586206896551724,2.142857142857143,0,387476.28001996025,718649.7497235122,632810.6493365305,295451.87486284826,323404.0910110218,2.5831752001330684e-06,0.0,0.0,0.0,2.5831752001330684e-06,0.0,23.826919065886923,1.8366378414060216,0.01733610715753719,0.0
10132,5.172413793103448,7.586206896551724,2.5,0,632846.6315453025,1008968.1186663354,473970.0512082008,310391.7601795376,704678.7129534949,4.218977543635349e-06,0.0,0.0,0.0,4.218977543635349e-06,0.0,24.457564260096603,2.1490805234855643,0.07046787129534948,0.0
10133,5.172413793103448,7.586206896551724,2.857142857142857,0,539637.9442038529,832646.9319270356,443911.8742972578,216529.5933294502,305937.6281759058,3.5975862946923526e-06,0.0,0.0,0.0,3.5975862946923526e-06,0.0,24.438185829928486,2.4437806985488786,0.016399815750628575,0.0
10134,5.172413793103448,7.586206896551724,3.2142857142857144,0,308925.8134825351,551901.0471231923,313807.54184957524,202813.49311467586,96839.88342424811,2.0595054232169004e-06,0.0,0.0,0.0,2.0595054232169004e-06,0.0,24.407969719469627,2.726618806321455,0.003824933141011637,0.0
10135,5.172413793103448,7.586206896551724,3.5714285714285716,0,274486.7194832704,419153.59571486316,307417.43159780494,106421.2861080202,19468.055939621012,1.8299114632218028e-06,0.0,0.0,0.0,1.8299114632218028e-06,0.0,23.818387783851787,3.009218822873736,0.0006854256804388562,0.0
10136,5.172413793103448,7.586206896551724,3.928571428571429,0,139871.12753418874,304544.32789736363,243908.61499814584,144586.91321575514,-45926.52699424327,9.324741835612582e-07,0.0,0.0,0.0,9.324741835612582e-07,0.0,23.94043445089835,3.2989104491215637,-0.0015570602393148382,0.0
10137,5.172413793103448,7.586206896551724,4.285714285714286,0,151005.67004665165,291929.16048700607,217690.75719913797,118174.65229974435,-41720.19104152124,1.0067044669776778e-06,0.0,0.0,0.0,1.0067044669776778e-06,0.0,24.488703454905956,3.595910913631902,-0.001397903542994014,0.0
10138,5.172413793103448,7.586206896551724,4.642857142857143,0,232364.28959383167,411355.2744676548,270197.80983083334,143168.1144154441,37188.415587334915,1.5490952639588777e-06,0.0,0.0,0.0,1.5490952639588777e-06,0.0,24.12859234313699,3.897179320298114,0.0012415736584214273,0.0
10139,5.172413793103448,7.586206896551724,5.0,0,168205.55381032088,358365.7351897551,250038.20758651115,164588.33163483726,-28345.97849168252,1.1213703587354726e-06,0.0,0.0,0.0,1.1213703587354726e-06,0.0,24.371000633028814,4.200143009052977,-0.0009453201835899936,0.0
10140,5.517241379310345,7.586206896551724,0.0,0,232578.11931818386,375173.5860474182,206680.4652306063,109818.95634434554,11884.400279062824,1.5505207954545591e-06,0.0,0.0,0.0,1.5505207954545591e-06,0.0,23.739642330300274,-0.04985786884488096,0.00039633711910693663,0.0
10141,5.517241379310345,7.586206896551724,0.35714285714285715,0,288819.1506036888,400953.14873794914,158727.9720310948,81316.6963720659,-32970.34523851198,1.925461004024592e-06,0.0,0.0,0.0,1.925461004024592e-06,0.0,24.006376871693075,0.2543175687759217,-0.0011007490238744639,0.0
10142,5.517241379310345,7.586206896551724,0.7142857142857143,0,309571.7126434548,356999.810957428,173158.3635296001,-413.6375621434901,24115.99785908548,2.063811417623032e-06,0.0,0.0,0.0,2.063811417623032e-06,0.0,23.588950065367513,0.560177881560201,0.0008080461284681215,0.0
10143,5.517241379310345,7.586206896551724,1.0714285714285714,0,238536.77769160242,394588.4012769168,135327.39602000557,184412.30487465597,8447.429101013026,1.5902451846106828e-06,0.0,0.0,0.0,1.5902451846106828e-06,0.0,24.392807534591835,0.8702799366395967,0.0002863956157465853,0.0
10144,5.517241379310345,7.586206896551724,1.4285714285714286,0,113260.59983782162,264583.29190289334,281593.41459991114,160789.8435996822,-6657.447405888858,7.550706655854774e-07,0.0,0.0,0.0,7.550706655854774e-07,0.0,24.09130290379941,1.1876459627977942,-0.00023439348193367177,0.0
10145,5.517241379310345,7.586206896551724,1.7857142857142858,0,338578.6462346432,576623.9369546531,292276.8922315062,202080.94950785555,95285.92254622807,2.2571909748976214e-06,0.0,0.0,0.0,2.2571909748976214e-06,0.0,24.402989005030335,1.5120600649812643,0.00376355557371186,0.0
10146,5.517241379310345,7.586206896551724,2.142857142857143,0,284827.83080673224,790814.9115114646,493254.0004746911,520708.3608226963,330894.0311864808,1.898852205378215e-06,0.0,0.0,0.0,1.898852205378215e-06,0.0,24.091554618475765,1.836237537528638,0.017737606115325186,0.0
10147,5.517241379310345,7.586206896551724,2.5,0,999955.594418051,1289837.9295669287,651402.7011367264,137426.7393249753,487501.26331776596,6.666370629453673e-06,0.0,0.0,0.0,6.666370629453673e-06,0.0,24.397426203077437,2.1486257611365893,0.0487501263317766,0.0
10148,5.517241379310345,7.586206896551724,2.857142857142857,0,557803.2696201312,973094.5637173342,745951.6589711502,337556.57676897995,310558.6701114191,3.7186884641342083e-06,0.0,0.0,0.0,3.7186884641342083e-06,0.0,25.18690548050052,2.443380394671495,0.016647527144516915,0.0
10149,5.517241379310345,7.586206896551724,3.2142857142857144,0,372691.76341523277,484149.76935676154,490713.1367677491,114783.03675845946,95425.83570145672,2.484611756101552e-06,0.0,0.0,0.0,2.484611756101552e-06,0.0,24.027175645838717,2.7263457792669787,0.0037690817933372285,0.0
10150,5.517241379310345,7.586206896551724,3.5714285714285716,0,187234.86415149178,415578.7802433318,266488.9085367282,205438.66759635144,47700.76757267604,1.2482324276766118e-06,0.0,0.0,0.0,1.2482324276766118e-06,0.0,24.539522113852875,3.009074534226366,0.001679434822478412,0.0
10151,5.517241379310345,7.586206896551724,3.928571428571429,0,346400.43369006115,343956.3810737558,317187.77309250715,-15051.767118512274,-4070.445156603549,2.3093362246004076e-06,0.0,0.0,0.0,2.3093362246004076e-06,0.0,23.96888410848837,3.298851365211026,-0.00013800147157771116,0.0
10152,5.517241379310345,7.586206896551724,4.285714285714286,0,226076.03336134367,352373.3188188557,96108.69809454713,181151.4971555843,57710.80018685296,1.507173555742291e-06,0.0,0.0,0.0,1.507173555742291e-06,0.0,24.237245288067395,3.595892167274487,0.0019336951733977424,0.0
10153,5.517241379310345,7.586206896551724,4.642857142857143,0,145928.49946517148,256381.43812844134,346286.1057563821,177911.77224143184,-23972.930236091033,9.728566631011432e-07,0.0,0.0,0.0,9.728566631011432e-07,0.0,24.54446539884086,3.897174711633065,-0.0008003610324942651,0.0
10154,5.517241379310345,7.586206896551724,5.0,0,246917.6753023549,345109.8701626324,269938.16930303455,69342.89134704905,-50119.48572544001,1.6461178353490326e-06,0.0,0.0,0.0,1.6461178353490326e-06,0.0,24.45436123964205,4.200142131155119,-0.0016714526704841495,0.0
10155,5.862068965517242,7.586206896551724,0.0,0,151529.9507494689,307662.595962097,232288.97069999634,133226.2369505457,-45488.754184410864,1.010199671663126e-06,0.0,0.0,0.0,1.010199671663126e-06,0.0,24.56652462499913,-0.049859580724213204,-0.0015170207466821141,0.0
10156,5.862068965517242,7.586206896551724,0.35714285714285715,0,236658.10298563316,340650.77033142955,168224.0956300522,70837.7622366799,-320.856044306978,1.5777206865708877e-06,0.0,0.0,0.0,1.5777206865708877e-06,0.0,24.704066749184886,0.25430858199189144,-1.071211038344188e-05,0.0
10157,5.862068965517242,7.586206896551724,0.7142857142857143,0,105219.16969681473,276602.97747079335,198086.05687174865,157048.8537988349,393.4734895733228,7.014611313120982e-07,0.0,0.0,0.0,7.014611313120982e-07,0.0,24.562980525810094,0.5601413266221331,1.3183975706183875e-05,0.0
10158,5.862068965517242,7.586206896551724,1.0714285714285714,0,97709.8443664934,294258.4362990507,273890.9333657247,187970.12040217928,4399.328674244732,6.513989624432894e-07,0.0,0.0,0.0,6.513989624432894e-07,0.0,24.695438745908763,0.8701647244603615,0.0001491517039640894,0.0
10159,5.862068965517242,7.586206896551724,1.4285714285714286,0,349965.5688991788,478195.469352949,320050.56716596795,77069.3863142054,-21004.148817850928,2.333103792661192e-06,0.0,0.0,0.0,2.333103792661192e-06,0.0,24.346555307773052,1.1873646034674605,-0.0007395079940269956,0.0
10160,5.862068965517242,7.586206896551724,1.7857142857142858,0,372865.98565898347,438092.9177726421,462496.0389236921,78027.89507750783,181912.1019205623,2.4857732377265563e-06,0.0,0.0,0.0,2.4857732377265563e-06,0.0,23.880492663407853,1.5115276689084567,0.007185072955311107,0.0
10161,5.862068965517242,7.586206896551724,2.142857142857143,0,184783.14601559952,661208.13655621,455601.34622405004,509016.5152790134,434192.6093322518,1.2318876401039969e-06,0.0,0.0,0.0,1.2318876401039969e-06,0.0,24.64984925344175,1.8354569547667678,0.023274936253475122,0.0
10162,5.862068965517242,7.586206896551724,2.5,0,399930.0673107192,957133.4637363116,497124.2105083757,762309.4276185815,447357.5074538593,2.666200448738128e-06,0.0,0.0,0.0,2.666200448738128e-06,0.0,24.063559350938345,2.147738985688204,0.04473575074538593,0.0
10163,5.862068965517242,7.586206896551724,2.857142857142857,0,252841.9476676136,695049.6724772218,607446.6895915169,410056.6833763934,301625.39952163753,1.6856129844507574e-06,0.0,0.0,0.0,1.6856129844507574e-06,0.0,24.605948176330575,2.442599811909625,0.016168658322148026,0.0
10164,5.862068965517242,7.586206896551724,3.2142857142857144,0,180798.1487153668,456568.7037337188,473753.40249427274,284976.4667163639,61171.2843744345,1.2053209914357787e-06,0.0,0.0,0.0,1.2053209914357787e-06,0.0,23.636209001595613,2.7258133831941715,0.0024161127069617645,0.0
10165,5.862068965517242,7.586206896551724,3.5714285714285716,0,230732.17546914946,395414.10228527564,271339.48646771733,129191.94165960087,31420.812436349708,1.538214503127663e-06,0.0,0.0,0.0,1.538214503127663e-06,0.0,24.0905756872324,3.008793174896032,0.0011062548726447688,0.0
10166,5.862068965517242,7.586206896551724,3.928571428571429,0,161804.44735756353,232939.6536894508,332019.19344347244,145300.29692437738,-50580.92567890017,1.0786963157170903e-06,0.0,0.0,0.0,1.0786963157170903e-06,0.0,23.927597344327168,3.2987361530317907,-0.0017148596551231998,0.0
10167,5.862068965517242,7.586206896551724,4.285714285714286,0,94887.63814583827,258257.48451223405,228569.77992577103,152075.5568058118,-55441.578178862685,6.325842543055885e-07,0.0,0.0,0.0,6.325842543055885e-07,0.0,24.47416357140724,3.5958556123364187,-0.0018576611619126903,0.0
10168,5.862068965517242,7.586206896551724,4.642857142857143,0,298625.49847684416,454899.3746548351,225659.75055808583,117200.91190557093,-39302.06327409672,1.9908366565122945e-06,0.0,0.0,0.0,1.9908366565122945e-06,0.0,23.99411476782195,3.897165724849035,-0.001312139969183012,0.0
10169,5.862068965517242,7.586206896551724,5.0,0,118756.75169871788,351996.9706042937,268894.8052270281,215980.6103993262,48488.31245876806,7.917116779914526e-07,0.0,0.0,0.0,7.917116779914526e-07,0.0,24.279786450455614,4.200140419275787,0.0016170540893108139,0.0
10170,6.206896551724139,7.586206896551724,0.0,0,151797.16059793922,275387.24133388285,305544.87499061535,140932.56420599096,-21194.317566305803,1.011981070652928e-06,0.0,0.0,0.0,1.011981070652928e-06,0.0,24.11191826292721,-0.04986204889988007,-0.0007068168833446255,0.0
10171,6.206896551724139,7.586206896551724,0.35714285714285715,0,206761.53050683916,350869.84716536035,139276.76686573328,149304.80084302023,26179.196427498042,1.3784102033789277e-06,0.0,0.0,0.0,1.3784102033789277e-06,0.0,24.702597503477634,0.2542956249094329,0.0008740195076794677,0.0
10172,6.206896551724139,7.586206896551724,0.7142857142857143,0,226677.19901841096,361677.1607184215,154743.9595805184,119406.59675163544,19130.991418137204,1.5111813267894064e-06,0.0,0.0,0.0,1.5111813267894064e-06,0.0,24.429477819379635,0.5600886219676963,0.0006410152977915734,0.0
10173,6.206896551724139,7.586206896551724,1.0714285714285714,0,240758.31000715558,401205.6133367581,213288.12287798995,129821.31633350828,-5798.6338374558,1.605055400047704e-06,0.0,0.0,0.0,1.605055400047704e-06,0.0,24.343650545198486,0.8699986123448872,-0.00019659274893091258,0.0
10174,6.206896551724139,7.586206896551724,1.4285714285714286,0,231787.77810577964,379007.8957433009,517929.8842545773,250350.0243897581,37067.289206828726,1.545251854038531e-06,0.0,0.0,0.0,1.545251854038531e-06,0.0,24.213695323047606,1.186958941549767,0.0013050543929713533,0.0
10175,6.206896551724139,7.586206896551724,1.7857142857142858,0,380812.4571262352,665889.068396893,360830.5046052518,239092.43154325648,-9701.926885738809,2.5387497141749014e-06,0.0,0.0,0.0,2.5387497141749014e-06,0.0,23.824713812993195,1.5107600639684984,-0.0003832018416870819,0.0
10176,6.206896551724139,7.586206896551724,2.142857142857143,0,175586.46611940773,488883.0613968528,557664.4523760799,358099.76596924005,272390.81322125095,1.1705764407960515e-06,0.0,0.0,0.0,1.1705764407960515e-06,0.0,23.774642297007162,1.8343315159916496,0.014601535533981138,0.0
10177,6.206896551724139,7.586206896551724,2.5,0,360300.6998551994,765993.0686769452,799917.726073703,423854.53058225865,345082.0636777206,2.4020046657013292e-06,0.0,0.0,0.0,2.4020046657013292e-06,0.0,24.3563465273923,2.1464604390392297,0.03450820636777206,0.0
10178,6.206896551724139,7.586206896551724,2.857142857142857,0,534847.7241300851,852434.1298413111,739036.0248607112,269980.628632564,319364.7279954838,3.5656514942005673e-06,0.0,0.0,0.0,3.5656514942005673e-06,0.0,23.515428036166536,2.4414743731345068,0.01711957671765734,0.0
10179,6.206896551724139,7.586206896551724,3.2142857142857144,0,463906.17459747463,593816.7944767439,408879.9015649351,65966.1044006417,14542.573633492175,3.092707830649831e-06,0.0,0.0,0.0,3.092707830649831e-06,0.0,24.208383864105688,2.725045778254213,0.0005743952788817405,0.0
10180,6.206896551724139,7.586206896551724,3.5714285714285716,0,73578.49937823715,317979.9726520795,362791.1215293131,277873.4180837584,90054.30588836405,4.905233291882476e-07,0.0,0.0,0.0,4.905233291882476e-07,0.0,24.285587201175712,3.0083875129783384,0.0031706059444979407,0.0
10181,6.206896551724139,7.586206896551724,3.928571428571429,0,177740.18859082664,352012.50289241376,154342.2995222937,205360.63986769217,2178.3391594700233,1.184934590605511e-06,0.0,0.0,0.0,1.184934590605511e-06,0.0,23.531334154350137,3.2985700409163163,7.385285835740266e-05,0.0
10182,6.206896551724139,7.586206896551724,4.285714285714286,0,94508.18238540566,284293.70957006805,177606.37351808007,211071.51588469127,26619.095026571973,6.300545492360377e-07,0.0,0.0,0.0,6.300545492360377e-07,0.0,24.213309610776854,3.595802907681982,0.0008919165114058519,0.0
10183,6.206896551724139,7.586206896551724,4.642857142857143,0,243853.79841997172,305852.1333735144,301930.8130314852,60061.32240295329,21137.373826429874,1.6256919894664782e-06,0.0,0.0,0.0,1.6256919894664782e-06,0.0,24.249271138330336,3.8971527677665763,0.0007056930535120599,0.0
10184,6.206896551724139,7.586206896551724,5.0,0,164935.9356209507,390071.8346213569,227314.7619058568,223040.13533327804,-2513.7031789808384,1.0995729041396715e-06,0.0,0.0,0.0,1.0995729041396715e-06,0.0,25.29022156881759,4.20013795110012,-8.383038713382832e-05,0.0
10185,6.551724137931035,7.586206896551724,0.0,0,207476.54428290075,385367.0352042013,145927.71998769738,258710.0024393622,32350.807432018148,1.383176961886005e-06,0.0,0.0,0.0,1.383176961886005e-06,0.0,24.142993015655804,-0.04986517726846455,0.001078878657510217,0.0
10186,6.551724137931035,7.586206896551724,0.35714285714285715,0,103166.12184125766,261114.007883906,142037.07629600528,198615.47984854403,1078.6801092779178,6.877741456083844e-07,0.0,0.0,0.0,6.877741456083844e-07,0.0,24.58061386229431,0.25427920203878646,3.6012849388472345e-05,0.0
10187,6.551724137931035,7.586206896551724,0.7142857142857143,0,74294.60063736628,258008.77749037853,175968.83715230538,238709.16242570884,15565.528657781622,4.952973375824419e-07,0.0,0.0,0.0,4.952973375824419e-07,0.0,24.37101786558126,0.5600218197593247,0.0005215486103031609,0.0
10188,6.551724137931035,7.586206896551724,1.0714285714285714,0,105360.50206920246,309373.5655537723,236109.3934001404,188627.82894830167,79702.79508751057,7.024033471280163e-07,0.0,0.0,0.0,7.024033471280163e-07,0.0,24.281469358032773,0.8697880682047247,0.002702186760356961,0.0
10189,6.551724137931035,7.586206896551724,1.4285714285714286,0,268686.555949241,389643.72377954074,310835.6506244202,90365.8119238997,12455.895385667096,1.7912437063282732e-06,0.0,0.0,0.0,1.7912437063282732e-06,0.0,24.572214703631417,1.186444772312842,0.0004385435606243836,0.0
10190,6.551724137931035,7.586206896551724,1.7857142857142858,0,180565.72801502456,487322.45061808283,355880.7290718782,281436.3747903054,29493.359287162493,1.2037715201001638e-06,0.0,0.0,0.0,1.2037715201001638e-06,0.0,23.440317410159725,1.509787138413932,0.0011649139113790407,0.0
10191,6.551724137931035,7.586206896551724,2.142857142857143,0,731467.3702093876,1004453.5543882692,646007.6525599769,162899.9343382948,254727.75022144447,4.876449134729251e-06,0.0,0.0,0.0,4.876449134729251e-06,0.0,24.12238316694096,1.8329050424407223,0.013654705356484899,0.0
10192,6.551724137931035,7.586206896551724,2.5,0,671180.5422746071,1046224.8474418022,599267.5384705958,274425.85474508646,556328.2156928718,4.474536948497381e-06,0.0,0.0,0.0,4.474536948497381e-06,0.0,24.312100587740815,2.1448399039921795,0.05563282156928718,0.0
10193,6.551724137931035,7.586206896551724,2.857142857142857,0,467502.06824934325,898937.7297793078,785505.5951567804,385157.06425063004,323319.2508354125,3.1166804549956218e-06,0.0,0.0,0.0,3.1166804549956218e-06,0.0,23.694906334700907,2.4400478995835795,0.01733155929182829,0.0
10194,6.551724137931035,7.586206896551724,3.2142857142857144,0,378584.23862304684,419013.56805653987,679209.7185834144,244892.15319477313,62429.99881517403,2.5238949241536457e-06,0.0,0.0,0.0,2.5238949241536457e-06,0.0,24.157540331119172,2.724072852699647,0.002465828778576211,0.0
10195,6.551724137931035,7.586206896551724,3.5714285714285716,0,268559.22286465304,483193.9543561112,243457.10466797923,192976.65701247775,-57048.79394350887,1.790394819097687e-06,0.0,0.0,0.0,1.790394819097687e-06,0.0,24.232661801966294,3.0078733437414136,-0.002008557430090623,0.0
10196,6.551724137931035,7.586206896551724,3.928571428571429,0,220311.16842431552,146961.78389377004,268322.6259079327,14017.12787905337,-76087.13491653625,1.4687411228287702e-06,0.0,0.0,0.0,1.4687411228287702e-06,0.0,24.106015445537665,3.298359496776154,-0.002579603994806148,0.0
10197,6.551724137931035,7.586206896551724,4.285714285714286,0,226055.6781081002,381773.6536943733,255107.37020260814,120784.47466477696,-31691.42370111399,1.5070378540540013e-06,0.0,0.0,0.0,1.5070378540540013e-06,0.0,23.75135023110681,3.5957361054736108,-0.001061873216980752,0.0
10198,6.551724137931035,7.586206896551724,4.642857142857143,0,195243.47276116762,387098.4947507452,237354.15067939964,166272.60669584028,1914.8685824667837,1.3016231517411174e-06,0.0,0.0,0.0,1.3016231517411174e-06,0.0,23.822944438302983,3.8971363448959297,6.392986508785854e-05,0.0
10199,6.551724137931035,7.586206896551724,5.0,0,107707.3479940404,297888.0743598609,270865.27892840124,179242.48046034208,2060.5355517006915,7.180489866269361e-07,0.0,0.0,0.0,7.180489866269361e-07,0.0,24.04424153757539,4.200134822731536,6.871753771347012e-05,0.0
10200,6.8965517241379315,7.586206896551724,0.0,0,200949.11264380318,413503.6902801683,262279.73741508933,185480.9762592713,14981.186053102761,1.3396607509586878e-06,0.0,0.0,0.0,1.3396607509586878e-06,0.0,24.276003689341742,-0.049868865832292705,0.0004996129364266071,0.0
10201,6.8965517241379315,7.586206896551724,0.35714285714285715,0,157808.9082304784,325499.8734163142,199704.5090519279,148429.9693707491,11966.803624029862,1.0520593882031893e-06,0.0,0.0,0.0,1.0520593882031893e-06,0.0,24.135972616417114,0.2542598383337162,0.0003995240969652269,0.0
10202,6.8965517241379315,7.586206896551724,0.7142857142857143,0,219959.34263688765,334841.8489021052,318578.34067500575,107202.15384253401,-16515.262617603585,1.466395617579251e-06,0.0,0.0,0.0,1.466395617579251e-06,0.0,24.192793379164822,0.5599430553162018,-0.0005533710069459652,0.0
10203,6.8965517241379315,7.586206896551724,1.0714285714285714,0,168148.5748652332,363856.08293892787,252245.8132138948,170459.8727912099,-34558.122260817414,1.1209904991015547e-06,0.0,0.0,0.0,1.1209904991015547e-06,0.0,23.982284441598072,0.869539822041058,-0.0011716339475102175,0.0
10204,6.8965517241379315,7.586206896551724,1.4285714285714286,0,467802.3574337375,648297.6742359112,246693.72287682228,134646.30138556001,25608.66871854289,3.118682382891583e-06,0.0,0.0,0.0,3.118682382891583e-06,0.0,23.682425092141496,1.1858385310731494,0.0009016225983724093,0.0
10205,6.8965517241379315,7.586206896551724,1.7857142857142858,0,369960.8346064612,719704.9292583007,674189.7250350215,329092.3369928041,72571.50508757558,2.4664055640430747e-06,0.0,0.0,0.0,2.4664055640430747e-06,0.0,23.953938207658197,1.5086399916148432,0.002866392906386522,0.0
10206,6.8965517241379315,7.586206896551724,2.142857142857143,0,490047.09953134326,958192.8331233434,568715.2210113492,407959.2282210953,225080.26903900763,3.2669806635422884e-06,0.0,0.0,0.0,3.2669806635422884e-06,0.0,23.695691719616065,1.8312231310547464,0.012065449298767694,0.0
10207,6.8965517241379315,7.586206896551724,2.5,0,396214.99867036066,808264.9548472901,742560.394894997,383304.89852328715,632300.6326013315,2.641433324469071e-06,0.0,0.0,0.0,2.641433324469071e-06,0.0,22.602871344295767,2.142929180624589,0.06323006326013314,0.0
10208,6.8965517241379315,7.586206896551724,2.857142857142857,0,575369.5500233454,864486.4911518419,617733.6519301427,206895.7921117641,397373.3619890423,3.835797000155636e-06,0.0,0.0,0.0,3.835797000155636e-06,0.0,24.11479678966866,2.4383659881976034,0.021301236986387025,0.0
10209,6.8965517241379315,7.586206896551724,3.2142857142857144,0,109668.77485167193,474954.15217621106,382300.68998405663,353869.53095927794,104524.43177609262,7.311251656778129e-07,0.0,0.0,0.0,7.311251656778129e-07,0.0,23.996168239610874,2.7229257059005576,0.004128453577275572,0.0
10210,6.8965517241379315,7.586206896551724,3.5714285714285716,0,224602.02265072125,461054.9542509618,312696.111889747,202652.00308917835,43165.50982880739,1.497346817671475e-06,0.0,0.0,0.0,1.497346817671475e-06,0.0,24.74930738042433,3.007267102501721,0.0015197587801094236,0.0
10211,6.8965517241379315,7.586206896551724,3.928571428571429,0,147343.36077582312,350291.24342956895,180921.94494002397,279592.17646026635,-25356.30391309132,9.82289071838821e-07,0.0,0.0,0.0,9.82289071838821e-07,0.0,24.480293359380745,3.298111250612487,-0.0008596620563973101,0.0
10212,6.8965517241379315,7.586206896551724,4.285714285714286,0,97381.06362885909,256333.7941576916,270955.588546406,167090.43769055276,28174.668785888025,6.492070908590606e-07,0.0,0.0,0.0,6.492070908590606e-07,0.0,24.378593741393804,3.5956573410304875,0.0009440385658655798,0.0
10213,6.8965517241379315,7.586206896551724,4.642857142857143,0,197866.7631624035,335008.7279332361,114830.20970640119,172077.05169168964,-5203.334967003321,1.3191117544160235e-06,0.0,0.0,0.0,1.3191117544160235e-06,0.0,23.645490275239375,3.8971169811908593,-0.00017371871129606855,0.0
10214,6.8965517241379315,7.586206896551724,5.0,0,206628.21804128887,273602.0656514062,145148.9423666962,35248.92123169139,67396.24110687737,1.3775214536085925e-06,0.0,0.0,0.0,1.3775214536085925e-06,0.0,24.65980958221551,4.200131134167708,0.002247621370175079,0.0
10215,7.241379310344828,7.586206896551724,0.0,0,196079.97625534068,344505.60279522074,356176.4574827323,154521.7245242282,29898.955282477957,1.3071998417022711e-06,0.0,0.0,0.0,1.3071998417022711e-06,0.0,24.092808699551576,-0.04987302082862276,0.0009971109624977144,0.0
10216,7.241379310344828,7.586206896551724,0.35714285714285715,0,149215.46360881525,276993.50875269884,150093.01426081438,112610.34837491407,14361.692581572643,9.947697573921016e-07,0.0,0.0,0.0,9.947697573921016e-07,0.0,23.848370353777458,0.2542380260167138,0.00047947993798637856,0.0
10217,7.241379310344828,7.586206896551724,0.7142857142857143,0,204982.92979931118,337371.0063566371,103344.90501205508,189668.55317792873,57589.69700742388,1.3665528653287413e-06,0.0,0.0,0.0,1.3665528653287413e-06,0.0,23.64023442645745,0.5598543308187114,0.001929637412410424,0.0
10218,7.241379310344828,7.586206896551724,1.0714285714285714,0,238470.80855958836,397563.2486764849,156840.32424743308,161410.2419701111,-17280.02689815574,1.5898053903972558e-06,0.0,0.0,0.0,1.5898053903972558e-06,0.0,23.708927767169925,0.8692601842343018,-0.0005858497164565001,0.0
10219,7.241379310344828,7.586206896551724,1.4285714285714286,0,170604.98694575572,397452.9830675784,421002.28053491603,239846.00790905042,27171.452281974536,1.1373665796383716e-06,0.0,0.0,0.0,1.1373665796383716e-06,0.0,23.912855215626568,1.185155628392485,0.0009566446298821796,0.0
10220,7.241379310344828,7.586206896551724,1.7857142857142858,0,310110.6367883585,530462.9149746302,196589.72334757182,475620.5919133355,189262.69390075142,2.0674042452557234e-06,0.0,0.0,0.0,2.0674042452557234e-06,0.0,23.532512637091035,1.5073477838715843,0.007475402950318513,0.0
10221,7.241379310344828,7.586206896551724,2.142857142857143,0,601496.7891745553,887247.8500031461,433827.32351760234,204899.83919277124,390893.4375881731,4.009978594497035e-06,0.0,0.0,0.0,4.009978594497035e-06,0.0,24.069767305158255,1.8293285357700284,0.020953880020570595,0.0
10222,7.241379310344828,7.586206896551724,2.5,0,661571.0697090104,1143048.526851357,409656.00512744306,591209.5181284503,594021.4128292332,4.4104737980600694e-06,0.0,0.0,0.0,4.4104737980600694e-06,0.0,23.972733963383146,2.140776839239174,0.05940214128292332,0.0
10223,7.241379310344828,7.586206896551724,2.857142857142857,0,178884.74718824824,663792.027852742,550066.3068177722,457598.6679122971,298558.0982172901,1.1925649812549882e-06,0.0,0.0,0.0,1.1925649812549882e-06,0.0,24.403373433008575,2.4364713929128854,0.01600423534304969,0.0
10224,7.241379310344828,7.586206896551724,3.2142857142857144,0,219955.72818150718,605449.1972127078,352633.5181237371,457977.24921464664,4896.735584090107,1.4663715212100478e-06,0.0,0.0,0.0,1.4663715212100478e-06,0.0,23.990199709953014,2.7216334981572987,0.00019340880591836224,0.0
10225,7.241379310344828,7.586206896551724,3.5714285714285716,0,278461.15624732396,507570.6152704817,242575.28703555133,217358.89804156192,-6582.317471966127,1.856407708315493e-06,0.0,0.0,0.0,1.856407708315493e-06,0.0,23.159068553110064,3.0065841998210567,-0.00023174832895897182,0.0
10226,7.241379310344828,7.586206896551724,3.928571428571429,0,198397.22099096669,385339.15010954154,370300.5153949043,179850.55004306562,-28083.667325858987,1.3226481399397778e-06,0.0,0.0,0.0,1.3226481399397778e-06,0.0,23.91951218835855,3.297831612805731,-0.0009521286417481873,0.0
10227,7.241379310344828,7.586206896551724,4.285714285714286,0,169571.71789716193,339402.0494536573,154404.21384398756,191347.59074246572,-7719.432830527345,1.1304781193144129e-06,0.0,0.0,0.0,1.1304781193144129e-06,0.0,23.514470832584678,3.595568616532997,-0.0002586522792515241,0.0
10228,7.241379310344828,7.586206896551724,4.642857142857143,0,168185.91251597845,377251.8348624444,227285.55949584424,195408.56261842913,-3685.386212623884,1.1212394167731897e-06,0.0,0.0,0.0,1.1212394167731897e-06,0.0,23.785433137000503,3.897095168873857,-0.00012304042456333207,0.0
10229,7.241379310344828,7.586206896551724,5.0,0,122816.31150285165,364654.77231719013,256719.8850586853,231023.08667474915,33063.02569954326,8.18775410019011e-07,0.0,0.0,0.0,8.18775410019011e-07,0.0,23.616542712507876,4.200126979171378,0.0011026306794631915,0.0
10230,7.586206896551724,7.586206896551724,0.0,0,277433.78573316504,392000.73801558925,171676.8003503125,80437.36070975725,-13919.766873668115,1.8495585715544337e-06,0.0,0.0,0.0,1.8495585715544337e-06,0.0,25.000078082288475,-0.049877559959333934,-0.00046421528826062416,0.0
10231,7.586206896551724,7.586206896551724,0.35714285714285715,0,140921.47620091637,202803.75990181803,271665.61103481945,109553.84685677256,-20328.614753028236,9.394765080061091e-07,0.0,0.0,0.0,9.394765080061091e-07,0.0,23.7898259560218,0.25421419712491156,-0.000678691796650588,0.0
10232,7.586206896551724,7.586206896551724,0.7142857142857143,0,37651.529312620005,235614.04842943526,211936.42924763449,255353.16502108047,30331.529968212508,2.510101954174667e-07,0.0,0.0,0.0,2.510101954174667e-07,0.0,24.32327616132693,0.5597574036352913,0.0010163077432889754,0.0
10233,7.586206896551724,7.586206896551724,1.0714285714285714,0,368654.1939771076,422925.80045080953,272871.2544890945,2907.745471246247,24760.180563517322,2.4576946265140507e-06,0.0,0.0,0.0,2.4576946265140507e-06,0.0,23.81603397492169,0.8689546935777942,0.0008394515152112718,0.0
10234,7.586206896551724,7.586206896551724,1.4285714285714286,0,125283.1472298215,286036.5480730243,277629.09658947267,156761.43052051935,-4818.7688132020285,8.352209815321433e-07,0.0,0.0,0.0,8.352209815321433e-07,0.0,23.860526075476326,1.1844095905420704,-0.00016965781806413068,0.0
10235,7.586206896551724,7.586206896551724,1.7857142857142858,0,428264.15400253143,633309.3553707469,169944.56525708165,252027.5316195066,96978.33925672583,2.855094360016876e-06,0.0,0.0,0.0,2.855094360016876e-06,0.0,23.74107775198311,1.5059361099766568,0.003830401800033977,0.0
10236,7.586206896551724,7.586206896551724,2.142857142857143,0,505008.0388181325,807402.6665363405,834874.8650811516,316691.4662805671,304827.28147744626,3.36672025878755e-06,0.0,0.0,0.0,3.36672025878755e-06,0.0,23.63539393668453,1.8272587828848277,0.01634029550990949,0.0
10237,7.586206896551724,7.586206896551724,2.5,0,371054.1527684332,818349.2614300792,1138560.4185169903,731919.2534053966,567885.916858132,2.4736943517895546e-06,0.0,0.0,0.0,2.4736943517895546e-06,0.0,23.65074898591259,2.1384255113179376,0.0567885916858132,0.0
10238,7.586206896551724,7.586206896551724,2.857142857142857,0,444281.7581690651,929295.9604360103,577286.1877803691,430098.99405673094,462548.6173628732,2.9618783877937673e-06,0.0,0.0,0.0,2.9618783877937673e-06,0.0,24.180129438227276,2.4344016400276844,0.0247949627696582,0.0
10239,7.586206896551724,7.586206896551724,3.2142857142857144,0,376374.61649055657,609800.9100071588,305079.98179980065,189081.1366318464,53671.6368364876,2.509164109937044e-06,0.0,0.0,0.0,2.509164109937044e-06,0.0,23.96769202988447,2.7202218242623712,0.002119895390299684,0.0
10240,7.586206896551724,7.586206896551724,3.5714285714285716,0,412026.75965202745,581968.6236304617,409733.04322545446,111771.11604983064,-11464.572764406457,2.7468450643468495e-06,0.0,0.0,0.0,2.7468450643468495e-06,0.0,24.666934301618053,3.005838161970642,-0.0004036413606143075,0.0
10241,7.586206896551724,7.586206896551724,3.928571428571429,0,193370.57990657745,308148.68789469416,379649.7697403717,160711.13519630613,855.3586432450279,1.289137199377183e-06,0.0,0.0,0.0,1.289137199377183e-06,0.0,23.89698972571062,3.2975261221492236,2.8999469825316003e-05,0.0
10242,7.586206896551724,7.586206896551724,4.285714285714286,0,218399.97960083507,440261.4551178393,227729.17730370388,216432.2511988532,-67173.3843785554,1.4559998640055672e-06,0.0,0.0,0.0,1.4559998640055672e-06,0.0,23.87370273074029,3.595471689349577,-0.002250754602830731,0.0
10243,7.586206896551724,7.586206896551724,4.642857142857143,0,192294.16095854918,364740.1032945701,223605.04588128475,145721.51862851737,-5722.463618895785,1.2819610730569946e-06,0.0,0.0,0.0,1.2819610730569946e-06,0.0,24.036906421304813,3.897071339982055,-0.0001910503574375357,0.0
10244,7.586206896551724,7.586206896551724,5.0,0,147536.7225080259,295620.5326714291,233015.34957946974,127104.5023669702,8677.6696051945,9.835781500535062e-07,0.0,0.0,0.0,9.835781500535062e-07,0.0,24.324229999931724,4.2001224400406665,0.0002893947099664528,0.0
10245,7.931034482758621,7.586206896551724,0.0,0,296869.9601083294,404315.93711176125,127268.08248333445,90963.1280329473,69069.83760392932,1.9791330673888627e-06,0.0,0.0,0.0,1.9791330673888627e-06,0.0,23.941184941458836,-0.049882413935357584,0.002303434738844393,0.0
10246,7.931034482758621,7.586206896551724,0.35714285714285715,0,199919.0028000782,388112.8775305304,223762.82462012809,165547.6706429406,3220.9796750762835,1.3327933520005213e-06,0.0,0.0,0.0,1.3327933520005213e-06,0.0,24.56077161870835,0.2541887154023444,0.00010753573272015037,0.0
10247,7.931034482758621,7.586206896551724,0.7142857142857143,0,196651.14942250022,352283.0419785394,364811.9062328645,162195.88832253838,15322.138784186296,1.3110076628166682e-06,0.0,0.0,0.0,1.3110076628166682e-06,0.0,25.181634119654237,0.5596537533431323,0.000513393432722858,0.0
10248,7.931034482758621,7.586206896551724,1.0714285714285714,0,249110.014587245,379551.66121391853,240093.77887986173,91947.93109958513,12714.93693296754,1.6607334305816334e-06,0.0,0.0,0.0,1.6607334305816334e-06,0.0,24.306994592010675,0.8686280133351466,0.00043107815982255997,0.0
10249,7.931034482758621,7.586206896551724,1.4285714285714286,0,144963.08178690553,368774.73916202696,206034.62486437682,253477.75347630228,100267.51003713526,9.664205452460369e-07,0.0,0.0,0.0,9.664205452460369e-07,0.0,24.090113954210263,1.18361180566451,0.003530189480976557,0.0
10250,7.931034482758621,7.586206896551724,1.7857142857142858,0,49115.57107956359,500812.51069192257,479513.19674184493,444642.5973312516,123341.16060959644,3.274371405304239e-07,0.0,0.0,0.0,3.274371405304239e-07,0.0,22.906421955178338,1.504426518895193,0.0048716672943490535,0.0
10251,7.931034482758621,7.586206896551724,2.142857142857143,0,602113.7508240907,1023790.9384645838,503555.0515213233,364227.2097057328,206254.48284085712,4.014091672160605e-06,0.0,0.0,0.0,4.014091672160605e-06,0.0,24.603987756204283,1.8250454668296399,0.011056291233278353,0.0
10252,7.931034482758621,7.586206896551724,2.5,0,448652.93842930254,998934.7904082348,718142.1537366603,481502.5579282955,731952.909966582,2.9910195895286837e-06,0.0,0.0,0.0,2.9910195895286837e-06,0.0,24.529961478586156,2.135911089487053,0.0731952909966582,0.0
10253,7.931034482758621,7.586206896551724,2.857142857142857,0,631156.2472311042,874558.0374578797,396606.5344317608,159105.65589340203,251233.7825756686,4.207708314874028e-06,0.0,0.0,0.0,4.207708314874028e-06,0.0,24.688355694698195,2.432188323972497,0.013467410887442223,0.0
10254,7.931034482758621,7.586206896551724,3.2142857142857144,0,322741.3667890555,633460.9155819601,295550.19727859774,328401.7369443918,23979.655222402944,2.151609111927037e-06,0.0,0.0,0.0,2.151609111927037e-06,0.0,24.323936324198385,2.7187122331809075,0.0009471363938799985,0.0
10255,7.931034482758621,7.586206896551724,3.5714285714285716,0,205562.9631194278,440994.68923926045,354925.5242691135,206387.12865590336,-49165.8440590002,1.3704197541295187e-06,0.0,0.0,0.0,1.3704197541295187e-06,0.0,23.45589987668004,3.0050403770930814,-0.001731016811488931,0.0
10256,7.931034482758621,7.586206896551724,3.928571428571429,0,138361.64186158782,257345.05527436777,260602.2165413612,120640.75075760497,65900.45933199853,9.224109457439188e-07,0.0,0.0,0.0,9.224109457439188e-07,0.0,23.452653961884184,3.2971994419065758,0.0022342422058454657,0.0
10257,7.931034482758621,7.586206896551724,4.285714285714286,0,313402.6461391204,439755.5440061964,190553.74318692606,87899.13660426137,41500.26483246749,2.089350974260803e-06,0.0,0.0,0.0,2.089350974260803e-06,0.0,23.39476135944858,3.595368039057418,0.0013905345540426567,0.0
10258,7.931034482758621,7.586206896551724,4.642857142857143,0,97737.89679775908,357112.85029679403,252399.24470423922,268300.7039511196,42908.6011822885,6.515859786517272e-07,0.0,0.0,0.0,6.515859786517272e-07,0.0,23.984911985143754,3.897045858259488,0.001432547961677164,0.0
10259,7.931034482758621,7.586206896551724,5.0,0,153677.63578229776,334464.78881370166,201685.97729997453,166123.6486459505,36110.373679697885,1.0245175718819851e-06,0.0,0.0,0.0,1.0245175718819851e-06,0.0,23.598931998295765,4.200117586064643,0.0012042577780975762,0.0
10260,8.275862068965518,7.586206896551724,0.0,0,272739.6873740495,389330.90545377333,194724.01016011904,77590.8604243684,24759.240693106665,1.8182645824936634e-06,0.0,0.0,0.0,1.8182645824936634e-06,0.0,24.23701673698533,-0.049887525873688505,0.0008257047808183518,0.0
10261,8.275862068965518,7.586206896551724,0.35714285714285715,0,154349.37835794833,375475.80663569894,334425.2777374361,204751.10424699084,-11461.382357644088,1.0289958557196556e-06,0.0,0.0,0.0,1.0289958557196556e-06,0.0,23.526348640329307,0.2541618794654353,-0.00038265008604435594,0.0
10262,8.275862068965518,7.586206896551724,0.7142857142857143,0,221310.5284085721,414835.86799800966,308075.58768941805,160383.5221667367,7415.752908297088,1.475403522723814e-06,0.0,0.0,0.0,1.475403522723814e-06,0.0,23.654083416189124,0.5595445946042105,0.00024847698454112037,0.0
10263,8.275862068965518,7.586206896551724,1.0714285714285714,0,224540.95536119342,410411.4342371125,257803.10734429563,152581.33722541755,-18895.19338411013,1.496939702407956e-06,0.0,0.0,0.0,1.496939702407956e-06,0.0,23.953892034563992,0.8682839718223316,-0.0006406091698649559,0.0
10264,8.275862068965518,7.586206896551724,1.4285714285714286,0,213109.40986416434,492431.4344059796,313857.034724099,256518.83292417641,-31246.529708575086,1.420729399094429e-06,0.0,0.0,0.0,1.420729399094429e-06,0.0,23.587401081162888,1.1827716228791898,-0.001100118776793999,0.0
10265,8.275862068965518,7.586206896551724,1.7857142857142858,0,747959.625761454,783509.6847018597,430752.1010334488,-75595.38254770756,25468.41309420841,4.98639750507636e-06,0.0,0.0,0.0,4.98639750507636e-06,0.0,23.377136250570036,1.502836701294994,0.0010059386055458672,0.0
10266,8.275862068965518,7.586206896551724,2.142857142857143,0,917335.3690842532,1075419.5007972266,728752.739316827,35269.64770750919,559840.780318649,6.115569127228355e-06,0.0,0.0,0.0,6.115569127228355e-06,0.0,22.929445491622047,1.8227145251179746,0.030010318448422377,0.0
10267,8.275862068965518,7.586206896551724,2.5,0,407163.52042804216,1040809.242313279,580782.2357149726,726751.1242698838,579352.2329000273,2.7144234695202812e-06,0.0,0.0,0.0,2.7144234695202812e-06,0.0,24.30605320844668,2.1332630398727237,0.05793522329000273,0.0
10268,8.275862068965518,7.586206896551724,2.857142857142857,0,418146.0175479476,708663.1154944432,797386.4789529062,341998.98833368346,436152.6990539968,2.7876401169863174e-06,0.0,0.0,0.0,2.7876401169863174e-06,0.0,23.38480715336926,2.4298573822608316,0.023380007050039044,0.0
10269,8.275862068965518,7.586206896551724,3.2142857142857144,0,545298.5384969215,822593.1773344425,475406.8732298399,194086.02377359412,193104.10298431385,3.6353235899794768e-06,0.0,0.0,0.0,3.6353235899794768e-06,0.0,23.65851305187175,2.7171224155807083,0.007627128999466377,0.0
10270,8.275862068965518,7.586206896551724,3.5714285714285716,0,309116.22276429174,410136.0226178062,278771.5420783893,57033.58626661135,39030.657614382144,2.0607748184286115e-06,0.0,0.0,0.0,2.0607748184286115e-06,0.0,23.669365783640732,3.0042001943077614,0.001374180099763711,0.0
10271,8.275862068965518,7.586206896551724,3.928571428571429,0,151940.8805353313,335481.03228669503,223231.12734078546,162582.79388079446,-28961.95693621114,1.0129392035688753e-06,0.0,0.0,0.0,1.0129392035688753e-06,0.0,22.829093135646165,3.296855400393761,-0.0009819055467393718,0.0
10272,8.275862068965518,7.586206896551724,4.285714285714286,0,126166.16888010818,234733.4918925773,312265.86553374183,166684.64958308294,-26487.87306004025,8.411077925340545e-07,0.0,0.0,0.0,8.411077925340545e-07,0.0,24.007768996436553,3.595258880318496,-0.000887519703832493,0.0
10273,8.275862068965518,7.586206896551724,4.642857142857143,0,139456.3807970176,382784.55922004825,240170.1935705531,246716.74655126003,4261.100763695892,9.297092053134507e-07,0.0,0.0,0.0,9.297092053134507e-07,0.0,24.571566373418868,3.8970190223225787,0.0001422612493844991,0.0
10274,8.275862068965518,7.586206896551724,5.0,0,185592.68343300835,369117.5705751703,200808.02995247123,170077.77928459618,80892.88741636794,1.2372845562200556e-06,0.0,0.0,0.0,1.2372845562200556e-06,0.0,24.353591795239588,4.200112474126311,0.0026977258592785535,0.0
10275,8.620689655172415,7.586206896551724,0.0,0,121120.70452232234,258225.47668407275,230849.3514943136,125759.73987732922,52741.33547425109,8.074713634821489e-07,0.0,0.0,0.0,8.074713634821489e-07,0.0,23.540660690768593,-0.04989284972978898,0.0017588896762879439,0.0
10276,8.620689655172415,7.586206896551724,0.35714285714285715,0,197221.00824257598,404160.54241191375,316405.1638027637,178292.82251200153,19886.51975772081,1.3148067216171732e-06,0.0,0.0,0.0,1.3148067216171732e-06,0.0,24.260739457145966,0.2541339310323407,0.0006639319986859611,0.0
10277,8.620689655172415,7.586206896551724,0.7142857142857143,0,168329.13805489658,334709.3473514297,140480.33450700197,231190.4170352359,-7585.0043237826085,1.1221942536993107e-06,0.0,0.0,0.0,1.1221942536993107e-06,0.0,22.871256543054905,0.5594309106392427,-0.0002541480312802998,0.0
10278,8.620689655172415,7.586206896551724,1.0714285714285714,0,358299.5847666083,589075.7539079648,240874.70642253186,221466.5343878767,14778.135643376221,2.3886638984440555e-06,0.0,0.0,0.0,2.3886638984440555e-06,0.0,24.15901134667453,0.867925667909364,0.0005010273784557408,0.0
10279,8.620689655172415,7.586206896551724,1.4285714285714286,0,167625.97429410857,394401.7934854963,406859.1641855225,233352.03523179592,14017.694493887311,1.117506495294057e-06,0.0,0.0,0.0,1.117506495294057e-06,0.0,23.382130498425465,1.181896609927627,0.000493530931719922,0.0
10280,8.620689655172415,7.586206896551724,1.7857142857142858,0,253161.02349805343,582082.1733728515,424852.959530724,290043.7286207669,78821.93473212092,1.6877401566536896e-06,0.0,0.0,0.0,1.6877401566536896e-06,0.0,24.236443316551156,1.5011809770703337,0.0031132692412974825,0.0
10281,8.620689655172415,7.586206896551724,2.142857142857143,0,481513.60291422904,779362.8590282355,712783.9348608789,268024.46123401733,273584.30781628424,3.2100906860948604e-06,0.0,0.0,0.0,3.2100906860948604e-06,0.0,23.77493146545104,1.8202869531387795,0.014665512925629945,0.0
10282,8.620689655172415,7.586206896551724,2.5,0,1044599.3658088209,1395537.1942251814,1019613.3469453725,215003.4692364016,541932.3401081387,6.963995772058806e-06,0.0,0.0,0.0,6.963995772058806e-06,0.0,23.159783069172192,2.1305052141359866,0.05419323401081388,0.0
10283,8.620689655172415,7.586206896551724,2.857142857142857,0,700230.3510104344,874203.8934696994,829826.1579391223,152840.14992719877,387338.1281420929,4.668202340069563e-06,0.0,0.0,0.0,4.668202340069563e-06,0.0,23.890174123397752,2.4274298102816365,0.020763297318469435,0.0
10284,8.620689655172415,7.586206896551724,3.2142857142857144,0,210664.77220178035,545138.3687909385,390188.976095162,305267.0575638123,-6776.384055842078,1.4044318146785357e-06,0.0,0.0,0.0,1.4044318146785357e-06,0.0,23.77180938625132,2.715466691356048,-0.0002676502184318326,0.0
10285,8.620689655172415,7.586206896551724,3.5714285714285716,0,255821.06596657014,508015.5230066911,299951.9671923469,222389.18199618516,-22228.016068084264,1.7054737731104676e-06,0.0,0.0,0.0,1.7054737731104676e-06,0.0,23.895219312222558,3.0033251813561983,-0.0007825975580471381,0.0
10286,8.620689655172415,7.586206896551724,3.928571428571429,0,87499.80341508499,277263.8469856355,337403.5541766982,237022.76749172158,1380.8399371713522,5.833320227672332e-07,0.0,0.0,0.0,5.833320227672332e-07,0.0,23.37979721616291,3.296497096480793,4.681501310336428e-05,0.0
10287,8.620689655172415,7.586206896551724,4.285714285714286,0,198918.73371179702,418226.86497288215,330074.47418924776,190464.71578804392,12302.45871017074,1.3261248914119802e-06,0.0,0.0,0.0,1.3261248914119802e-06,0.0,23.19996266195585,3.5951451963535286,0.00041221409080724496,0.0
10288,8.620689655172415,7.586206896551724,4.642857142857143,0,264120.4103259828,502592.4181688993,252871.1195110884,226110.3788639822,41346.01889080591,1.760802735506552e-06,0.0,0.0,0.0,1.760802735506552e-06,0.0,24.09708264604839,3.8969910738894837,0.0013803795382157115,0.0
10289,8.620689655172415,7.586206896551724,5.0,0,238103.3361006407,412478.4418571686,255377.81032264052,138524.0771532359,-46424.68445454687,1.5873555740042714e-06,0.0,0.0,0.0,1.5873555740042714e-06,0.0,23.76144443803504,4.200107150270211,-0.0015482334202912475,0.0
10290,8.965517241379311,7.586206896551724,0.0,0,194160.97782103912,434207.59802834725,290171.4070322885,213398.8204600612,-48134.92937628085,1.2944065188069274e-06,0.0,0.0,0.0,1.2944065188069274e-06,0.0,23.93366969698169,-0.04989834847740244,-0.0016052689903941393,0.0
10291,8.965517241379311,7.586206896551724,0.35714285714285715,0,343209.83297348424,452177.2378294257,374902.7487764918,76917.83203621604,50313.488253622425,2.288065553156562e-06,0.0,0.0,0.0,2.288065553156562e-06,0.0,23.92934806579421,0.2541050644783095,0.0016797677634932074,0.0
10292,8.965517241379311,7.586206896551724,0.7142857142857143,0,319770.7206922961,518506.30085468973,352967.93884473416,149903.0738730891,64782.49195701257,2.1318048046153073e-06,0.0,0.0,0.0,2.1318048046153073e-06,0.0,24.010781862835472,0.5593134920953795,0.0021706438242471435,0.0
10293,8.965517241379311,7.586206896551724,1.0714285714285714,0,424149.24759110715,494402.6087042078,333857.7661730951,13416.32520701185,-41307.46225064446,2.827661650607381e-06,0.0,0.0,0.0,2.827661650607381e-06,0.0,24.47079438891811,0.8675555935217135,-0.0014004587602615625,0.0
10294,8.965517241379311,7.586206896551724,1.4285714285714286,0,298926.5026548971,503285.73015422217,224024.85142642478,187965.00876362165,-33285.66086689699,1.9928433510326472e-06,0.0,0.0,0.0,1.9928433510326472e-06,0.0,23.765902913140955,1.1809928523338182,-0.0011719119165934564,0.0
10295,8.965517241379311,7.586206896551724,1.7857142857142858,0,355050.7025474013,782473.8305625839,427448.3196470733,427397.9417443566,105957.19418078895,2.367004683649342e-06,0.0,0.0,0.0,2.367004683649342e-06,0.0,23.17241899938261,1.4994708614216261,0.004185044108068656,0.0
10296,8.965517241379311,7.586206896551724,2.142857142857143,0,349475.07971420046,807854.0403227397,643624.7131989411,406514.72635677934,375087.8869146824,2.3298338647613362e-06,0.0,0.0,0.0,2.3298338647613362e-06,0.0,23.28890264625937,1.8177796341250487,0.020106621968568463,0.0
10297,8.965517241379311,7.586206896551724,2.5,0,630440.493608188,1334588.7410213305,1136395.6219104286,628866.4058564395,673095.8082753845,4.202936624054587e-06,0.0,0.0,0.0,4.202936624054587e-06,0.0,23.535403386069888,2.1276567923526004,0.06730958082753845,0.0
10298,8.965517241379311,7.586206896551724,2.857142857142857,0,293776.4435258834,784364.7801042787,640369.4472245871,446371.6121002773,293659.8376210368,1.9585096235058894e-06,0.0,0.0,0.0,1.9585096235058894e-06,0.0,23.790849666981636,2.424922491267906,0.015741663616400458,0.0
10299,8.965517241379311,7.586206896551724,3.2142857142857144,0,432767.81436382147,614032.9265903095,629998.8197162775,189468.99841974894,117496.66787949142,2.8851187624254763e-06,0.0,0.0,0.0,2.8851187624254763e-06,0.0,24.37943412835013,2.713756575707341,0.004640824452068402,0.0
10300,8.965517241379311,7.586206896551724,3.5714285714285716,0,98786.75200081702,177403.98681872833,271022.9910479666,167773.84058030284,-5156.355152008481,6.585783466721135e-07,0.0,0.0,0.0,6.585783466721135e-07,0.0,23.624445899232946,3.00242142376239,-0.00018154346020019798,0.0
10301,8.965517241379311,7.586206896551724,3.928571428571429,0,184050.9723502204,430036.47590712446,239571.69491210202,253151.55438056187,-10494.932815323904,1.2270064823348028e-06,0.0,0.0,0.0,1.2270064823348028e-06,0.0,24.539130252292328,3.2961270220931427,-0.0003558127224179112,0.0
10302,8.965517241379311,7.586206896551724,4.285714285714286,0,114982.63972644767,336628.6282378885,307674.9437688122,209936.49936551772,-43703.98555664735,7.665509315096511e-07,0.0,0.0,0.0,7.665509315096511e-07,0.0,24.588037851704797,3.5950277778096655,-0.0014643738374015096,0.0
10303,8.965517241379311,7.586206896551724,4.642857142857143,0,331473.4349283818,470748.2821771566,390404.9521739104,106488.12608673796,30479.013674091864,2.2098228995225454e-06,0.0,0.0,0.0,2.2098228995225454e-06,0.0,23.924163961250034,3.8969622073354526,0.0010175733468275694,0.0
10304,8.965517241379311,7.586206896551724,5.0,0,319424.1213334901,415130.3296143406,253245.31844867114,47174.40681971332,-13915.429963548217,2.1294941422232675e-06,0.0,0.0,0.0,2.1294941422232675e-06,0.0,24.028608285356476,4.200101651522598,-0.0004640706550925732,0.0
10305,9.310344827586208,7.586206896551724,0.0,0,377074.1227549899,493114.55153285415,75466.29142112909,177696.13377506178,-1817.8124704767583,2.513827485033266e-06,0.0,0.0,0.0,2.513827485033266e-06,0.0,23.334132455697016,-0.0499039923898561,-6.0622878791342433e-05,0.0
10306,9.310344827586208,7.586206896551724,0.35714285714285715,0,183934.74606385807,315412.73282668175,155903.55035791075,114210.18425795414,47910.98056012235,1.2262316404257205e-06,0.0,0.0,0.0,1.2262316404257205e-06,0.0,24.40880854886087,0.2540754358582593,0.0015995575631043426,0.0
10307,9.310344827586208,7.586206896551724,0.7142857142857143,0,295171.7157033447,487861.94871148077,306850.35943698086,147251.28574397234,-42283.29792263963,1.967811438022298e-06,0.0,0.0,0.0,1.967811438022298e-06,0.0,23.254675043906882,0.5591929737467327,-0.0014167713641748013,0.0
10308,9.310344827586208,7.586206896551724,1.0714285714285714,0,496086.52306316857,591478.0722479229,168574.15685558447,45412.834593716005,-3340.6828336656354,3.3072434870877905e-06,0.0,0.0,0.0,3.3072434870877905e-06,0.0,24.178994361263705,0.8671757493113467,-0.00011326012988341997,0.0
10309,9.310344827586208,7.586206896551724,1.4285714285714286,0,285129.6906226604,557575.4460502183,254832.95317907073,294136.46236526297,-69281.59408412763,1.9008646041510692e-06,0.0,0.0,0.0,1.9008646041510692e-06,0.0,23.066516397528424,1.1800652358841561,-0.0024392463178799693,0.0
10310,9.310344827586208,7.586206896551724,1.7857142857142858,0,468781.1076575438,802346.308405659,486691.66465138324,263694.43860138895,36701.03617764211,3.1252073843836253e-06,0.0,0.0,0.0,3.1252073843836253e-06,0.0,23.907554392478083,1.4977155993718982,0.00144959911785871,0.0
10311,9.310344827586208,7.586206896551724,2.142857142857143,0,763712.9946680065,1061314.6178574895,215694.13518979057,421820.1876809596,519389.5348601128,5.091419964453377e-06,0.0,0.0,0.0,5.091419964453377e-06,0.0,24.149403194039103,1.8152061228454521,0.0278419255758006,0.0
10312,9.310344827586208,7.586206896551724,2.5,0,695837.292133793,1081058.1040679996,753731.4127087628,281916.61952996947,510728.8831632904,4.638915280891954e-06,0.0,0.0,0.0,4.638915280891954e-06,0.0,24.051159255522084,2.1247331733202994,0.05107288831632904,0.0
10313,9.310344827586208,7.586206896551724,2.857142857142857,0,773937.8966589527,1182768.5758519499,479413.0932771008,353651.65861243644,411346.9871746292,5.159585977726351e-06,0.0,0.0,0.0,5.159585977726351e-06,0.0,23.36818287476021,2.422348979988309,0.022050294497809594,0.0
10314,9.310344827586208,7.586206896551724,3.2142857142857144,0,199001.17653070998,484138.60278647643,277245.94229391,294101.05741800234,184078.80095819896,1.3266745102047332e-06,0.0,0.0,0.0,1.3266745102047332e-06,0.0,23.471625794884556,2.7120013136576127,0.007270652147092531,0.0
10315,9.310344827586208,7.586206896551724,3.5714285714285716,0,269125.79504148033,443247.23527523346,260963.63708158094,134141.65265258806,32620.40885548037,1.7941719669432022e-06,0.0,0.0,0.0,1.7941719669432022e-06,0.0,24.38024206121536,3.0014938073127277,0.001148489916266215,0.0
10316,9.310344827586208,7.586206896551724,3.928571428571429,0,104341.35708649826,268771.13825508475,202334.46179613267,148508.3009778887,-24030.606831779027,6.956090472433217e-07,0.0,0.0,0.0,6.956090472433217e-07,0.0,23.362984007632,3.295747177882776,-0.0008147165673786034,0.0
10317,9.310344827586208,7.586206896551724,4.285714285714286,0,64512.02370923823,347116.35844387725,320707.941261789,273590.11549130065,-44904.70460441054,4.300801580615882e-07,0.0,0.0,0.0,4.300801580615882e-07,0.0,23.384815664690333,3.5949072594610185,-0.0015046059017594622,0.0
10318,9.310344827586208,7.586206896551724,4.642857142857143,0,401635.624598486,454389.5646769415,378240.9972512658,20130.70061565172,-77701.85606778842,2.677570830656573e-06,0.0,0.0,0.0,2.677570830656573e-06,0.0,24.37760280049412,3.8969325787154023,-0.002594156706613617,0.0
10319,9.310344827586208,7.586206896551724,5.0,0,238511.6093448683,443296.3873207227,252477.5531689487,175901.7464841957,62899.582698693324,1.5900773956324554e-06,0.0,0.0,0.0,1.5900773956324554e-06,0.0,23.59876169951096,4.200096007610144,0.0020976606992737967,0.0
10320,9.655172413793103,7.586206896551724,0.0,0,282099.3324360328,427850.40922833927,245980.00454464715,102880.16616395969,-17825.95728601664,1.8806622162402188e-06,0.0,0.0,0.0,1.8806622162402188e-06,0.0,23.450889544088668,-0.04990975756115692,-0.0005944842306018558,0.0
10321,9.655172413793103,7.586206896551724,0.35714285714285715,0,167012.8373816507,438058.5795042355,261441.80603912217,282681.7624310981,-76335.73337390127,1.1134189158776713e-06,0.0,0.0,0.0,1.1134189158776713e-06,0.0,24.40258757433856,0.2540451706705197,-0.0025485472896993977,0.0
10322,9.655172413793103,7.586206896551724,0.7142857142857143,0,95524.09868877746,264685.2430059588,203291.60388842976,154628.67774930754,-43390.9111800984,6.368273245918498e-07,0.0,0.0,0.0,6.368273245918498e-07,0.0,23.16530020949157,0.5590698660744319,-0.001453883766064999,0.0
10323,9.655172413793103,7.586206896551724,1.0714285714285714,0,283235.286886481,405208.90000330174,193632.31196764414,83437.41616723873,-46921.9957395045,1.8882352459098733e-06,0.0,0.0,0.0,1.8882352459098733e-06,0.0,23.126973332734636,0.8667877441893026,-0.0015908099021822522,0.0
10324,9.655172413793103,7.586206896551724,1.4285714285714286,0,254400.62387621606,439472.55251350964,188711.33832026564,181582.37021246908,-18796.090008430885,1.6960041591747737e-06,0.0,0.0,0.0,1.6960041591747737e-06,0.0,23.587031273246637,1.179117689695645,-0.0006617672983669025,0.0
10325,9.655172413793103,7.586206896551724,1.7857142857142858,0,304175.9976382652,632786.3458585563,316394.4683936974,342510.2328192682,250852.9252489434,2.0278399842551014e-06,0.0,0.0,0.0,2.0278399842551014e-06,0.0,23.51835788742462,1.4959226257073368,0.009908063014707705,0.0
10326,9.655172413793103,7.586206896551724,2.142857142857143,0,154579.94028475432,1209369.2328331477,1108381.9765205455,1031415.2638437946,506952.8147811125,1.0305329352316955e-06,0.0,0.0,0.0,1.0305329352316955e-06,0.0,23.11769634471063,1.8125773199550328,0.027175254009266535,0.0
10327,9.655172413793103,7.586206896551724,2.5,0,956724.3301929197,1051930.7242889765,713972.1382142414,-27905.000661162543,794674.4077569682,6.378162201286132e-06,0.0,0.0,0.0,6.378162201286132e-06,0.0,23.914637701598654,2.1217467406500674,0.07946744077569681,0.0
10328,9.655172413793103,7.586206896551724,2.857142857142857,0,803777.5234790015,949279.2407513016,120594.31461230837,172970.92688570387,536598.8186170256,5.358516823193343e-06,0.0,0.0,0.0,5.358516823193343e-06,0.0,23.52399730342061,2.4197201770978896,0.028764430873682367,0.0
10329,9.655172413793103,7.586206896551724,3.2142857142857144,0,57183.61883800489,424622.93335818034,424624.7274040784,481807.44919802726,210438.15047345113,3.812241255866993e-07,0.0,0.0,0.0,3.812241255866993e-07,0.0,23.55354954893593,2.710208339993051,0.008311780512506813,0.0
10330,9.655172413793103,7.586206896551724,3.5714285714285716,0,378002.63538957515,478877.53511397645,194322.46418183058,49969.05040032984,33267.40512515728,2.5200175692638344e-06,0.0,0.0,0.0,2.5200175692638344e-06,0.0,23.523790597362936,3.0005462611242164,0.0011712691737205845,0.0
10331,9.655172413793103,7.586206896551724,3.928571428571429,0,153504.59390291478,342574.69036682445,311691.9264107391,175976.5966055357,63380.9748426549,1.0233639593527653e-06,0.0,0.0,0.0,1.0233639593527653e-06,0.0,23.007534581867354,3.295359172760732,0.0021488233993587668,0.0
10332,9.655172413793103,7.586206896551724,4.285714285714286,0,262557.5082173893,431705.7213276202,293371.9120803418,128906.06421478566,-27224.790108616296,1.7503833881159286e-06,0.0,0.0,0.0,1.7503833881159286e-06,0.0,23.126739733540237,3.594784151788718,-0.0009122113202268648,0.0
10333,9.655172413793103,7.586206896551724,4.642857142857143,0,210103.0303387711,343039.51659592555,301269.9040395187,115189.11424508908,-36547.097159616824,1.4006868689251406e-06,0.0,0.0,0.0,1.4006868689251406e-06,0.0,22.748984844385827,3.896902313527663,-0.0012201625804300808,0.0
10334,9.655172413793103,7.586206896551724,5.0,0,240378.27892853535,432393.15108710114,293026.5397625027,154829.043722075,-43692.06275229918,1.602521859523569e-06,0.0,0.0,0.0,1.602521859523569e-06,0.0,24.114232439488465,4.2000902424388435,-0.0014571022409598032,0.0
10335,10.0,7.586206896551724,0.0,0,247917.24028120172,435476.19493502553,280488.58423876704,149542.73782493937,13182.210417240898,1.6527816018746781e-06,0.0,0.0,0.0,1.6527816018746781e-06,0.0,23.392496437550264,-0.04991562469392928,0.00043961825397576616,0.0
10336,10.0,7.586206896551724,0.35714285714285715,0,378011.87788598664,598538.0900891571,183373.2570890986,274244.059330241,-117960.9677508106,2.5200791859065777e-06,0.0,0.0,0.0,2.5200791859065777e-06,0.0,23.8937639497935,0.25401437021974665,-0.003938248725261212,0.0
10337,10.0,7.586206896551724,0.7142857142857143,0,190974.5701149945,494720.91463664005,308263.2481532931,299529.1450514321,59614.463411048026,1.2731638007666302e-06,0.0,0.0,0.0,1.2731638007666302e-06,0.0,23.17599581192154,0.558944581148625,0.0019974805372548073,0.0
10338,10.0,7.586206896551724,1.0714285714285714,0,170505.0502809269,293022.0583211738,418985.081807784,224961.74579876906,-22588.799419440256,1.1367003352061794e-06,0.0,0.0,0.0,1.1367003352061794e-06,0.0,23.979907575784214,0.8663928768993978,-0.000765834556448765,0.0
10339,10.0,7.586206896551724,1.4285714285714286,0,331910.15688665747,402450.5382940019,572537.3365436017,190059.5529901929,51287.40146167141,2.2127343792443833e-06,0.0,0.0,0.0,2.2127343792443833e-06,0.0,22.6021797822396,1.1781533854268094,0.0018057119906493993,0.0
10340,10.0,7.586206896551724,1.7857142857142858,0,378770.295584215,780256.4877319158,503481.4443599137,348588.18191273394,-26118.702751604433,2.5251353038947667e-06,0.0,0.0,0.0,2.5251353038947667e-06,0.0,23.901343371803243,1.4940979419297968,-0.001031623420251131,0.0
10341,10.0,7.586206896551724,2.142857142857143,0,251020.12857924466,930763.3516523385,770741.6096321548,641453.922327671,558306.5247350967,1.6734675238616311e-06,0.0,0.0,0.0,1.6734675238616311e-06,0.0,23.38104607207767,1.8099020246713888,0.02992807453146894,0.0
10342,10.0,7.586206896551724,2.5,0,458787.62863143586,546650.8743741588,1076394.4840515363,807666.6203773189,962308.5446708598,3.058584190876239e-06,0.0,0.0,0.0,3.058584190876239e-06,0.0,22.732028725439257,2.11870749062995,0.09623085446708597,0.0
10343,10.0,7.586206896551724,2.857142857142857,0,801313.4636981073,1452015.7806393867,1141855.6826811042,541982.8839076594,443013.201243111,5.342089757987382e-06,0.0,0.0,0.0,5.342089757987382e-06,0.0,22.018261565046647,2.417044881814246,0.02374776492450869,0.0
10344,10.0,7.586206896551724,3.2142857142857144,0,384270.50853688753,882899.7525979214,465156.2542175614,544484.1849450229,122022.47271027177,2.561803390245917e-06,0.0,0.0,0.0,2.561803390245917e-06,0.0,23.685109032627572,2.7083836562155112,0.004819582421149846,0.0
10345,10.0,7.586206896551724,3.5714285714285716,0,394235.73203269957,594873.8931470229,451749.54879766295,149067.9782694316,-48515.37046416802,2.6282382135513305e-06,0.0,0.0,0.0,2.6282382135513305e-06,0.0,23.933832871565944,2.9995819568553808,-0.001708115125376659,0.0
10346,10.0,7.586206896551724,3.928571428571429,0,142532.3981702785,407279.6694977709,248222.50668781952,291130.07298797765,2408.7118354601553,9.502159878018567e-07,0.0,0.0,0.0,9.502159878018567e-07,0.0,23.47470989313122,3.294964305470827,8.166324937725393e-05,0.0
10347,10.0,7.586206896551724,4.285714285714286,0,213310.73366658684,488462.56889465917,344666.41165067296,243378.2668922406,43756.658067760756,1.4220715577772456e-06,0.0,0.0,0.0,1.4220715577772456e-06,0.0,23.75002255269867,3.5946588668629107,0.001466138716422091,0.0
10348,10.0,7.586206896551724,4.642857142857143,0,268852.01122686884,385354.8965536027,401050.67930317274,124694.62093222141,-13591.049205397097,1.792346741512459e-06,0.0,0.0,0.0,1.792346741512459e-06,0.0,23.67639507592193,3.89687151307689,-0.0004537512130384308,0.0
10349,10.0,7.586206896551724,5.0,0,267638.12719291635,466826.9324263419,198139.10485199056,200251.00431448242,68450.92424241075,1.784254181286109e-06,0.0,0.0,0.0,1.784254181286109e-06,0.0,23.485683450821067,4.200084375306071,0.00228279437560173,0.0
10350,0.0,7.931034482758621,0.0,0,139450.85746399433,365885.4621608301,266816.6452468282,206416.6697109753,-79968.15335621004,9.296723830932955e-07,0.0,0.0,0.0,9.296723830932955e-07,0.0,23.823684148429376,-0.04991883929012872,-0.0026668865720838324,0.0
10351,0.0,7.931034482758621,0.35714285714285715,0,362699.3797449287,584565.7111177517,399631.3957790885,166675.2685946455,-14741.343256409898,2.4179958649661912e-06,0.0,0.0,0.0,2.4179958649661912e-06,0.0,22.61005959428644,0.25399749468346045,-0.0004921549678265953,0.0
10352,0.0,7.931034482758621,0.7142857142857143,0,181388.90954170318,308660.7926979038,370433.01829997264,166226.16059846905,-86441.79392352873,1.209259396944688e-06,0.0,0.0,0.0,1.209259396944688e-06,0.0,23.402761595519802,0.5588759376626208,-0.0028963743207263406,0.0
10353,0.0,7.931034482758621,1.0714285714285714,0,475091.0269731538,577844.1084046413,420563.28384958,44056.971893192844,14954.078011220387,3.1672735131543587e-06,0.0,0.0,0.0,3.1672735131543587e-06,0.0,23.699652054344966,0.8661765295047404,0.0005069924031007656,0.0
10354,0.0,7.931034482758621,1.4285714285714286,0,370155.8886859797,542932.8078233784,468535.4206102617,141228.75964599405,-4704.460486298077,2.467705924573198e-06,0.0,0.0,0.0,2.467705924573198e-06,0.0,23.139983377233936,1.1776250440788345,-0.00016563328356561857,0.0
10355,0.0,7.931034482758621,1.7857142857142858,0,367458.8297359114,696187.5028194672,487566.37947085284,271902.0800693918,67719.40846550872,2.4497255315727425e-06,0.0,0.0,0.0,2.4497255315727425e-06,0.0,23.4956322084867,1.4930981995063628,0.0026747472277994376,0.0
10356,0.0,7.931034482758621,2.142857142857143,0,922059.8556855944,1181591.4728531386,1303292.1760573995,326425.4045169415,515858.3052565061,6.147065704570629e-06,0.0,0.0,0.0,6.147065704570629e-06,0.0,22.783949563632635,1.808436233051387,0.027652633675952908,0.0
10357,0.0,7.931034482758621,2.5,0,1070665.043679836,1542671.2932892332,978582.9557158622,307906.3383756636,738091.6697555453,7.137766957865573e-06,0.0,0.0,0.0,7.137766957865573e-06,0.0,23.414993068965256,2.1170422885725118,0.07380916697555454,0.0
10358,0.0,7.931034482758621,2.857142857142857,0,1175541.924109849,1455949.1774827056,101600.5845384512,700011.1080415003,752164.773015962,7.836946160732327e-06,0.0,0.0,0.0,7.836946160732327e-06,0.0,23.021456281118933,2.4155790901942438,0.040319864428322756,0.0
10359,0.0,7.931034482758621,3.2142857142857144,0,460642.59187948325,820067.9985221529,496635.37361090456,292653.5861115071,143688.97987482237,3.0709506125298885e-06,0.0,0.0,0.0,3.0709506125298885e-06,0.0,23.128092307945977,2.707383913792077,0.0056753552533061555,0.0
10360,0.0,7.931034482758621,3.5714285714285716,0,119418.21771727916,442769.0377804974,326565.5580749453,448957.84311916056,8390.62902525692,7.961214514485277e-07,0.0,0.0,0.0,7.961214514485277e-07,0.0,23.677290522565656,2.999053615507406,0.00029541483889216214,0.0
10361,0.0,7.931034482758621,3.928571428571429,0,235462.02370515536,468747.27807773545,398246.3721790943,206088.42311140418,-30981.717291929355,1.5697468247010358e-06,0.0,0.0,0.0,1.5697468247010358e-06,0.0,22.51538259008794,3.2947479580761696,-0.0010503820623537013,0.0
10362,0.0,7.931034482758621,4.285714285714286,0,339488.72063757293,613475.7975619602,274377.4023125883,273598.0932373926,-40973.73028043877,2.2632581375838197e-06,0.0,0.0,0.0,2.2632581375838197e-06,0.0,22.855485202248715,3.5945902233769065,-0.0013728921488327388,0.0
10363,0.0,7.931034482758621,4.642857142857143,0,357108.45191007806,569439.9476265726,412566.1695939542,160746.4769196904,19602.609169174913,2.3807230127338536e-06,0.0,0.0,0.0,2.3807230127338536e-06,0.0,23.768038144263432,3.8968546375406037,0.0006544533504962394,0.0
10364,0.0,7.931034482758621,5.0,0,357139.00587586814,529960.7212690018,363973.4909586576,120035.23393182764,-23612.810360554657,2.380926705839121e-06,0.0,0.0,0.0,2.380926705839121e-06,0.0,23.331935709985302,4.200081160709871,-0.0007874720652760325,0.0
10365,0.3448275862068966,7.931034482758621,0.0,0,295771.548505479,501158.3596238832,216169.46518815076,195670.6412517968,42841.33841777792,1.97181032336986e-06,0.0,0.0,0.0,1.97181032336986e-06,0.0,23.06094054392734,-0.049913149907751274,0.0014287311305982368,0.0
10366,0.3448275862068966,7.931034482758621,0.35714285714285715,0,205195.31739252442,492934.221461808,290567.49824726896,285022.69917809643,-3558.018194272611,1.3679687826168294e-06,0.0,0.0,0.0,1.3679687826168294e-06,0.0,23.65824938805287,0.2540273620051394,-0.00011878811173922417,0.0
10367,0.3448275862068966,7.931034482758621,0.7142857142857143,0,338826.028796198,534359.0962064302,236386.01072476406,165799.9958993025,-3417.4876211752485,2.2588401919746534e-06,0.0,0.0,0.0,2.2588401919746534e-06,0.0,22.884069749037216,0.5589974269618576,-0.00011450853734165618,0.0
10368,0.3448275862068966,7.931034482758621,1.0714285714285714,0,163188.01222911658,406129.6211725729,329378.68441305065,218716.2461542919,5410.7244824751915,1.087920081527444e-06,0.0,0.0,0.0,1.087920081527444e-06,0.0,22.872670336851545,0.8665594339126985,0.00018344134662317266,0.0
10369,0.3448275862068966,7.931034482758621,1.4285714285714286,0,127129.97124093294,378633.67584907624,282398.740914828,234515.38775331795,-1367.0597508400842,8.475331416062196e-07,0.0,0.0,0.0,8.475331416062196e-07,0.0,23.34321249826365,1.1785601338282001,-4.813104414874509e-05,0.0
10370,0.3448275862068966,7.931034482758621,1.7857142857142858,0,408346.49358891253,754299.6863642965,531898.5029129364,283029.4568934496,98994.22481936474,2.7223099572594167e-06,0.0,0.0,0.0,2.7223099572594167e-06,0.0,23.382721026134753,1.4948676027448986,0.003910024236827347,0.0
10371,0.3448275862068966,7.931034482758621,2.142857142857143,0,427094.6399952626,922102.2821523567,711613.2196847184,430618.70906905807,643899.3481588748,2.8472975999684175e-06,0.0,0.0,0.0,2.8472975999684175e-06,0.0,23.08531883622754,1.811030477707467,0.03451628599828123,0.0
10372,0.3448275862068966,7.931034482758621,2.5,0,699098.1084529455,1023370.2672015703,868449.4822271435,259806.50930236097,818547.3828538375,4.66065405635297e-06,0.0,0.0,0.0,4.66065405635297e-06,0.0,23.329502856842044,2.1199894616084696,0.08185473828538374,0.0
10373,0.3448275862068966,7.931034482758621,2.857142857142857,0,689335.4876111452,943554.781374486,1223821.7907901674,438497.4483800325,462432.8329928252,4.595569917407635e-06,0.0,0.0,0.0,4.595569917407635e-06,0.0,24.132754164974088,2.418173334850324,0.024788756137453745,0.0
10374,0.3448275862068966,7.931034482758621,3.2142857142857144,0,685727.4707119827,1113861.9148306118,467179.5962434213,394826.8735915476,136929.66050358262,4.571516471413218e-06,0.0,0.0,0.0,4.571516471413218e-06,0.0,23.45279394897196,2.709153317030613,0.0054083790472271714,0.0
10375,0.3448275862068966,7.931034482758621,3.5714285714285716,0,339402.680713027,533540.6500435312,162631.09788605527,238478.58513807133,892.8711170804836,2.2626845380868467e-06,0.0,0.0,0.0,2.2626845380868467e-06,0.0,22.90056468680512,2.9999887052567717,3.143594793785075e-05,0.0
10376,0.3448275862068966,7.931034482758621,3.928571428571429,0,254802.1909167301,479298.189745111,403667.3815422696,195242.77643741906,-42783.755036105096,1.6986812727782007e-06,0.0,0.0,0.0,1.6986812727782007e-06,0.0,23.49252928273488,3.2951308624841276,-0.0014505099387039525,0.0
10377,0.3448275862068966,7.931034482758621,4.285714285714286,0,134698.04876376747,327763.46038876695,391128.9385847209,236433.28768267823,-130968.02276951975,8.979869917584498e-07,0.0,0.0,0.0,8.979869917584498e-07,0.0,22.425409500610314,3.5947117126761436,-0.004388298770401716,0.0
10378,0.3448275862068966,7.931034482758621,4.642857142857143,0,123106.01272152076,272977.59490216326,131553.47082730607,189835.60062695554,-88685.9847861877,8.207067514768051e-07,0.0,0.0,0.0,8.207067514768051e-07,0.0,24.295825122057824,3.8968845048622827,-0.0029608731870575796,0.0
10379,0.3448275862068966,7.931034482758621,5.0,0,164317.95703732746,361530.3434732649,242040.77090214103,174145.15394484813,32337.668957680908,1.0954530469155165e-06,0.0,0.0,0.0,1.0954530469155165e-06,0.0,22.901252052613756,4.200086850092249,0.0010784404978264291,0.0
10380,0.6896551724137931,7.931034482758621,0.0,0,274236.9087940512,539555.6983284063,329842.26486788,229221.27230936213,15453.6892276331,1.828246058627008e-06,0.0,0.0,0.0,1.828246058627008e-06,0.0,23.61392072018466,-0.04990757928494666,0.000515370613933663,0.0
10381,0.6896551724137931,7.931034482758621,0.35714285714285715,0,233384.23044542418,447129.69878536224,337316.81152989174,179094.07750926778,-6202.206425448139,1.5558948696361613e-06,0.0,0.0,0.0,1.5558948696361613e-06,0.0,23.596536030628922,0.2540566058794688,-0.00020706706645902526,0.0
10382,0.6896551724137931,7.931034482758621,0.7142857142857143,0,279729.21640234906,470783.6943817884,293916.4259335768,148284.0192144833,99327.80551784029,1.864861442682327e-06,0.0,0.0,0.0,1.864861442682327e-06,0.0,23.12982140973908,0.5591163803061661,0.0033281413096364,0.0
10383,0.6896551724137931,7.931034482758621,1.0714285714285714,0,250551.31221443575,497155.0908150899,304763.382313256,213836.1943508082,-1206.3825238425522,1.6703420814295717e-06,0.0,0.0,0.0,1.6703420814295717e-06,0.0,24.17462137973538,0.8669343456140839,-4.090033329789939e-05,0.0
10384,0.6896551724137931,7.931034482758621,1.4285714285714286,0,222185.2935667084,443853.5581845354,257877.51955200927,197810.02780042728,-112560.89430006676,1.4812352904447226e-06,0.0,0.0,0.0,1.4812352904447226e-06,0.0,24.55846645612075,1.179475704611917,-0.003963011397014271,0.0
10385,0.6896551724137931,7.931034482758621,1.7857142857142858,0,722158.3023080502,921267.9585376622,158663.05422497832,247838.9353010314,130075.82726081496,4.814388682053668e-06,0.0,0.0,0.0,4.814388682053668e-06,0.0,23.160345486417953,1.4966000716452545,0.00513766977965834,0.0
10386,0.6896551724137931,7.931034482758621,2.142857142857143,0,637625.8018987122,933159.7706750935,1185790.8929026283,460559.81161216856,526982.1892071024,4.250838679324748e-06,0.0,0.0,0.0,4.250838679324748e-06,0.0,23.894740522753697,1.8135705703718683,0.02824893053655438,0.0
10387,0.6896551724137931,7.931034482758621,2.5,0,1023071.8617551405,1610619.0156257548,636413.4781197032,544837.8281162161,815850.3547115275,6.820479078367603e-06,0.0,0.0,0.0,6.820479078367603e-06,0.0,23.050050015914287,2.122875115662652,0.08158503547115274,0.0
10388,0.6896551724137931,7.931034482758621,2.857142857142857,0,848166.0711875092,1162883.8315113639,785577.2981321391,191532.9736566394,528560.9776898216,5.6544404745833945e-06,0.0,0.0,0.0,5.6544404745833945e-06,0.0,24.209284452033437,2.4207134275147255,0.028333561643816944,0.0
10389,0.6896551724137931,7.931034482758621,3.2142857142857144,0,136942.18085381878,463081.67707192147,481858.6208300043,336496.8770026518,-51018.50979217228,9.129478723587918e-07,0.0,0.0,0.0,9.129478723587918e-07,0.0,24.18574310486846,2.710885785930969,-0.002015103509100714,0.0
10390,0.6896551724137931,7.931034482758621,3.5714285714285716,0,49769.444514363284,428081.352169587,442700.4876897321,387258.72421046335,11094.053397890864,3.317962967624219e-07,0.0,0.0,0.0,3.317962967624219e-07,0.0,24.062767768919976,3.000904276040489,0.00039059622196783056,0.0
10391,0.6896551724137931,7.931034482758621,3.928571428571429,0,209610.7627704747,278533.72510605765,313173.1063437985,88400.39256108004,-35676.62623791895,1.3974050851364982e-06,0.0,0.0,0.0,1.3974050851364982e-06,0.0,22.734576756527087,3.295505774185513,-0.0012095549091905688,0.0
10392,0.6896551724137931,7.931034482758621,4.285714285714286,0,340110.72948291665,518268.00913468876,307216.43573238526,125917.82784215854,21999.428246869025,2.2674048632194443e-06,0.0,0.0,0.0,2.2674048632194443e-06,0.0,23.296250608278758,3.594830666020452,0.0007371269862962605,0.0
10393,0.6896551724137931,7.931034482758621,4.642857142857143,0,336589.38022409996,417036.6841422869,72563.18566098575,400671.4124486318,63717.92129148637,2.243929201494e-06,0.0,0.0,0.0,2.243929201494e-06,0.0,23.308010977284706,3.896913748736612,0.0021272886030622284,0.0
10394,0.6896551724137931,7.931034482758621,5.0,0,129393.21161461403,232279.9316280192,223480.6445186441,98711.66718683548,-15425.572375546553,8.626214107640936e-07,0.0,0.0,0.0,8.626214107640936e-07,0.0,23.27906009275045,4.200092420715054,-0.0005144329349685772,0.0
10395,1.0344827586206897,7.931034482758621,0.0,0,147742.6101145771,438436.18588685925,346184.5887440415,268032.026520349,26571.80210463353,9.849507340971808e-07,0.0,0.0,0.0,9.849507340971808e-07,0.0,24.25536978104167,-0.04990214827301091,0.0008861525401650785,0.0
10396,1.0344827586206897,7.931034482758621,0.35714285714285715,0,208133.189230571,364052.855415872,338914.2956564349,144492.11660800205,-35748.399480095984,1.3875545948704734e-06,0.0,0.0,0.0,1.3875545948704734e-06,0.0,22.690272510761794,0.25408511684423896,-0.0011934972335936023,0.0
10397,1.0344827586206897,7.931034482758621,0.7142857142857143,0,105041.66056321244,287746.90543686505,208543.38064142063,168591.0626984073,-710.976119297845,7.00277737088083e-07,0.0,0.0,0.0,7.00277737088083e-07,0.0,23.795431593828816,0.5592323524434646,-2.3822422940524305e-05,0.0
10398,1.0344827586206897,7.931034482758621,1.0714285714285714,0,403241.1708818302,563025.6255018017,162043.23080233464,157563.012462075,-21406.52448124041,2.688274472545535e-06,0.0,0.0,0.0,2.688274472545535e-06,0.0,23.97740012650608,0.8672998612837834,-0.000725751549552987,0.0
10399,1.0344827586206897,7.931034482758621,1.4285714285714286,0,227949.41821284947,500402.708315933,355325.73554447596,237665.79595832905,94387.34032889782,1.5196627880856631e-06,0.0,0.0,0.0,1.5196627880856631e-06,0.0,23.25884395636022,1.180368329373777,0.0033231621673164417,0.0
10400,1.0344827586206897,7.931034482758621,1.7857142857142858,0,589830.0553792602,660576.7039688329,83260.4976261992,58982.5168293783,-1856.2262713338132,3.9322003691950685e-06,0.0,0.0,0.0,3.9322003691950685e-06,0.0,23.86721683895736,1.4982891214348637,-7.33162941898315e-05,0.0
10401,1.0344827586206897,7.931034482758621,2.142857142857143,0,485793.4958448678,956668.071184611,488947.17739771155,454622.62332808436,401318.5295603051,3.238623305632452e-06,0.0,0.0,0.0,3.238623305632452e-06,0.0,23.84034488283141,1.8160470032703258,0.02151271807048847,0.0
10402,1.0344827586206897,7.931034482758621,2.5,0,776405.3229828542,853105.4887516552,1287018.057581128,390653.841570825,873397.5864977739,5.1760354865523615e-06,0.0,0.0,0.0,5.1760354865523615e-06,0.0,23.488380173800877,2.125688449496293,0.08733975864977739,0.0
10403,1.0344827586206897,7.931034482758621,2.857142857142857,0,898541.10860642,768451.7496378692,1028303.5920898668,28473.14228824274,189921.62782994512,5.990274057376133e-06,0.0,0.0,0.0,5.990274057376133e-06,0.0,24.17237171936431,2.4231898604131827,0.010180766981953903,0.0
10404,1.0344827586206897,7.931034482758621,3.2142857142857144,0,397483.03809463745,882101.1589019975,559618.7508261314,438023.2741910373,104184.60085964957,2.6498869206309165e-06,0.0,0.0,0.0,2.6498869206309165e-06,0.0,23.362147057712303,2.7125748357205786,0.004115031106195667,0.0
10405,1.0344827586206897,7.931034482758621,3.5714285714285716,0,423199.1904808234,443460.8380057995,373035.9829441346,-10532.928251798417,11601.221802083553,2.8213279365388228e-06,0.0,0.0,0.0,2.8213279365388228e-06,0.0,24.183051595045782,3.001796900802349,0.0004084524603934342,0.0
10406,1.0344827586206897,7.931034482758621,3.928571428571429,0,263749.55350808933,423415.28508266096,130667.56925192798,349759.43135217857,-28445.30331770845,1.7583303567205955e-06,0.0,0.0,0.0,1.7583303567205955e-06,0.0,23.709111989004562,3.2958712898552127,-0.0009643892906773903,0.0
10407,1.0344827586206897,7.931034482758621,4.285714285714286,0,24106.47209196345,241876.50735515726,225809.33560262638,214157.7369324717,49765.5717441012,1.60709813946423e-07,0.0,0.0,0.0,1.60709813946423e-07,0.0,23.492097638209543,3.5949466381577504,0.0016674772411987792,0.0
10408,1.0344827586206897,7.931034482758621,4.642857142857143,0,231233.63141258183,300349.1919835742,261431.98890430032,52126.3432928261,69989.29609210315,1.5415575427505456e-06,0.0,0.0,0.0,1.5415575427505456e-06,0.0,23.54073504838734,3.8969422597013823,0.002336664927155624,0.0
10409,1.0344827586206897,7.931034482758621,5.0,0,211706.29223624527,457526.15568972786,226779.58189284356,272248.8761787907,26832.079329063454,1.4113752815749685e-06,0.0,0.0,0.0,1.4113752815749685e-06,0.0,22.963116724580278,4.200097851726989,0.0008948326184927534,0.0
10410,1.3793103448275863,7.931034482758621,0.0,0,284931.9007315982,428156.6533520019,250773.81101036633,99490.89295587619,-11813.929242940836,1.8995460048773214e-06,0.0,0.0,0.0,1.8995460048773214e-06,0.0,23.487989836315705,-0.049896882170131655,-0.00039398695529713337,0.0
10411,1.3793103448275863,7.931034482758621,0.35714285714285715,0,381443.6781177166,537789.1242323542,382174.93093694135,103138.29888854807,-57611.26915931198,2.542957854118111e-06,0.0,0.0,0.0,2.542957854118111e-06,0.0,23.1127003902001,0.25411276209257255,-0.001923411715361939,0.0
10412,1.3793103448275863,7.931034482758621,0.7142857142857143,0,425795.74854661897,506718.9356683887,236319.50017317507,15899.85899430563,7194.723759807501,2.8386383236441266e-06,0.0,0.0,0.0,2.8386383236441266e-06,0.0,23.81088722843867,0.5593448031641346,0.0002410710397919451,0.0
10413,1.3793103448275863,7.931034482758621,1.0714285714285714,0,259525.51455593252,392532.12742717715,260003.71480399833,93500.53166593378,-6059.334050804194,1.7301700970395501e-06,0.0,0.0,0.0,1.7301700970395501e-06,0.0,24.1335051447633,0.8676542783138678,-0.00020543134316288144,0.0
10414,1.3793103448275863,7.931034482758621,1.4285714285714286,0,359384.4433840815,523466.44143363566,405494.46103388834,119924.01604946988,1566.2698527063867,2.39589628922721e-06,0.0,0.0,0.0,2.39589628922721e-06,0.0,23.91646916691942,1.1812338501798707,5.5144775773797245e-05,0.0
10415,1.3793103448275863,7.931034482758621,1.7857142857142858,0,318358.85130387207,641678.3553587727,285055.38296728866,386117.9217558456,38122.07707067025,2.122392342025814e-06,0.0,0.0,0.0,2.122392342025814e-06,0.0,23.336187210550374,1.4999268843537292,0.0015057266782633845,0.0
10416,1.3793103448275863,7.931034482758621,2.142857142857143,0,845388.1008355708,1432095.7356715763,539926.9120395228,642926.5914079782,323451.4981435391,5.635920672237139e-06,0.0,0.0,0.0,5.635920672237139e-06,0.0,23.5647735292822,1.8184482409349,0.017338648421399323,0.0
10417,1.3793103448275863,7.931034482758621,2.5,0,1127055.9903712417,1468685.222617029,659766.843415552,181336.74365196598,692549.7283495326,7.513706602474945e-06,0.0,0.0,0.0,7.513706602474945e-06,0.0,23.840518979196553,2.1284163583237716,0.06925497283495326,0.0
10418,1.3793103448275863,7.931034482758621,2.857142857142857,0,510760.9793024971,1049423.6079649478,721769.7545029903,460909.7468791511,257836.8955978689,3.405073195349981e-06,0.0,0.0,0.0,3.405073195349981e-06,0.0,23.87165677809753,2.425591098077757,0.013821371391059637,0.0
10419,1.3793103448275863,7.931034482758621,3.2142857142857144,0,601629.5646921023,712512.9661973942,432275.9191846303,21886.921195816994,143161.68932100665,4.010863764614015e-06,0.0,0.0,0.0,4.010863764614015e-06,0.0,24.53022032598867,2.7142125986394436,0.005654528595498272,0.0
10420,1.3793103448275863,7.931034482758621,3.5714285714285716,0,363211.06828532857,616424.5330338706,304791.38449141826,217532.11530610517,-30492.3209152225,2.4214071219021906e-06,0.0,0.0,0.0,2.4214071219021906e-06,0.0,24.028058983320644,3.0026624216084423,-0.0010735648118280073,0.0
10421,1.3793103448275863,7.931034482758621,3.928571428571429,0,195651.62133069668,459222.23413963086,233344.192308084,342556.3387840881,4874.330250963314,1.3043441422046446e-06,0.0,0.0,0.0,1.3043441422046446e-06,0.0,23.7951410679455,3.296225706885297,0.00016525581888688918,0.0
10422,1.3793103448275863,7.931034482758621,4.285714285714286,0,445177.9859186248,523948.27183051885,194058.77019261807,17590.09614607438,-12947.507772170755,2.9678532394574985e-06,0.0,0.0,0.0,2.9678532394574985e-06,0.0,23.77796331693101,3.59505908887842,-0.00043382751938137034,0.0
10423,1.3793103448275863,7.931034482758621,4.642857142857143,0,216415.96545224488,223477.23613963844,327221.9163795628,78464.7086489482,25888.619777861433,1.442773103014966e-06,0.0,0.0,0.0,1.442773103014966e-06,0.0,23.556601848565947,3.896969904949716,0.0008643183061562698,0.0
10424,1.3793103448275863,7.931034482758621,5.0,0,202587.07495803272,434805.9769542579,251764.18262327006,217137.15437530013,23703.395351272164,1.3505804997202183e-06,0.0,0.0,0.0,1.3505804997202183e-06,0.0,23.73540596806122,4.200103117829869,0.0007904930165577354,0.0
10425,1.7241379310344829,7.931034482758621,0.0,0,116102.87351880009,349302.41372530203,320830.0534235831,221611.9662970091,19746.570198125777,7.740191567920005e-07,0.0,0.0,0.0,7.740191567920005e-07,0.0,24.10262137553134,-0.049891811683883444,0.0006585354381201661,0.0
10426,1.7241379310344829,7.931034482758621,0.35714285714285715,0,402207.6033204114,526357.9041672169,186066.9777505382,82492.65684087052,-45531.420297057055,2.681384022136076e-06,0.0,0.0,0.0,2.681384022136076e-06,0.0,23.395420859661808,0.25413938042015144,-0.0015201134863780839,0.0
10427,1.7241379310344829,7.931034482758621,0.7142857142857143,0,268619.10540433717,511627.56797256396,221547.80512524673,271474.479379451,-7515.184376602228,1.7907940360289146e-06,0.0,0.0,0.0,1.7907940360289146e-06,0.0,23.958737836722566,0.5594530767481931,-0.000251808599242753,0.0
10428,1.7241379310344829,7.931034482758621,1.0714285714285714,0,268704.89149282937,405238.2228538348,264006.61838710547,95368.27930419492,64764.088168961935,1.791365943285529e-06,0.0,0.0,0.0,1.791365943285529e-06,0.0,23.70385999039146,0.8679955300361334,0.0021957154878271394,0.0
10429,1.7241379310344829,7.931034482758621,1.4285714285714286,0,282970.3706617879,611548.1804568976,315535.2229309823,343731.5293167994,-10114.424629522107,1.8864691377452529e-06,0.0,0.0,0.0,1.8864691377452529e-06,0.0,24.62191486948698,1.1820672200257434,-0.0003561057357467546,0.0
10430,1.7241379310344829,7.931034482758621,1.7857142857142858,0,503299.09489382926,909204.7193359804,570253.1060049449,330896.6343628859,140918.87935449113,3.355327299292195e-06,0.0,0.0,0.0,3.355327299292195e-06,0.0,23.915394646171062,1.5015038103174514,0.005565943212424914,0.0
10431,1.7241379310344829,7.931034482758621,2.142857142857143,0,379719.03347682435,1007739.0419035425,609577.7945333427,649638.7332607978,373499.7123263779,2.531460223178829e-06,0.0,0.0,0.0,2.531460223178829e-06,0.0,23.93635066556297,1.8207602813253114,0.020021487718220387,0.0
10432,1.7241379310344829,7.931034482758621,2.5,0,1044239.755398722,1745951.9287374304,992327.8277763921,553986.700876621,637941.294256417,6.961598369324813e-06,0.0,0.0,0.0,6.961598369324813e-06,0.0,23.349147695338463,2.1310429352276485,0.0637941294256417,0.0
10433,1.7241379310344829,7.931034482758621,2.857142857142857,0,397770.88106023974,986738.3184039466,769534.7683148109,527653.1098123041,393031.4885833113,2.6518058737349317e-06,0.0,0.0,0.0,2.6518058737349317e-06,0.0,24.514119499201588,2.4279031384681686,0.021068490448175645,0.0
10434,1.7241379310344829,7.931034482758621,3.2142857142857144,0,245554.94394049354,641442.8244450248,454815.49975637934,363264.5853065307,14822.242447636745,1.6370329596032903e-06,0.0,0.0,0.0,1.6370329596032903e-06,0.0,24.040183808702803,2.715789524603166,0.0005854414974221187,0.0
10435,1.7241379310344829,7.931034482758621,3.5714285714285716,0,286603.9853315582,548877.9461341841,238485.555347926,294262.09868762485,47982.182169544474,1.9106932355437214e-06,0.0,0.0,0.0,1.9106932355437214e-06,0.0,24.473559406585387,3.003495791454315,0.0016893427861776227,0.0
10436,1.7241379310344829,7.931034482758621,3.928571428571429,0,201872.53681434612,374107.49297921394,342758.76124693936,158394.47113893015,-34120.40269215229,1.3458169120956409e-06,0.0,0.0,0.0,1.3458169120956409e-06,0.0,23.70416238415156,3.2965669586075625,-0.0011567938152175245,0.0
10437,1.7241379310344829,7.931034482758621,4.285714285714286,0,272768.19756786874,397439.89728205185,201142.14934038336,85976.97028330344,21640.918568572426,1.8184546504524584e-06,0.0,0.0,0.0,1.8184546504524584e-06,0.0,23.800082101335846,3.595167362462479,0.0007251145305289874,0.0
10438,1.7241379310344829,7.931034482758621,4.642857142857143,0,307508.49639954604,499329.1489194881,271010.8243853052,149660.89474862898,42014.74424511999,2.0500566426636403e-06,0.0,0.0,0.0,2.0500566426636403e-06,0.0,23.120350354091954,3.8969965232772945,0.0014027056247542748,0.0
10439,1.7241379310344829,7.931034482758621,5.0,0,249574.4132763055,390946.5482589029,268413.29868164624,103789.2644707479,16580.054538835437,1.6638294218420367e-06,0.0,0.0,0.0,1.6638294218420367e-06,0.0,24.732774923182035,4.200108188316117,0.000552934173896415,0.0
10440,2.0689655172413794,7.931034482758621,0.0,0,145058.05780141766,252184.6921215241,251263.13717498555,106668.05235555116,-21709.24039592197,9.670537186761176e-07,0.0,0.0,0.0,9.670537186761176e-07,0.0,24.00038153830656,-0.049886974009061495,-0.0007239892291138945,0.0
10441,2.0689655172413794,7.931034482758621,0.35714285714285715,0,155673.6688041388,409631.1687559417,237405.5846917272,278930.79656695836,7086.568607143098,1.0378244586942587e-06,0.0,0.0,0.0,1.0378244586942587e-06,0.0,24.748274267063465,0.25416477656695613,0.0002365924111653081,0.0
10442,2.0689655172413794,7.931034482758621,0.7142857142857143,0,126640.94747362543,329505.34912120586,205030.26164879065,200804.32649569775,-28101.619617240733,8.442729831575029e-07,0.0,0.0,0.0,8.442729831575029e-07,0.0,23.65053944972254,0.5595563789495683,-0.0009415909334574927,0.0
10443,2.0689655172413794,7.931034482758621,1.0714285714285714,0,290646.30848073534,462651.6116714558,148535.7400820294,203252.6232869339,-8082.102299073219,1.9376420565382356e-06,0.0,0.0,0.0,1.9376420565382356e-06,0.0,24.0658113653295,0.8683211131821946,-0.0002740098362225246,0.0
10444,2.0689655172413794,7.931034482758621,1.4285714285714286,0,213644.52935892352,522150.7976696184,449515.4973076997,281659.0311541042,-18222.57764219929,1.4242968623928235e-06,0.0,0.0,0.0,1.4242968623928235e-06,0.0,24.331005690138838,1.182862325686897,-0.000641575240922463,0.0
10445,2.0689655172413794,7.931034482758621,1.7857142857142858,0,482452.7935812886,849765.5971067399,395019.58913450514,343707.73667991697,19179.278427462858,3.2163519572085907e-06,0.0,0.0,0.0,3.2163519572085907e-06,0.0,24.004267903913618,1.5030083317099465,0.0007575335190823195,0.0
10446,2.0689655172413794,7.931034482758621,2.142857142857143,0,452891.28317347064,1149310.2094259248,656000.67791441,752339.7959004488,428222.50060198427,3.019275221156471e-06,0.0,0.0,0.0,3.019275221156471e-06,0.0,23.67770521188404,1.822966164358321,0.022954908005327394,0.0
10447,2.0689655172413794,7.931034482758621,2.5,0,1229001.9342998276,1394126.9600399954,770464.0613534848,-21665.175249173524,773027.4201468237,8.193346228665517e-06,0.0,0.0,0.0,8.193346228665517e-06,0.0,23.611510313529347,2.1335489128269955,0.07730274201468237,0.0
10448,2.0689655172413794,7.931034482758621,2.857142857142857,0,674782.9713705875,842577.078916967,894074.668461877,195018.32349039367,469340.4665223067,4.498553142470583e-06,0.0,0.0,0.0,4.498553142470583e-06,0.0,23.68005956115711,2.430109021501178,0.02515904049192101,0.0
10449,2.0689655172413794,7.931034482758621,3.2142857142857144,0,568731.5914902983,762126.8635740003,713437.7852473453,170615.9877881056,85055.6753716419,3.791543943268655e-06,0.0,0.0,0.0,3.791543943268655e-06,0.0,25.193497501150976,2.717294045995661,0.0033594864022591254,0.0
10450,2.0689655172413794,7.931034482758621,3.5714285714285716,0,503791.48311579577,638774.7917089119,335486.0608272653,57225.99764451271,73097.05331237687,3.3586098874386384e-06,0.0,0.0,0.0,3.3586098874386384e-06,0.0,23.55228375823512,3.0042908971154687,0.002573579902384779,0.0
10451,2.0689655172413794,7.931034482758621,3.928571428571429,0,150533.15859041267,340078.57689040666,263695.07253356,166666.9961666401,-26444.046777808697,1.0035543906027511e-06,0.0,0.0,0.0,1.0035543906027511e-06,0.0,22.874569130328105,3.296892541753624,-0.0008965401152468752,0.0
10452,2.0689655172413794,7.931034482758621,4.285714285714286,0,347243.1327051435,520609.42838546063,181955.63357806156,165371.26543340084,49202.884317761425,2.31495421803429e-06,0.0,0.0,0.0,2.31495421803429e-06,0.0,23.8911201271695,3.5952706646638544,0.001648623474539472,0.0
10453,2.0689655172413794,7.931034482758621,4.642857142857143,0,167560.62318903537,339671.4061756795,156944.3154095258,303395.70127125323,34708.68141359641,1.1170708212602358e-06,0.0,0.0,0.0,1.1170708212602358e-06,0.0,23.88956148515534,3.897021919424099,0.001158785172238927,0.0
10454,2.0689655172413794,7.931034482758621,5.0,0,160069.85295274085,316512.85512366623,131703.31145400996,221571.89505210496,1519.6632918089936,1.0671323530182723e-06,0.0,0.0,0.0,1.0671323530182723e-06,0.0,23.724545795472977,4.200113025990938,5.067979510495219e-05,0.0
10455,2.413793103448276,7.931034482758621,0.0,0,251766.30765875612,396180.3949190122,202283.35828989162,111643.95571945047,8343.173722376181,1.6784420510583742e-06,0.0,0.0,0.0,1.6784420510583742e-06,0.0,23.572790482100405,-0.049882413935357584,0.0002782394870324943,0.0
10456,2.413793103448276,7.931034482758621,0.35714285714285715,0,290277.81623091403,427661.2894536039,105431.47294750264,186626.6113584077,38767.96546226323,1.9351854415394267e-06,0.0,0.0,0.0,1.9351854415394267e-06,0.0,23.750973881325315,0.2541887154023444,0.0012943085621784389,0.0
10457,2.413793103448276,7.931034482758621,0.7142857142857143,0,390450.6620711866,443725.99542899115,343679.25513032806,12986.580400360024,24844.63763873836,2.6030044138079107e-06,0.0,0.0,0.0,2.6030044138079107e-06,0.0,23.23280051233497,0.5596537533431323,0.0008324604013684884,0.0
10458,2.413793103448276,7.931034482758621,1.0714285714285714,0,142372.3426787939,312274.7164090244,303370.8995578517,165659.43191928254,10357.938342220401,9.491489511919594e-07,0.0,0.0,0.0,9.491489511919594e-07,0.0,24.786631812080806,0.8686280133351466,0.00035116815943795655,0.0
10459,2.413793103448276,7.931034482758621,1.4285714285714286,0,264438.711017965,488374.82646561234,291913.7537949636,187708.82614567303,-14582.31002801712,1.7629247401197667e-06,0.0,0.0,0.0,1.7629247401197667e-06,0.0,24.024619489533382,1.18361180566451,-0.0005134097520740208,0.0
10460,2.413793103448276,7.931034482758621,1.7857142857142858,0,434295.85652899876,555398.6616783228,593366.1084586496,141333.02790813436,8307.785966205956,2.895305710193325e-06,0.0,0.0,0.0,2.895305710193325e-06,0.0,23.965788612920658,1.504426518895193,0.00032813676294261065,0.0
10461,2.413793103448276,7.931034482758621,2.142857142857143,0,286091.318065904,669654.1701499876,463243.9324997882,343078.6132235639,370001.47509074706,1.9072754537726935e-06,0.0,0.0,0.0,1.9072754537726935e-06,0.0,24.43713525047062,1.8250454668296399,0.019833964377406137,0.0
10462,2.413793103448276,7.931034482758621,2.5,0,537139.7876315445,913641.4962910095,601429.1159786208,293410.6206874507,519026.9430299018,3.58093191754363e-06,0.0,0.0,0.0,3.58093191754363e-06,0.0,25.271272654878477,2.135911089487053,0.05190269430299018,0.0
10463,2.413793103448276,7.931034482758621,2.857142857142857,0,565295.1219309821,810414.208070486,298716.50178531377,203591.4699794124,429499.30058780406,3.7686341462065475e-06,0.0,0.0,0.0,3.7686341462065475e-06,0.0,23.72016227135551,2.432188323972497,0.023023350990398223,0.0
10464,2.413793103448276,7.931034482758621,3.2142857142857144,0,318214.54640620726,710795.0751027935,550237.6518806265,344288.33738192864,-46403.66268888784,2.121430309374715e-06,0.0,0.0,0.0,2.121430309374715e-06,0.0,24.079136629377125,2.7187122331809075,-0.0018328285930031345,0.0
10465,2.413793103448276,7.931034482758621,3.5714285714285716,0,296905.5565559056,552868.545693231,241706.1212252505,272642.36278982984,19441.751432102443,1.9793703770393706e-06,0.0,0.0,0.0,1.9793703770393706e-06,0.0,24.3314912545572,3.0050403770930814,0.0006844995589493535,0.0
10466,2.413793103448276,7.931034482758621,3.928571428571429,0,78202.86320116797,272725.0137917343,271866.8302884662,194096.5904977742,-10455.503414310928,5.213524213411198e-07,0.0,0.0,0.0,5.213524213411198e-07,0.0,24.280789338032395,3.2971994419065758,-0.0003544759361073548,0.0
10467,2.413793103448276,7.931034482758621,4.285714285714286,0,258562.86046163272,401709.1733157502,337955.7920147059,117233.22971776879,-16485.59283975714,1.7237524030775515e-06,0.0,0.0,0.0,1.7237524030775515e-06,0.0,24.392381176424202,3.595368039057418,-0.0005523768722947094,0.0
10468,2.413793103448276,7.931034482758621,4.642857142857143,0,235186.605645208,286057.34953958564,364434.38808191434,100067.00802023234,-10345.111818320196,1.5679107043013867e-06,0.0,0.0,0.0,1.5679107043013867e-06,0.0,24.40353630133494,3.897045858259488,-0.00034538224132960493,0.0
10469,2.413793103448276,7.931034482758621,5.0,0,261678.8159416946,421081.7366578662,259635.9756167996,119163.80105234603,-107803.574595764,1.7445254396112974e-06,0.0,0.0,0.0,1.7445254396112974e-06,0.0,23.743865546049086,4.200117586064643,-0.0035951799991109155,0.0
10470,2.7586206896551726,7.931034482758621,0.0,0,175251.94932729847,321077.1118139405,284912.7202966576,130564.21016839359,-16206.794863179322,1.1683463288486565e-06,0.0,0.0,0.0,1.1683463288486565e-06,0.0,24.543367606495934,-0.04987818479782313,-0.0005404862033590241,0.0
10471,2.7586206896551726,7.931034482758621,0.35714285714285715,0,179271.30167671255,289696.3197791249,190467.88976581942,82749.6903986891,-31829.25427183582,1.1951420111780836e-06,0.0,0.0,0.0,1.1951420111780836e-06,0.0,23.894473158187644,0.25421091693544345,-0.0010626525235607948,0.0
10472,2.7586206896551726,7.931034482758621,0.7142857142857143,0,183663.70087861436,426853.825440293,381494.95273269404,224760.66463808072,-31459.28805550017,1.2244246725240957e-06,0.0,0.0,0.0,1.2244246725240957e-06,0.0,24.095596771602462,0.559744061028809,-0.001054095130798553,0.0
10473,2.7586206896551726,7.931034482758621,1.0714285714285714,0,172615.97566731184,334629.329373314,252794.977857201,136315.74565265203,118569.74916341742,1.1507731711154123e-06,0.0,0.0,0.0,1.1507731711154123e-06,0.0,24.26736503254186,0.868912640961903,0.0040199042708157,0.0
10474,2.7586206896551726,7.931034482758621,1.4285714285714286,0,147006.50586313102,412751.06608316663,315489.9781763738,243637.6463735985,-55656.56867092989,9.800433724208734e-07,0.0,0.0,0.0,9.800433724208734e-07,0.0,23.609126108159344,1.1843068939701935,-0.0019595403655341403,0.0
10475,2.7586206896551726,7.931034482758621,1.7857142857142858,0,296912.6688467682,350916.550672537,390443.23378236225,75747.07968625029,91484.57553164622,1.979417792311788e-06,0.0,0.0,0.0,1.979417792311788e-06,0.0,24.186304539217385,1.5057417846223378,0.003613411876069623,0.0
10476,2.7586206896551726,7.931034482758621,2.142857142857143,0,776906.4009343776,1112122.9639003682,878852.7007644848,245306.32491892416,278287.54260357196,5.179376006229184e-06,0.0,0.0,0.0,5.179376006229184e-06,0.0,24.28440123094155,1.8269738690217785,0.014917630275180411,0.0
10477,2.7586206896551726,7.931034482758621,2.5,0,581712.0515266259,1280898.9262813528,814100.7312725306,629213.4499122994,534481.5013907324,3.878080343510839e-06,0.0,0.0,0.0,3.878080343510839e-06,0.0,23.03234267666062,2.138101836967185,0.05344815013907323,0.0
10478,2.7586206896551726,7.931034482758621,2.857142857142857,0,350486.57476795214,936119.8239323609,796879.2167439493,537410.0506267662,226743.4559259115,2.336577165119681e-06,0.0,0.0,0.0,2.336577165119681e-06,0.0,24.684472541990978,2.4341167261646355,0.012154604590539787,0.0
10479,2.7586206896551726,7.931034482758621,3.2142857142857144,0,364131.90188004874,438318.1782110093,486479.2763453448,100663.4325713257,137694.28214832308,2.4275460125336584e-06,0.0,0.0,0.0,2.4275460125336584e-06,0.0,23.578922397398436,2.720027498908052,0.005438579689420121,0.0
10480,2.7586206896551726,7.931034482758621,3.5714285714285716,0,310275.2337744432,547161.4055578787,288993.19077291567,202943.3855671173,58603.97929961537,2.068501558496288e-06,0.0,0.0,0.0,2.068501558496288e-06,0.0,24.12961756891234,3.005735465398765,0.002063311946115431,0.0
10481,2.7586206896551726,7.931034482758621,3.928571428571429,0,155745.28502660018,328613.1755794709,335872.21832472645,176624.33835699636,-23273.317981144988,1.0383019001773346e-06,0.0,0.0,0.0,1.0383019001773346e-06,0.0,24.762354633378713,3.2974840695333323,-0.0007890419859074963,0.0
10482,2.7586206896551726,7.931034482758621,4.285714285714286,0,218372.38061413335,334632.0235616533,283014.2887297065,95075.1650365281,33571.69164241935,1.455815870760889e-06,0.0,0.0,0.0,1.455815870760889e-06,0.0,24.32952819935245,3.595458346743095,0.0011248746834484611,0.0
10483,2.7586206896551726,7.931034482758621,4.642857142857143,0,357039.8063440036,536451.9512663384,186276.60427318685,172922.39526262708,-37996.99644718847,2.3802653756266906e-06,0.0,0.0,0.0,2.3802653756266906e-06,0.0,24.527514476533895,3.897068059792587,-0.0012685689654395574,0.0
10484,2.7586206896551726,7.931034482758621,5.0,0,246525.19049208722,315142.5854304403,184168.86878456382,30774.289547954468,-14710.536348827502,1.643501269947248e-06,0.0,0.0,0.0,1.643501269947248e-06,0.0,24.567131763373126,4.200121815202177,-0.0004905869425555846,0.0
10485,3.1034482758620694,7.931034482758621,0.0,0,291325.14342647645,412973.3172144412,262419.53674437775,77176.73754675634,24415.15706184204,1.9421676228431763e-06,0.0,0.0,0.0,1.9421676228431763e-06,0.0,23.7564673643271,-0.04987434892611723,0.0008142298126293783,0.0
10486,3.1034482758620694,7.931034482758621,0.35714285714285715,0,186083.1869566487,400098.63767671783,317042.18831179483,186951.14795646386,-36010.08588970712,1.2405545797109913e-06,0.0,0.0,0.0,1.2405545797109913e-06,0.0,23.48879770316214,0.25423105395675066,-0.0012022339046189395,0.0
10487,3.1034482758620694,7.931034482758621,0.7142857142857143,0,233993.23697057454,388969.72432088753,370874.7925645562,146454.34837472613,-26670.34608295338,1.5599549131371636e-06,0.0,0.0,0.0,1.5599549131371636e-06,0.0,24.21960889359426,0.5598259710384721,-0.0008936337622503279,0.0
10488,3.1034482758620694,7.931034482758621,1.0714285714285714,0,252341.52391201915,392697.15488213976,128082.79140199945,154745.88352868773,1149.0785596946225,1.6822768260801276e-06,0.0,0.0,0.0,1.6822768260801276e-06,0.0,24.373101966984144,0.8691708011780938,3.895754053804083e-05,0.0
10489,3.1034482758620694,7.931034482758621,1.4285714285714286,0,265810.92281270155,464510.43814439705,304610.7591370749,157669.62002643215,7041.1441007842195,1.7720728187513437e-06,0.0,0.0,0.0,1.7720728187513437e-06,0.0,24.57329636845909,1.1849373462889363,0.0002479025641448827,0.0
10490,3.1034482758620694,7.931034482758621,1.7857142857142858,0,293338.5589206463,652476.2573528944,493774.60346309625,313977.115848314,-1543.9202565382657,1.955590392804309e-06,0.0,0.0,0.0,1.955590392804309e-06,0.0,24.416624178703636,1.50693474430913,-6.098098786882397e-05,0.0
10491,3.1034482758620694,7.931034482758621,2.142857142857143,0,375283.8563626703,907321.7986896345,696005.7647598371,474025.0733895135,550525.3715189681,2.5018923757511354e-06,0.0,0.0,0.0,2.5018923757511354e-06,0.0,23.785100443074526,1.8287229498559139,0.02951096507084859,0.0
10492,3.1034482758620694,7.931034482758621,2.5,0,695714.9001285067,1404842.1254149054,972910.0322744398,602279.7760543377,531423.0442334748,4.6380993341900446e-06,0.0,0.0,0.0,4.6380993341900446e-06,0.0,24.47553930192938,2.140088867704627,0.05314230442334748,0.0
10493,3.1034482758620694,7.931034482758621,2.857142857142857,0,337576.4645227632,676141.5220964849,761993.6038754457,389780.55376702815,433151.1686491158,2.250509763485088e-06,0.0,0.0,0.0,2.250509763485088e-06,0.0,22.989615696658486,2.435865806998771,0.0232191097262824,0.0
10494,3.1034482758620694,7.931034482758621,3.2142857142857144,0,499376.15375822416,745239.5146991364,311204.4608680498,199456.53647104732,102057.14430435421,3.329174358388161e-06,0.0,0.0,0.0,3.329174358388161e-06,0.0,24.68127818921914,2.7212204585948445,0.004031001894297895,0.0
10495,3.1034482758620694,7.931034482758621,3.5714285714285716,0,342345.7008374095,503040.05022279616,214717.59123762455,124671.22346783482,-29361.131195065267,2.2823046722493963e-06,0.0,0.0,0.0,2.2823046722493963e-06,0.0,23.605213675641657,3.006365917717508,-0.0010337382114705346,0.0
10496,3.1034482758620694,7.931034482758621,3.928571428571429,0,308344.6444986002,423654.84522398585,283441.8821175137,70119.95379685328,17459.043036426316,2.0556309633240016e-06,0.0,0.0,0.0,2.0556309633240016e-06,0.0,23.59930138414443,3.297742229749523,0.0005919189520233815,0.0
10497,3.1034482758620694,7.931034482758621,4.285714285714286,0,286136.4573637877,441418.1433366045,324047.2835554806,115259.10131135272,-30324.4007082561,1.9075763824252515e-06,0.0,0.0,0.0,1.9075763824252515e-06,0.0,25.303491844318472,3.595540256752758,-0.001016068865721467,0.0
10498,3.1034482758620694,7.931034482758621,4.642857142857143,0,221747.44959957167,353004.6255924283,262082.38388300248,100247.12060182619,2548.2835221220307,1.478316330663811e-06,0.0,0.0,0.0,1.478316330663811e-06,0.0,24.09263063458948,3.8970881968138937,8.507707696838792e-05,0.0
10499,3.1034482758620694,7.931034482758621,5.0,0,107923.40317968068,225179.88207519095,138232.90359677904,259021.515250619,29632.752705355648,7.194893545312045e-07,0.0,0.0,0.0,7.194893545312045e-07,0.0,23.941110441500403,4.200125651073883,0.000988233277462032,0.0
10500,3.4482758620689657,7.931034482758621,0.0,0,245085.3828812682,347392.06354223803,172918.78853732743,67188.71353772075,-19676.544278997437,1.633902552541788e-06,0.0,0.0,0.0,1.633902552541788e-06,0.0,23.475852832320943,-0.049870977046245824,-0.0006562001186763204,0.0
10501,3.4482758620689657,7.931034482758621,0.35714285714285715,0,75765.70046955293,282667.5546968122,295550.74547620123,214169.4482312924,14507.140936461314,5.051046697970195e-07,0.0,0.0,0.0,5.051046697970195e-07,0.0,24.27849329887633,0.25424875517879925,0.0004843358815171378,0.0
10502,3.4482758620689657,7.931034482758621,0.7142857142857143,0,155715.04203198105,301914.49090199097,222916.66554785887,122534.62166896569,-20367.676900785274,1.0381002802132071e-06,0.0,0.0,0.0,1.0381002802132071e-06,0.0,24.458542707486508,0.5598979731110191,-0.0006824524766396395,0.0
10503,3.4482758620689657,7.931034482758621,1.0714285714285714,0,138327.90954540827,273841.7416439507,263666.4137831267,130707.1379198721,6633.665113522481,9.221860636360551e-07,0.0,0.0,0.0,9.221860636360551e-07,0.0,23.891059688746797,0.8693977340119609,0.00022490305418675606,0.0
10504,3.4482758620689657,7.931034482758621,1.4285714285714286,0,181506.9282040435,383027.8601641285,386649.48963792063,203358.8472726247,9817.25944772405,1.2100461880269567e-06,0.0,0.0,0.0,1.2100461880269567e-06,0.0,22.99746003703571,1.185491538307449,0.0003456432300107743,0.0
10505,3.4482758620689657,7.931034482758621,1.7857142857142858,0,402241.92248159496,534210.0674230318,278764.0606408718,70542.02772991626,41656.36924125431,2.6816128165439665e-06,0.0,0.0,0.0,2.6816128165439665e-06,0.0,24.88942758520372,1.5079834021015954,0.001645322377630986,0.0
10506,3.4482758620689657,7.931034482758621,2.142857142857143,0,305933.39048402605,471368.41965894966,554649.111094562,215698.3480709434,174378.19241526126,2.0395559365601735e-06,0.0,0.0,0.0,2.0395559365601735e-06,0.0,23.936364577272247,1.8302604596868617,0.009347559643410884,0.0
10507,3.4482758620689657,7.931034482758621,2.5,0,906618.0658910003,1205548.7207233834,629637.2188886362,160492.72945419702,692728.9630023872,6.044120439273335e-06,0.0,0.0,0.0,6.044120439273335e-06,0.0,23.929962010872476,2.1418355447212565,0.06927289630023872,0.0
10508,3.4482758620689657,7.931034482758621,2.857142857142857,0,877694.1230357316,1297815.9504403982,692988.9007270418,291140.29145840736,517852.77720886294,5.8512941535715444e-06,0.0,0.0,0.0,5.8512941535715444e-06,0.0,24.072644006113453,2.4374033168297187,0.02775954753526949,0.0
10509,3.4482758620689657,7.931034482758621,3.2142857142857144,0,487486.72770021664,680139.0889611385,518379.4713812897,132334.57609765476,72365.08517277295,3.2499115180014443e-06,0.0,0.0,0.0,3.2499115180014443e-06,0.0,23.692489792231576,2.72226911638731,0.00285823983613101,0.0
10510,3.4482758620689657,7.931034482758621,3.5714285714285716,0,203849.4320855758,406268.8209610156,171053.02303056564,280931.93340943067,-20636.58722806624,1.3589962139038387e-06,0.0,0.0,0.0,1.3589962139038387e-06,0.0,24.736716498396135,3.0069201097360208,-0.0007265669919278274,0.0
10511,3.4482758620689657,7.931034482758621,3.928571428571429,0,223870.91125296924,360395.9842051428,254666.54773907567,103241.88885312947,7816.11806747125,1.4924727416864616e-06,0.0,0.0,0.0,1.4924727416864616e-06,0.0,24.467753674268252,3.29796916258339,0.00026499209640161344,0.0
10512,3.4482758620689657,7.931034482758621,4.285714285714286,0,343502.27758439875,323904.6668012679,309072.2253301058,-26773.572974685172,40538.04820636574,2.2900151838959917e-06,0.0,0.0,0.0,2.2900151838959917e-06,0.0,24.353173041897673,3.5956122588253048,0.0013582939051583621,0.0
10513,3.4482758620689657,7.931034482758621,4.642857142857143,0,242186.15099077724,358907.287088425,116006.74015293978,117441.91058960908,45111.40747019459,1.614574339938515e-06,0.0,0.0,0.0,1.614574339938515e-06,0.0,25.26972143276586,3.8971058980359423,0.001506090924410987,0.0
10514,3.4482758620689657,7.931034482758621,5.0,0,135364.91773322597,349879.54447867605,242202.4517430966,197919.1670643088,32135.890356915806,9.024327848881732e-07,0.0,0.0,0.0,9.024327848881732e-07,0.0,23.770034561289958,4.200129022953754,0.001071711311039818,0.0
10515,3.793103448275862,7.931034482758621,0.0,0,115671.31401679535,287341.2714086199,157816.07262610085,250814.6428105485,15378.705984386239,7.711420934453024e-07,0.0,0.0,0.0,7.711420934453024e-07,0.0,24.73272858245366,-0.04986814590960637,0.0005128699709132397,0.0
10516,3.793103448275862,7.931034482758621,0.35714285714285715,0,308814.35799076594,461811.0435438232,197527.75960692414,122348.2326733649,23332.876983326845,2.058762386605106e-06,0.0,0.0,0.0,2.058762386605106e-06,0.0,22.987091216591672,0.2542636176828669,0.000778992193675286,0.0
10517,3.793103448275862,7.931034482758621,0.7142857142857143,0,160331.1616698725,243524.9506005827,68975.10414743678,102814.6015798965,4104.86225766187,1.0688744111324832e-06,0.0,0.0,0.0,1.0688744111324832e-06,0.0,24.425696553806322,0.5599584283210141,0.0001375401538256883,0.0
10518,3.793103448275862,7.931034482758621,1.0714285714285714,0,242555.55978003063,408413.2912135158,349447.6718216271,141811.33134723577,-33912.0234937314,1.617037065200204e-06,0.0,0.0,0.0,1.617037065200204e-06,0.0,25.237718327054253,0.8695882739733939,-0.0011497290753863995,0.0
10519,3.793103448275862,7.931034482758621,1.4285714285714286,0,183533.65894548988,406598.68594028865,260964.95590399415,200448.71748302478,-10493.264559543235,1.223557726303266e-06,0.0,0.0,0.0,1.223557726303266e-06,0.0,23.588397672989974,1.1859568553972437,-0.0003694438223855788,0.0
10520,3.793103448275862,7.931034482758621,1.7857142857142858,0,636859.9532333075,820477.8677409553,320162.7770159271,103571.77387835682,43423.34928185436,4.245733021555383e-06,0.0,0.0,0.0,4.245733021555383e-06,0.0,24.940019890140533,1.5088638882433667,0.0017151136689648305,0.0
10521,3.793103448275862,7.931034482758621,2.142857142857143,0,549177.9818798332,940821.5973017822,674369.5238242412,309249.3704639545,357962.26060276525,3.661186545865554e-06,0.0,0.0,0.0,3.661186545865554e-06,0.0,23.431392949616143,1.8315514014113343,0.019188601136008197,0.0
10522,3.793103448275862,7.931034482758621,2.5,0,513051.43600133964,961742.8931830607,509400.3336145259,404268.9834888021,415159.02765595994,3.4203429066755974e-06,0.0,0.0,0.0,3.4203429066755974e-06,0.0,25.166573139611273,2.143302109808879,0.041515902765596,0.0
10523,3.793103448275862,7.931034482758621,2.857142857142857,0,451442.9859247023,837141.556639343,416211.89510857937,360379.0830505435,377205.5560437172,3.0096199061646822e-06,0.0,0.0,0.0,3.0096199061646822e-06,0.0,23.90193669936301,2.4386942585541913,0.02022013982429622,0.0
10524,3.793103448275862,7.931034482758621,3.2142857142857144,0,376870.7336515194,599222.2400356446,595705.6053669252,220605.49458339135,-57045.76160169017,2.512471557676796e-06,0.0,0.0,0.0,2.512471557676796e-06,0.0,23.76667800679654,2.7231496025290816,-0.0022531648778288263,0.0
10525,3.793103448275862,7.931034482758621,3.5714285714285716,0,310127.8620245719,320146.867641924,440616.96047467383,88329.6783990193,22286.824923652326,2.0675190801638127e-06,0.0,0.0,0.0,2.0675190801638127e-06,0.0,23.873924201489533,3.0073854268258153,0.0007846680832176321,0.0
10526,3.793103448275862,7.931034482758621,3.928571428571429,0,120243.63791178004,302337.6200424164,207689.92445986148,167037.11200000596,42005.09765023135,8.016242527452003e-07,0.0,0.0,0.0,8.016242527452003e-07,0.0,24.1623660489302,3.2981597025448233,0.0014241108936434623,0.0
10527,3.793103448275862,7.931034482758621,4.285714285714286,0,156843.75206275051,222880.93859391313,316627.8580785939,135558.2773920506,31021.822926763372,1.0456250137516702e-06,0.0,0.0,0.0,1.0456250137516702e-06,0.0,24.07515146261829,3.5956727140352998,0.0010394371429482845,0.0
10528,3.793103448275862,7.931034482758621,4.642857142857143,0,139769.48954570052,281736.60602022544,266465.9287637291,134958.84028952362,-30948.192830491247,9.317965969713368e-07,0.0,0.0,0.0,9.317965969713368e-07,0.0,24.12972486329537,3.89712076054001,-0.0010332373774797452,0.0
10529,3.793103448275862,7.931034482758621,5.0,0,257840.0051358875,351937.150597091,144133.04867366698,63387.97762606117,21542.330855058794,1.7189333675725835e-06,0.0,0.0,0.0,1.7189333675725835e-06,0.0,24.318701296305154,4.200131854090394,0.0007184229030878589,0.0
10530,4.137931034482759,7.931034482758621,0.0,0,182462.71182096383,358870.9738386043,174139.30733536195,178765.18533134586,23845.708326346117,1.2164180788064256e-06,0.0,0.0,0.0,1.2164180788064256e-06,0.0,24.24689171600959,-0.049865933438872974,0.0007952390629065542,0.0
10531,4.137931034482759,7.931034482758621,0.35714285714285715,0,234550.96575459227,204567.8620445826,342073.97119239956,71248.63253013966,57759.89688992844,1.563673105030615e-06,0.0,0.0,0.0,1.563673105030615e-06,0.0,24.134934633848673,0.2542752324014279,0.0019283738056346744,0.0
10532,4.137931034482759,7.931034482758621,0.7142857142857143,0,164439.67609862468,330372.36985755013,140851.21464882616,245696.72515745996,12427.82960040051,1.0962645073241645e-06,0.0,0.0,0.0,1.0962645073241645e-06,0.0,23.915425435051453,0.560005672731945,0.00041641484845636716,0.0
10533,4.137931034482759,7.931034482758621,1.0714285714285714,0,339831.9823410594,389408.6302166731,404638.7114058632,57447.74455606063,36135.69602594325,2.2655465489403963e-06,0.0,0.0,0.0,2.2655465489403963e-06,0.0,24.35547803953121,0.8697371767435181,0.001225118884104085,0.0
10534,4.137931034482759,7.931034482758621,1.4285714285714286,0,162427.507063482,393454.0284273326,238218.61329750187,224681.67496897228,-12665.87724932154,1.08285004708988e-06,0.0,0.0,0.0,1.08285004708988e-06,0.0,24.33393297550422,1.186320490422335,-0.0004459365413216627,0.0
10535,4.137931034482759,7.931034482758621,1.7857142857142858,0,544480.1090482466,508749.6882036174,592015.0880688283,10698.458379040352,11727.90501240336,3.6298673936549775e-06,0.0,0.0,0.0,3.6298673936549775e-06,0.0,24.31517788190562,1.5095519687099506,0.00046322290951194834,0.0
10536,4.137931034482759,7.931034482758621,2.142857142857143,0,746017.6917985035,792023.084000149,551472.5549433671,-44592.866727374174,400157.3643796032,4.97345127865669e-06,0.0,0.0,0.0,4.97345127865669e-06,0.0,24.154648715463008,1.8325602438473103,0.021450473700179735,0.0
10537,4.137931034482759,7.931034482758621,2.5,0,596699.6902481341,905788.198575616,873423.4664450632,293564.7991679972,675206.6232956556,3.97799793498756e-06,0.0,0.0,0.0,3.97799793498756e-06,0.0,23.813791971166953,2.144448198022984,0.06752066232956556,0.0
10538,4.137931034482759,7.931034482758621,2.857142857142857,0,847724.7742459902,753254.4686413489,845055.6714163548,-44833.49461359149,270703.6280780115,5.651498494973268e-06,0.0,0.0,0.0,5.651498494973268e-06,0.0,24.201944605699293,2.439703100990167,0.014511093813388285,0.0
10539,4.137931034482759,7.931034482758621,3.2142857142857144,0,269772.7665622567,602852.4255344381,569776.0090494918,318066.5545192213,-9232.18966926384,1.7984851104150445e-06,0.0,0.0,0.0,1.7984851104150445e-06,0.0,24.03091541309095,2.7238376829956654,-0.00036464839672897093,0.0
10540,4.137931034482759,7.931034482758621,3.5714285714285716,0,400857.342764421,594415.3769043101,237160.90614691656,160908.676697543,10124.664771390058,2.67238228509614e-06,0.0,0.0,0.0,2.67238228509614e-06,0.0,23.141324051883803,3.0077490618509066,0.00035646626769865567,0.0
10541,4.137931034482759,7.931034482758621,3.928571428571429,0,97875.80306600507,297918.00349067134,184968.55153744188,238053.76377101935,1756.398961856884,6.525053537733672e-07,0.0,0.0,0.0,6.525053537733672e-07,0.0,24.67882683107398,3.2983086053149475,5.9547698614877046e-05,0.0
10542,4.137931034482759,7.931034482758621,4.285714285714286,0,167987.51853954408,318080.12591273506,232268.61245144493,124518.8199872934,7949.356567253206,1.1199167902636271e-06,0.0,0.0,0.0,1.1199167902636271e-06,0.0,24.313825844563247,3.5957199584462307,0.0002663562517924845,0.0
10543,4.137931034482759,7.931034482758621,4.642857142857143,0,184695.19944641838,335112.23373701016,148957.395550003,151912.12680504302,29995.399772801436,1.2313013296427892e-06,0.0,0.0,0.0,1.2313013296427892e-06,0.0,24.17851890659985,3.8971323752585714,0.0010014273973106154,0.0
10544,4.137931034482759,7.931034482758621,5.0,0,158932.21893253928,292006.07519019616,253182.8408803807,117259.27987813542,34831.7126179787,1.0595481262169286e-06,0.0,0.0,0.0,1.0595481262169286e-06,0.0,24.455763775829002,4.2001340665611275,0.0011616152526342752,0.0
10545,4.482758620689656,7.931034482758621,0.0,0,292466.6174623282,404802.2146550389,177846.0990377952,74748.73460786972,260.62471417486404,1.949777449748855e-06,0.0,0.0,0.0,1.949777449748855e-06,0.0,23.772182877297194,-0.04986441114716161,8.691666887568014e-06,0.0
10546,4.482758620689656,7.931034482758621,0.35714285714285715,0,174569.17867783233,174555.74540928646,304261.4849856234,105779.598943613,-33040.56336348649,1.1637945245188822e-06,0.0,0.0,0.0,1.1637945245188822e-06,0.0,24.834067762834746,0.25428322391495545,-0.0011030933284901674,0.0
10547,4.482758620689656,7.931034482758621,0.7142857142857143,0,212783.4233910745,297655.22249849286,195146.09252950412,53020.994739507136,-24162.410668000353,1.4185561559404966e-06,0.0,0.0,0.0,1.4185561559404966e-06,0.0,24.762447730604503,0.560038179275007,-0.0008096012658824693,0.0
10548,4.482758620689656,7.931034482758621,1.0714285714285714,0,259744.416611803,399256.6803805918,120617.39545486316,163826.30161285444,-20252.216257258617,1.7316294440786866e-06,0.0,0.0,0.0,1.7316294440786866e-06,0.0,23.582766193564996,0.8698396293768288,-0.0006866167062041427,0.0
10549,4.482758620689656,7.931034482758621,1.4285714285714286,0,248470.8363511998,375269.9515208979,390820.84745972644,134939.80958212508,220.85222334956234,1.656472242341332e-06,0.0,0.0,0.0,1.656472242341332e-06,0.0,23.8523710502116,1.1865706897023987,7.77570117608543e-06,0.0
10550,4.482758620689656,7.931034482758621,1.7857142857142858,0,237191.47845418716,477396.30647275335,420760.59353931947,217013.6003051944,30774.241664453777,1.5812765230279145e-06,0.0,0.0,0.0,1.5812765230279145e-06,0.0,24.51084440531131,1.5100254028554159,0.001215505561032064,0.0
10551,4.482758620689656,7.931034482758621,2.142857142857143,0,285996.8175208695,920830.1716048272,597294.4635157323,816400.4708749055,298453.8046440451,1.9066454501391298e-06,0.0,0.0,0.0,1.9066454501391298e-06,0.0,24.301382125080636,1.8332543784431614,0.015998644676104307,0.0
10552,4.482758620689656,7.931034482758621,2.5,0,761909.0382981685,1176184.2666874542,914923.9462784551,318015.3333751014,581865.128175311,5.079393588654457e-06,0.0,0.0,0.0,5.079393588654457e-06,0.0,24.17394857269046,2.1452367646523585,0.058186512817531094,0.0
10553,4.482758620689656,7.931034482758621,2.857142857142857,0,436947.14751259866,881882.8974982398,739874.9333005396,391596.05944446847,264747.03791438165,2.9129809834173243e-06,0.0,0.0,0.0,2.9129809834173243e-06,0.0,24.407353468579277,2.440397235586018,0.014191790229295096,0.0
10554,4.482758620689656,7.931034482758621,3.2142857142857144,0,226122.58436268568,479637.3894619964,312785.5068995545,222281.11694758674,78555.53984891431,1.5074838957512379e-06,0.0,0.0,0.0,1.5074838957512379e-06,0.0,23.25631067990276,2.7243111171411303,0.003102747309823143,0.0
10555,4.482758620689656,7.931034482758621,3.5714285714285716,0,187729.19065088837,435102.03757719765,243238.04679620938,251800.67796999292,77884.25350125787,1.251527937672589e-06,0.0,0.0,0.0,1.251527937672589e-06,0.0,23.736074250346615,3.0079992611309705,0.002742126261458199,0.0
10556,4.482758620689656,7.931034482758621,3.928571428571429,0,157060.34836630127,315514.53154999705,163800.64843048848,153604.54657779867,-5500.510366571785,1.0470689891086751e-06,0.0,0.0,0.0,1.0470689891086751e-06,0.0,23.900722282164104,3.298411057948258,-0.00018648538324706238,0.0
10557,4.482758620689656,7.931034482758621,4.285714285714286,0,257913.14787294716,382659.9959190854,135578.31699676212,115132.43901000371,-22696.589846558665,1.7194209858196477e-06,0.0,0.0,0.0,1.7194209858196477e-06,0.0,24.58786758603696,3.595752464989293,-0.0007604865310614224,0.0
10558,4.482758620689656,7.931034482758621,4.642857142857143,0,153047.38497879604,430445.32019920426,270791.4493056023,284994.5843415416,10180.814136306915,1.0203158998586402e-06,0.0,0.0,0.0,1.0203158998586402e-06,0.0,23.134228868702166,3.8971403667720987,0.00033989699354731274,0.0
10559,4.482758620689656,7.931034482758621,5.0,0,158403.1264491304,158942.33403679857,258364.03827483032,75694.3804539611,-26389.00599622416,1.0560208429942025e-06,0.0,0.0,0.0,1.0560208429942025e-06,0.0,24.306456520036637,4.200135588852839,-0.0008800564073111082,0.0
10560,4.827586206896552,7.931034482758621,0.0,0,193610.83888992973,332911.8698017203,277531.18642099685,117645.16534974785,-4797.521185313809,1.2907389259328647e-06,0.0,0.0,0.0,1.2907389259328647e-06,0.0,23.972764919196013,-0.04986363467145917,-0.00015999425135415532,0.0
10561,4.827586206896552,7.931034482758621,0.35714285714285715,0,111914.56594970833,212661.64837016995,311513.85193566146,190004.1080460092,-22099.770124927498,7.460971063313889e-07,0.0,0.0,0.0,7.460971063313889e-07,0.0,24.491456208656025,0.2542873001481987,-0.000737823647792712,0.0
10562,4.827586206896552,7.931034482758621,0.7142857142857143,0,354321.7425026247,486368.2646017755,279364.1426726857,77242.4687304483,-34956.11745395025,2.362144950017498e-06,0.0,0.0,0.0,2.362144950017498e-06,0.0,24.57464664445983,0.5600547598953108,-0.0011712621447384959,0.0
10563,4.827586206896552,7.931034482758621,1.0714285714285714,0,113684.41209273526,305149.0500324457,293808.937156205,186219.57044182805,-29363.37413129262,7.578960806182351e-07,0.0,0.0,0.0,7.578960806182351e-07,0.0,25.02437869791216,0.8698918874163507,-0.0009955149092308359,0.0
10564,4.827586206896552,7.931034482758621,1.4285714285714286,0,334588.6578969967,449648.76204381534,111273.30803839813,118980.04827088548,-20935.98609255061,2.230591052646645e-06,0.0,0.0,0.0,2.230591052646645e-06,0.0,23.59319287217696,1.1866983089098648,-0.0007371081405175112,0.0
10565,4.827586206896552,7.931034482758621,1.7857142857142858,0,210032.9396458308,556493.9959476885,357906.73676228046,336634.36325630866,652.865091713029,1.400219597638872e-06,0.0,0.0,0.0,1.400219597638872e-06,0.0,23.77404316164416,1.5102668875248213,2.5786537918089768e-05,0.0
10566,4.827586206896552,7.931034482758621,2.142857142857143,0,228090.88114813386,696994.6541490523,741445.9523126725,494401.4614234889,419369.7234106434,1.5206058743208925e-06,0.0,0.0,0.0,1.5206058743208925e-06,0.0,24.213894007407003,1.8336084358448246,0.022480354039262518,0.0
10567,4.827586206896552,7.931034482758621,2.5,0,389032.5257958869,796851.2450435734,455643.6837537852,373207.2379204889,605889.7369648655,2.593550171972579e-06,0.0,0.0,0.0,2.593550171972579e-06,0.0,24.899301311247353,2.145638989024265,0.06058897369648655,0.0
10568,4.827586206896552,7.931034482758621,2.857142857142857,0,804112.6926807784,1093703.999014214,596479.9151770755,165994.48222950235,391386.28579969093,5.360751284538523e-06,0.0,0.0,0.0,5.360751284538523e-06,0.0,24.4176125687944,2.440751292987682,0.020980299195976087,0.0
10569,4.827586206896552,7.931034482758621,3.2142857142857144,0,422854.5338176814,667604.2915510416,450543.924932968,180300.3569037036,-17091.704327768173,2.8190302254512097e-06,0.0,0.0,0.0,2.8190302254512097e-06,0.0,24.256462434535493,2.724552601810536,-0.0006750795644109904,0.0
10570,4.827586206896552,7.931034482758621,3.5714285714285716,0,338478.8139040518,543329.4806385876,308524.8934963776,155338.91708035633,-6582.361145186353,2.256525426027012e-06,0.0,0.0,0.0,2.256525426027012e-06,0.0,24.82067317006588,3.0081268803384367,-0.00023174986659307264,0.0
10571,4.827586206896552,7.931034482758621,3.928571428571429,0,126565.09441723734,340403.6130761042,260501.3149514942,194478.69277464465,14328.343704617278,8.437672961149156e-07,0.0,0.0,0.0,8.437672961149156e-07,0.0,24.01453506454719,3.29846331598778,0.00048577795313138155,0.0
10572,4.827586206896552,7.931034482758621,4.285714285714286,0,169052.73185410936,345599.2144965143,267890.0432412646,151664.68279444013,54012.103085091556,1.127018212360729e-06,0.0,0.0,0.0,1.127018212360729e-06,0.0,24.80270000254175,3.5957690456095968,0.0018097642504096814,0.0
10573,4.827586206896552,7.931034482758621,4.642857142857143,0,123871.9382181837,308334.80593393696,239794.5047383584,165340.566873912,-24518.937878212386,8.25812921454558e-07,0.0,0.0,0.0,8.25812921454558e-07,0.0,25.090195739706843,3.897144443005342,-0.0008185900614821399,0.0
10574,4.827586206896552,7.931034482758621,5.0,0,165065.5129890046,306978.1966704886,132685.66360243826,153024.68303059042,-41892.01585749096,1.1004367532600308e-06,0.0,0.0,0.0,1.1004367532600308e-06,0.0,24.150860011317143,4.200136365328541,-0.0013970718327108865,0.0
10575,5.172413793103448,7.931034482758621,0.0,0,72791.36375383966,253377.7746829502,256504.41498113197,182200.11100945217,6101.423535156412,4.85275758358931e-07,0.0,0.0,0.0,4.85275758358931e-07,0.0,23.38632439897798,-0.04986363467145917,0.00020347855757058434,0.0
10576,5.172413793103448,7.931034482758621,0.35714285714285715,0,183438.16737205817,325516.2652982329,242327.71360117808,115223.11601325052,-21569.20111545106,1.222921115813721e-06,0.0,0.0,0.0,1.222921115813721e-06,0.0,24.238674196900202,0.2542873001481987,-0.0007201100534989813,0.0
10577,5.172413793103448,7.931034482758621,0.7142857142857143,0,135241.7781137725,270464.56002860423,131691.48839585326,139054.92779175483,54788.24961596038,9.016118540918168e-07,0.0,0.0,0.0,9.016118540918168e-07,0.0,24.99272404476646,0.5600547598953108,0.0018357703150584327,0.0
10578,5.172413793103448,7.931034482758621,1.0714285714285714,0,209779.7753835515,360120.6123126206,322918.53047792095,134228.57306117393,18146.05811994436,1.3985318358903432e-06,0.0,0.0,0.0,1.3985318358903432e-06,0.0,24.42209893400757,0.8698918874163507,0.0006152110217783969,0.0
10579,5.172413793103448,7.931034482758621,1.4285714285714286,0,245716.6301912985,397588.3297506648,310213.46682065935,120125.60586035167,-6151.500140625057,1.63811086794199e-06,0.0,0.0,0.0,1.63811086794199e-06,0.0,23.4921132565533,1.1866983089098648,-0.00021658023701413975,0.0
10580,5.172413793103448,7.931034482758621,1.7857142857142858,0,311704.2036451796,582501.3489898888,233504.9558995445,331775.5407969484,42444.79910343807,2.078028024301197e-06,0.0,0.0,0.0,2.078028024301197e-06,0.0,24.81992299226759,1.5102668875248213,0.0016764633848544083,0.0
10581,5.172413793103448,7.931034482758621,2.142857142857143,0,628000.1300416641,1089485.890345612,437870.92644405446,488119.6715581548,297459.96125726646,4.186667533611094e-06,0.0,0.0,0.0,4.186667533611094e-06,0.0,24.587221461797963,1.8336084358448246,0.015945369606524505,0.0
10582,5.172413793103448,7.931034482758621,2.5,0,365994.552170431,952971.2192991205,563828.068870801,615649.0974153383,378835.38796274515,2.439963681136207e-06,0.0,0.0,0.0,2.439963681136207e-06,0.0,24.694064777806346,2.145638989024265,0.03788353879627451,0.0
10583,5.172413793103448,7.931034482758621,2.857142857142857,0,645491.1721286946,939588.1279985171,479076.6392783769,201783.63734539776,311218.21599532594,4.303274480857964e-06,0.0,0.0,0.0,4.303274480857964e-06,0.0,24.765464037727064,2.440751292987682,0.01668288216455694,0.0
10584,5.172413793103448,7.931034482758621,3.2142857142857144,0,459483.6155307997,776808.0117747561,417849.79382708756,258969.7130821685,31196.939629258755,3.0632241035386647e-06,0.0,0.0,0.0,3.0632241035386647e-06,0.0,23.932459265867042,2.724552601810536,0.001232201073222405,0.0
10585,5.172413793103448,7.931034482758621,3.5714285714285716,0,271705.9067844775,484996.5939627572,194075.649694335,237811.7249463213,29163.705985589542,1.8113727118965168e-06,0.0,0.0,0.0,1.8113727118965168e-06,0.0,24.737740258639704,3.0081268803384367,0.001026787321820311,0.0
10586,5.172413793103448,7.931034482758621,3.928571428571429,0,152461.0440743013,407188.5934080982,306268.89627863583,231805.644462776,-29488.388155034245,1.0164069604953419e-06,0.0,0.0,0.0,1.0164069604953419e-06,0.0,23.890429223519813,3.29846331598778,-0.0009997532955941077,0.0
10587,5.172413793103448,7.931034482758621,4.285714285714286,0,265288.2330689432,301460.18651310797,291985.45062211395,31561.511737808112,21924.579193626876,1.7685882204596214e-06,0.0,0.0,0.0,1.7685882204596214e-06,0.0,23.62711455701143,3.5957690456095968,0.0007346190457977903,0.0
10588,5.172413793103448,7.931034482758621,4.642857142857143,0,182145.55850348138,334840.76789030933,263749.42925821035,127870.1276360464,17382.831008942878,1.2143037233565427e-06,0.0,0.0,0.0,1.2143037233565427e-06,0.0,23.808212303463826,3.897144443005342,0.0005803437642781626,0.0
10589,5.172413793103448,7.931034482758621,5.0,0,115618.88098188984,235684.7680217461,226883.8910530965,115916.94219185718,5112.401830822779,7.707925398792657e-07,0.0,0.0,0.0,7.707925398792657e-07,0.0,24.573792768251646,4.200136365328541,0.000170495318717514,0.0
10590,5.517241379310345,7.931034482758621,0.0,0,104427.87492658696,346778.14168149146,279838.8356151755,226449.2459668379,39531.063149776885,6.961858328439131e-07,0.0,0.0,0.0,6.961858328439131e-07,0.0,23.94504780205895,-0.04986441114716161,0.0013183355757226706,0.0
10591,5.517241379310345,7.931034482758621,0.35714285714285715,0,302711.7959461348,332689.22371152166,203358.71599867573,-13204.844877651383,-59440.36073086785,2.0180786396408985e-06,0.0,0.0,0.0,2.0180786396408985e-06,0.0,24.892147003252987,0.25428322391495545,-0.001984477826359629,0.0
10592,5.517241379310345,7.931034482758621,0.7142857142857143,0,223476.90093030778,317864.08977467625,175625.6587451021,60282.82234825113,14048.129964335476,1.4898460062020518e-06,0.0,0.0,0.0,1.4898460062020518e-06,0.0,24.716323410247263,0.560038179275007,0.00047070567414326197,0.0
10593,5.517241379310345,7.931034482758621,1.0714285714285714,0,146483.1727241563,392922.0239607211,305755.4035169757,223804.63429566682,-1249.6480728336994,9.765544848277087e-07,0.0,0.0,0.0,9.765544848277087e-07,0.0,24.50080406009388,0.8698396293768288,-4.2367177635479876e-05,0.0
10594,5.517241379310345,7.931034482758621,1.4285714285714286,0,172330.68361884885,287296.79306859476,289214.8382905296,115933.13770758214,1955.6825091069963,1.148871224125659e-06,0.0,0.0,0.0,1.148871224125659e-06,0.0,24.85858907534722,1.1865706897023987,6.885510390377109e-05,0.0
10595,5.517241379310345,7.931034482758621,1.7857142857142858,0,565510.7160931432,720042.261431431,305597.5006599775,75808.41069509774,3882.8931633169996,3.7700714406209546e-06,0.0,0.0,0.0,3.7700714406209546e-06,0.0,23.585768557624956,1.5100254028554159,0.00015336456652177157,0.0
10596,5.517241379310345,7.931034482758621,2.142857142857143,0,423048.16264118714,948938.8118209125,495593.1065706863,564696.9217472398,189084.13008925552,2.820321084274581e-06,0.0,0.0,0.0,2.820321084274581e-06,0.0,24.656301087076102,1.8332543784431614,0.010135872835651049,0.0
10597,5.517241379310345,7.931034482758621,2.5,0,714547.0343794336,932575.1537491087,522833.6843517414,107493.63993375383,630214.3325490018,4.763646895862891e-06,0.0,0.0,0.0,4.763646895862891e-06,0.0,24.46987313565959,2.1452367646523585,0.06302143325490017,0.0
10598,5.517241379310345,7.931034482758621,2.857142857142857,0,360377.33830604644,780030.8931607291,887904.9447552548,485910.13968997035,366576.76223425905,2.402515588706976e-06,0.0,0.0,0.0,2.402515588706976e-06,0.0,23.550790290934316,2.440397235586018,0.019650382317951458,0.0
10599,5.517241379310345,7.931034482758621,3.2142857142857144,0,477427.02982682583,594778.1863741027,380278.9929167809,47722.79066834371,154754.5376263524,3.1828468655121723e-06,0.0,0.0,0.0,3.1828468655121723e-06,0.0,23.832193368468587,2.7243111171411303,0.006112417102938737,0.0
10600,5.517241379310345,7.931034482758621,3.5714285714285716,0,391358.2314895172,494015.9297837396,277110.64567460987,42233.50654386042,79115.71363666761,2.6090548765967812e-06,0.0,0.0,0.0,2.6090548765967812e-06,0.0,24.11760131705184,3.0079992611309705,0.00278548315358263,0.0
10601,5.517241379310345,7.931034482758621,3.928571428571429,0,167976.3530776384,332581.59072468075,275187.71006088634,143430.56960944532,-50253.78871431718,1.1198423538509226e-06,0.0,0.0,0.0,1.1198423538509226e-06,0.0,24.10802141877993,3.298411057948258,-0.001703768636626936,0.0
10602,5.517241379310345,7.931034482758621,4.285714285714286,0,225493.37405986254,325498.1769648006,144564.80712391256,72875.39902464788,-4886.9667749362,1.5032891603990837e-06,0.0,0.0,0.0,1.5032891603990837e-06,0.0,24.18589286517143,3.595752464989293,-0.00016374585059733817,0.0
10603,5.517241379310345,7.931034482758621,4.642857142857143,0,161546.02233824346,316520.3422900923,289929.5264877511,143328.67514708475,7907.490954940824,1.0769734822549565e-06,0.0,0.0,0.0,1.0769734822549565e-06,0.0,23.90146637220155,3.8971403667720987,0.0002639997515033634,0.0
10604,5.517241379310345,7.931034482758621,5.0,0,222243.54551866473,427694.91342313087,182387.95352886853,239768.42913819643,30334.455541689287,1.4816236367910982e-06,0.0,0.0,0.0,1.4816236367910982e-06,0.0,24.95547949977165,4.200135588852839,0.0010116346165360446,0.0
10605,5.862068965517242,7.931034482758621,0.0,0,199044.1685761267,288651.1032703745,332212.534391416,114995.42935038776,44466.438643167174,1.3269611238408448e-06,0.0,0.0,0.0,1.3269611238408448e-06,0.0,23.5098959728903,-0.049865933438872974,0.0014829271797438988,0.0
10606,5.862068965517242,7.931034482758621,0.35714285714285715,0,100294.15204490692,309865.2342967721,198701.89302239066,226159.71964878764,-32077.214595573114,6.686276802993794e-07,0.0,0.0,0.0,6.686276802993794e-07,0.0,23.52933256932949,0.2542752324014279,-0.0010709309350344666,0.0
10607,5.862068965517242,7.931034482758621,0.7142857142857143,0,224361.29039435435,404223.1144652988,283783.9002668399,145361.1518880316,-16912.56249876197,1.4957419359623623e-06,0.0,0.0,0.0,1.4957419359623623e-06,0.0,23.665305768720234,0.560005672731945,-0.0005666831921885895,0.0
10608,5.862068965517242,7.931034482758621,1.0714285714285714,0,231352.2914608524,331633.9243688593,64638.63941791925,190453.76117021963,44369.65691320191,1.542348609739016e-06,0.0,0.0,0.0,1.542348609739016e-06,0.0,23.823596455103303,0.8697371767435181,0.0015042772256706272,0.0
10609,5.862068965517242,7.931034482758621,1.4285714285714286,0,423002.66740693076,459525.55914969917,174079.44057950765,-26449.072132215828,-57932.131130961396,2.820017782712872e-06,0.0,0.0,0.0,2.820017782712872e-06,0.0,23.78932545760773,1.186320490422335,-0.002039657710192776,0.0
10610,5.862068965517242,7.931034482758621,1.7857142857142858,0,135950.21933595257,438557.0778051751,343918.46206524596,282770.67148772674,-1241.344785926187,9.063347955730172e-07,0.0,0.0,0.0,9.063347955730172e-07,0.0,24.9906160901604,1.5095519687099506,-4.9030013701174936e-05,0.0
10611,5.862068965517242,7.931034482758621,2.142857142857143,0,469157.094224394,761958.2210187474,233482.8512665564,394552.14594952797,334470.76124551485,3.12771396149596e-06,0.0,0.0,0.0,3.12771396149596e-06,0.0,23.826228057532006,1.8325602438473103,0.017929337071427673,0.0
10612,5.862068965517242,7.931034482758621,2.5,0,784519.712651445,1212488.3459061245,766801.6318235073,306641.55241197825,731513.9420694371,5.2301314176763e-06,0.0,0.0,0.0,5.2301314176763e-06,0.0,24.09944735903106,2.144448198022984,0.07315139420694372,0.0
10613,5.862068965517242,7.931034482758621,2.857142857142857,0,75458.55364655887,687101.0407469475,605942.0315383176,619064.2104054865,166430.46491220148,5.030570243103924e-07,0.0,0.0,0.0,5.030570243103924e-07,0.0,23.533827324150916,2.439703100990167,0.008921520952245241,0.0
10614,5.862068965517242,7.931034482758621,3.2142857142857144,0,318605.5156734973,520072.82324625447,269134.42566415423,161618.828638458,59686.986778766564,2.1240367711566486e-06,0.0,0.0,0.0,2.1240367711566486e-06,0.0,23.935107771892557,2.7238376829956654,0.00235748666504552,0.0
10615,5.862068965517242,7.931034482758621,3.5714285714285716,0,319358.1766121542,393605.6790534765,260875.13501545988,29286.388805868093,25461.979625730826,2.1290545107476946e-06,0.0,0.0,0.0,2.1290545107476946e-06,0.0,24.47512532663167,3.0077490618509066,0.0008964580112371813,0.0
10616,5.862068965517242,7.931034482758621,3.928571428571429,0,90225.13356741954,258428.13824066287,277476.38194925955,179247.9871653434,47558.672740977774,6.015008904494637e-07,0.0,0.0,0.0,6.015008904494637e-07,0.0,24.519413394620713,3.2983086053149475,0.001612395345479641,0.0
10617,5.862068965517242,7.931034482758621,4.285714285714286,0,229461.65065231035,286820.2077880603,87365.25050301383,36043.269924730426,13973.544540767956,1.529744337682069e-06,0.0,0.0,0.0,1.529744337682069e-06,0.0,24.675990489119037,3.5957199584462307,0.0004682065669901576,0.0
10618,5.862068965517242,7.931034482758621,4.642857142857143,0,184774.40844615584,318726.64423509326,138802.81709254955,129456.40102117829,-57405.21364447592,1.231829389641039e-06,0.0,0.0,0.0,1.231829389641039e-06,0.0,23.689825349015827,3.8971323752585714,-0.0019165323392080367,0.0
10619,5.862068965517242,7.931034482758621,5.0,0,112233.85468135746,314552.6841147425,197264.56370856662,208169.114641807,-40074.67988004398,7.482256978757165e-07,0.0,0.0,0.0,7.482256978757165e-07,0.0,23.856691904515102,4.2001340665611275,-0.0013364648446561622,0.0
10620,6.206896551724139,7.931034482758621,0.0,0,209568.77475915902,388515.8128013943,217984.97032434022,154561.13446234656,42438.232673267245,1.3971251650610601e-06,0.0,0.0,0.0,1.3971251650610601e-06,0.0,24.503157443274755,-0.04986814590960637,0.0014152878128267641,0.0
10621,6.206896551724139,7.931034482758621,0.35714285714285715,0,260297.0738503657,404748.43341979303,212933.69266345285,108441.72278198974,13620.52534110236,1.7353138256691048e-06,0.0,0.0,0.0,1.7353138256691048e-06,0.0,24.08699325585914,0.2542636176828669,0.0004547353042686088,0.0
10622,6.206896551724139,7.931034482758621,0.7142857142857143,0,163022.0361001249,257220.6316317164,272451.8100043049,102348.70542600515,-34936.77890326168,1.0868135740008327e-06,0.0,0.0,0.0,1.0868135740008327e-06,0.0,24.0735876226111,0.5599584283210141,-0.0011706141748263489,0.0
10623,6.206896551724139,7.931034482758621,1.0714285714285714,0,103119.23584230835,326866.0380241902,254342.98303396063,208818.92700811056,15984.506640118938,6.874615722820556e-07,0.0,0.0,0.0,6.874615722820556e-07,0.0,24.403610125104912,0.8695882739733939,0.0005419273209470628,0.0
10624,6.206896551724139,7.931034482758621,1.4285714285714286,0,323123.9499597723,421691.60431924625,311880.19671873306,57973.371452889594,16084.329260391602,2.154159666398482e-06,0.0,0.0,0.0,2.154159666398482e-06,0.0,24.611608107222903,1.1859568553972437,0.0005662924105980936,0.0
10625,6.206896551724139,7.931034482758621,1.7857142857142858,0,437993.13496888074,693713.6302179805,224638.4148927223,295425.24223495054,-76707.84399980842,2.9199542331258715e-06,0.0,0.0,0.0,2.9199542331258715e-06,0.0,23.76870576397309,1.5088638882433667,-0.003029767945971647,0.0
10626,6.206896551724139,7.931034482758621,2.142857142857143,0,293527.54263592005,901960.8048466787,574887.4417329293,661445.6870756412,131872.39263269247,1.956850284239467e-06,0.0,0.0,0.0,1.956850284239467e-06,0.0,24.07090429933797,1.8315514014113343,0.007069032190205847,0.0
10627,6.206896551724139,7.931034482758621,2.5,0,461584.73817423766,981913.8447651219,592546.2649979793,472023.5568757387,564250.3348863436,3.077231587828251e-06,0.0,0.0,0.0,3.077231587828251e-06,0.0,24.067559179529738,2.143302109808879,0.056425033488634355,0.0
10628,6.206896551724139,7.931034482758621,2.857142857142857,0,568501.1531307601,893767.235251383,782653.1331524323,277912.2247668747,457963.5216394351,3.7900076875384006e-06,0.0,0.0,0.0,3.7900076875384006e-06,0.0,23.647850126627876,2.4386942585541913,0.0245491782758981,0.0
10629,6.206896551724139,7.931034482758621,3.2142857142857144,0,353568.7262327332,604014.8711748166,391166.7310315707,195874.71585414975,70108.79505696765,2.357124841551555e-06,0.0,0.0,0.0,2.357124841551555e-06,0.0,24.28680138023747,2.7231496025290816,0.00276912202088259,0.0
10630,6.206896551724139,7.931034482758621,3.5714285714285716,0,164310.63003252883,302638.9752424615,210386.66676578057,112933.16775468236,-86345.92514421267,1.095404200216859e-06,0.0,0.0,0.0,1.095404200216859e-06,0.0,23.87213824862269,3.0073854268258153,-0.0030400423482780815,0.0
10631,6.206896551724139,7.931034482758621,3.928571428571429,0,223836.823832414,332079.90564341994,278342.8110324322,86265.7778836487,-51352.28777475874,1.4922454922160933e-06,0.0,0.0,0.0,1.4922454922160933e-06,0.0,24.143830213656937,3.2981597025448233,-0.0017410113658703787,0.0
10632,6.206896551724139,7.931034482758621,4.285714285714286,0,233792.93224706344,400932.31145358674,252216.5616998842,131454.33381929126,19425.424888614336,1.5586195483137562e-06,0.0,0.0,0.0,1.5586195483137562e-06,0.0,24.475901888169112,3.5956727140352998,0.0006508807749449829,0.0
10633,6.206896551724139,7.931034482758621,4.642857142857143,0,130783.94488609467,296541.70042472007,165724.1643237198,165791.3726567119,22731.98741596515,8.718929659072978e-07,0.0,0.0,0.0,8.718929659072978e-07,0.0,24.290192622339987,3.89712076054001,0.0007589308749373454,0.0
10634,6.206896551724139,7.931034482758621,5.0,0,110917.24959581751,317318.3803931208,194959.06927162828,223370.0584831588,-6007.347571512421,7.394483306387834e-07,0.0,0.0,0.0,7.394483306387834e-07,0.0,23.717126390733643,4.200131854090394,-0.00020034118458310966,0.0
10635,6.551724137931035,7.931034482758621,0.0,0,256369.41602118823,293607.8197539515,195547.0968838911,2682.132932720409,-14931.610593857773,1.7091294401412547e-06,0.0,0.0,0.0,1.7091294401412547e-06,0.0,24.154324712467915,-0.049870977046245824,-0.0004979596266899622,0.0
10636,6.551724137931035,7.931034482758621,0.35714285714285715,0,278205.971801998,165807.81973218388,291812.73849883454,-27101.098281533115,24501.972504356065,1.8547064786799866e-06,0.0,0.0,0.0,1.8547064786799866e-06,0.0,24.126557102997424,0.25424875517879925,0.0008180236549560051,0.0
10637,6.551724137931035,7.931034482758621,0.7142857142857143,0,83932.78841311745,310896.1405610014,229320.37181071856,224789.84452568117,34213.5279201276,5.595519227541164e-07,0.0,0.0,0.0,5.595519227541164e-07,0.0,23.781299359868058,0.5598979731110191,0.0011463804624066043,0.0
10638,6.551724137931035,7.931034482758621,1.0714285714285714,0,182638.24451715793,338243.447397369,269660.0499693572,131241.1046621196,22341.107765957135,1.2175882967810528e-06,0.0,0.0,0.0,1.2175882967810528e-06,0.0,23.63507367599328,0.8693977340119609,0.0007574369951592501,0.0
10639,6.551724137931035,7.931034482758621,1.4285714285714286,0,154209.12359552836,332703.4690543995,222918.65305583467,156398.85231060127,-30701.772016198316,1.028060823970189e-06,0.0,0.0,0.0,1.028060823970189e-06,0.0,24.148375353377578,1.185491538307449,-0.0010809391055864733,0.0
10640,6.551724137931035,7.931034482758621,1.7857142857142858,0,142187.97396730428,408393.62415857415,407271.8149118775,265648.0646003936,103687.7244710174,9.479198264486951e-07,0.0,0.0,0.0,9.479198264486951e-07,0.0,23.37751791189851,1.5079834021015954,0.004095405731828586,0.0
10641,6.551724137931035,7.931034482758621,2.142857142857143,0,427001.38601009746,648194.2451040056,755817.7833797231,285301.00567908544,268961.27455076395,2.846675906733983e-06,0.0,0.0,0.0,2.846675906733983e-06,0.0,23.546876876044983,1.8302604596868617,0.014417694786306568,0.0
10642,6.551724137931035,7.931034482758621,2.5,0,430073.74328327575,1067201.5531177248,581151.0614027588,735974.1854636616,478450.3293824676,2.867158288555172e-06,0.0,0.0,0.0,2.867158288555172e-06,0.0,23.443922469817686,2.1418355447212565,0.04784503293824676,0.0
10643,6.551724137931035,7.931034482758621,2.857142857142857,0,635382.375167149,1097139.7579786843,568851.3408902267,392093.8892530987,246329.55394547604,4.235882501114327e-06,0.0,0.0,0.0,4.235882501114327e-06,0.0,23.484328861832225,2.4374033168297187,0.013204519243764213,0.0
10644,6.551724137931035,7.931034482758621,3.2142857142857144,0,484929.53733412153,677841.0902676429,226925.80391830392,164871.34372781875,57055.11801234593,3.232863582227477e-06,0.0,0.0,0.0,3.232863582227477e-06,0.0,23.855620525645385,2.72226911638731,0.0022535344326437712,0.0
10645,6.551724137931035,7.931034482758621,3.5714285714285716,0,129458.58774805581,271029.9664815872,202731.3581145362,121724.2425331862,25801.214025525536,8.630572516537054e-07,0.0,0.0,0.0,8.630572516537054e-07,0.0,24.630799291601818,3.0069201097360208,0.0009084016778276566,0.0
10646,6.551724137931035,7.931034482758621,3.928571428571429,0,225244.16772039482,373513.2103729314,201956.04866222088,118438.91105022328,-64251.78837883092,1.501627784802632e-06,0.0,0.0,0.0,1.501627784802632e-06,0.0,24.41369494207608,3.29796916258339,-0.002178346840859292,0.0
10647,6.551724137931035,7.931034482758621,4.285714285714286,0,168321.86879927313,268555.29569300066,151043.1280556537,75726.7711605147,-22621.30086145867,1.1221457919951542e-06,0.0,0.0,0.0,1.1221457919951542e-06,0.0,24.670841724555107,3.5956122588253048,-0.0007579638499232906,0.0
10648,6.551724137931035,7.931034482758621,4.642857142857143,0,61359.984213132186,272694.09970420256,297646.7317954064,227741.57041554234,-14224.414434990495,4.0906656142088126e-07,0.0,0.0,0.0,4.0906656142088126e-07,0.0,23.8086021314576,3.8971058980359423,-0.00047489676529721036,0.0
10649,6.551724137931035,7.931034482758621,5.0,0,135468.79356444022,280063.9112114506,164284.74143843265,131079.96911875714,31979.81275972974,9.031252904296015e-07,0.0,0.0,0.0,9.031252904296015e-07,0.0,23.113222070921775,4.200129022953754,0.001066506223380928,0.0
10650,6.8965517241379315,7.931034482758621,0.0,0,269088.3340879612,353426.31813225086,265518.6937519022,51378.10707978649,-26841.33249452042,1.7939222272530745e-06,0.0,0.0,0.0,1.7939222272530745e-06,0.0,23.70386011455517,-0.04987434892611723,-0.0008951412056198879,0.0
10651,6.8965517241379315,7.931034482758621,0.35714285714285715,0,193132.75836021767,369181.419123548,228403.01431503208,149004.5573260562,-10252.290510915254,1.2875517224014512e-06,0.0,0.0,0.0,1.2875517224014512e-06,0.0,24.571097687497936,0.25423105395675066,-0.0003422833061264214,0.0
10652,6.8965517241379315,7.931034482758621,0.7142857142857143,0,88204.60554848136,304651.1441716913,219437.96495980493,213732.1544347736,25163.266175907716,5.880307036565423e-07,0.0,0.0,0.0,5.880307036565423e-07,0.0,23.815227093138972,0.5598259710384721,0.0008431365739815227,0.0
10653,6.8965517241379315,7.931034482758621,1.0714285714285714,0,121183.42040978621,314955.3498679838,319260.3171570808,195981.77593326967,1472.9863687514428,8.078894693985747e-07,0.0,0.0,0.0,8.078894693985747e-07,0.0,24.00583106635707,0.8691708011780938,4.993908004676909e-05,0.0
10654,6.8965517241379315,7.931034482758621,1.4285714285714286,0,314337.41381317616,406588.95976275846,92222.16563508612,92280.93450469799,61715.389780733654,2.0955827587545075e-06,0.0,0.0,0.0,2.0955827587545075e-06,0.0,23.914149211576632,1.1849373462889363,0.002172857586047808,0.0
10655,6.8965517241379315,7.931034482758621,1.7857142857142858,0,431807.8574878586,593488.223372282,352148.95996252866,94963.40017087037,48136.08770796824,2.8787190499190575e-06,0.0,0.0,0.0,2.8787190499190575e-06,0.0,24.37490978117794,1.50693474430913,0.0019012550474296502,0.0
10656,6.8965517241379315,7.931034482758621,2.142857142857143,0,531849.3526256536,975364.0551700208,382112.01451302785,541250.7769571588,446492.6619487469,3.545662350837691e-06,0.0,0.0,0.0,3.545662350837691e-06,0.0,24.446138884957232,1.8287229498559139,0.023934281747640927,0.0
10657,6.8965517241379315,7.931034482758621,2.5,0,545660.2846503226,690418.2633172567,285890.6871463051,69808.65377229462,727713.6746586196,3.637735231002151e-06,0.0,0.0,0.0,3.637735231002151e-06,0.0,23.261121172102502,2.140088867704627,0.07277136746586196,0.0
10658,6.8965517241379315,7.931034482758621,2.857142857142857,0,423632.5338696809,792774.4962198581,364053.37356055423,374420.8639486765,333978.4776107867,2.8242168924645394e-06,0.0,0.0,0.0,2.8242168924645394e-06,0.0,22.825318325272715,2.435865806998771,0.017902948160214864,0.0
10659,6.8965517241379315,7.931034482758621,3.2142857142857144,0,247403.20232649348,419106.2349164691,374899.6233760024,152579.77937623835,78430.60226927539,1.6493546821766233e-06,0.0,0.0,0.0,1.6493546821766233e-06,0.0,24.372585562941953,2.7212204585948445,0.003097812587970731,0.0
10660,6.8965517241379315,7.931034482758621,3.5714285714285716,0,145935.31861570754,368253.13072642207,206458.4136948422,246563.9914825084,25474.786686502222,9.72902124104717e-07,0.0,0.0,0.0,9.72902124104717e-07,0.0,23.943556695412234,3.006365917717508,0.0008969089185270967,0.0
10661,6.8965517241379315,7.931034482758621,3.928571428571429,0,234000.2063794581,305664.414613893,281511.86945540307,60524.65817798656,26348.14121730794,1.560001375863054e-06,0.0,0.0,0.0,1.560001375863054e-06,0.0,24.382384183459276,3.297742229749523,0.0008932886014756805,0.0
10662,6.8965517241379315,7.931034482758621,4.285714285714286,0,202231.45965299202,307838.231571893,204230.30763897544,74797.92709347325,3848.644506400692,1.3482097310199469e-06,0.0,0.0,0.0,1.3482097310199469e-06,0.0,23.919091553770716,3.595540256752758,0.00012895515712925662,0.0
10663,6.8965517241379315,7.931034482758621,4.642857142857143,0,86163.65022503574,260209.92619298975,196710.48137094072,162127.40645989412,36202.2799400733,5.744243348335716e-07,0.0,0.0,0.0,5.744243348335716e-07,0.0,24.324506686887602,3.8970881968138937,0.0012086505014669438,0.0
10664,6.8965517241379315,7.931034482758621,5.0,0,38503.32740453794,217572.67237877927,196947.63595195542,173150.59354792192,15496.710047987744,2.5668884936358626e-07,0.0,0.0,0.0,2.5668884936358626e-07,0.0,24.00118464928537,4.200125651073883,0.0005168053306716221,0.0
10665,7.241379310344828,7.931034482758621,0.0,0,29813.695867068942,181843.8412236992,212882.30723670023,210259.4567432891,43374.53324933514,1.987579724471263e-07,0.0,0.0,0.0,1.987579724471263e-07,0.0,23.586000590992295,-0.04987818479782313,0.0014465128359009765,0.0
10666,7.241379310344828,7.931034482758621,0.35714285714285715,0,135020.72446329874,304774.0908711782,192894.36306325998,154798.11202294016,-45469.56353573514,9.001381630886583e-07,0.0,0.0,0.0,9.001381630886583e-07,0.0,23.752206084362903,0.25421091693544345,-0.0015180483345226038,0.0
10667,7.241379310344828,7.931034482758621,0.7142857142857143,0,130997.31119459194,286919.2374188307,166333.21364578334,147540.48918770876,6794.700660298245,8.733154079639462e-07,0.0,0.0,0.0,8.733154079639462e-07,0.0,23.871006265787717,0.559744061028809,0.0002276676086444964,0.0
10668,7.241379310344828,7.931034482758621,1.0714285714285714,0,88312.73190421208,279754.2638341904,290437.2127594029,197268.950993143,33055.550498926765,5.887515460280805e-07,0.0,0.0,0.0,5.887515460280805e-07,0.0,24.2655903469991,0.868912640961903,0.0011206918253800064,0.0
10669,7.241379310344828,7.931034482758621,1.4285714285714286,0,373428.1362047227,475359.7993710307,216224.45567542402,47320.64120476382,-38187.34684307491,2.4895209080314847e-06,0.0,0.0,0.0,2.4895209080314847e-06,0.0,23.878896350318602,1.1843068939701935,-0.0013444890581395554,0.0
10670,7.241379310344828,7.931034482758621,1.7857142857142858,0,286522.6584818794,445942.57059120823,335647.2417471332,120662.64384216415,79910.64127511962,1.9101510565458626e-06,0.0,0.0,0.0,1.9101510565458626e-06,0.0,23.433495876729438,1.5057417846223378,0.0031562704262422096,0.0
10671,7.241379310344828,7.931034482758621,2.142857142857143,0,790333.6686392784,1023931.1458254775,627013.2895080664,113805.53354623941,349476.1541637704,5.268891124261856e-06,0.0,0.0,0.0,5.268891124261856e-06,0.0,24.806526778772177,1.8269738690217785,0.018733702590610184,0.0
10672,7.241379310344828,7.931034482758621,2.5,0,1199178.5626115042,1243645.1362366308,716979.3190605533,-128739.87337763314,703875.0953920073,7.994523750743362e-06,0.0,0.0,0.0,7.994523750743362e-06,0.0,24.13458888120105,2.138101836967185,0.07038750953920073,0.0
10673,7.241379310344828,7.931034482758621,2.857142857142857,0,61197.544463834274,486543.35437260626,415927.8418801657,453521.7510030435,273825.590785065,4.0798362975889516e-07,0.0,0.0,0.0,4.0798362975889516e-07,0.0,24.66415190844199,2.4341167261646355,0.014678446922194416,0.0
10674,7.241379310344828,7.931034482758621,3.2142857142857144,0,155084.02675728602,548454.4805042727,458265.73097512167,369380.45262389514,68094.36054976661,1.0338935117152402e-06,0.0,0.0,0.0,1.0338935117152402e-06,0.0,23.442126791249464,2.720027498908052,0.0026895568971490626,0.0
10675,7.241379310344828,7.931034482758621,3.5714285714285716,0,137519.58318541563,345873.0867809997,303571.6015393472,192172.07437827848,-16169.18472593881,9.167972212361042e-07,0.0,0.0,0.0,9.167972212361042e-07,0.0,23.866316555542202,3.005735465398765,-0.0005692799772761451,0.0
10676,7.241379310344828,7.931034482758621,3.928571428571429,0,94832.95850709999,135100.21477536784,237954.28057631213,153983.87845305336,-4347.954518887144,6.322197233806666e-07,0.0,0.0,0.0,6.322197233806666e-07,0.0,24.093285711615543,3.2974840695333323,-0.00014740995121527586,0.0
10677,7.241379310344828,7.931034482758621,4.285714285714286,0,81474.3644391252,223265.71838795478,192703.97071778774,130929.30130471701,50852.81820645326,5.43162429594168e-07,0.0,0.0,0.0,5.43162429594168e-07,0.0,24.33155004920933,3.595458346743095,0.0017039072201582963,0.0
10678,7.241379310344828,7.931034482758621,4.642857142857143,0,208110.2161319369,361494.3574929851,193629.74426787524,128646.08203031086,-914.1279015572135,1.3874014408795793e-06,0.0,0.0,0.0,1.3874014408795793e-06,0.0,23.063596153347344,3.897068059792587,-3.051910400259211e-05,0.0
10679,7.241379310344828,7.931034482758621,5.0,0,221501.55943370445,439294.68602490914,206417.13590388565,231264.55864997016,-22193.575771981526,1.476677062891363e-06,0.0,0.0,0.0,1.476677062891363e-06,0.0,23.083189864788583,4.200121815202177,-0.0007401415029452634,0.0
10680,7.586206896551724,7.931034482758621,0.0,0,203403.71952458954,376026.6793133742,144492.3274966789,226098.76478515833,-5820.316462403185,1.3560247968305969e-06,0.0,0.0,0.0,1.3560247968305969e-06,0.0,23.552496456684626,-0.049882413935357584,-0.00019410381717481707,0.0
10681,7.586206896551724,7.931034482758621,0.35714285714285715,0,215760.90118551705,339206.0442118211,220507.53234592365,90157.64768777082,-16532.069338591413,1.438406007903447e-06,0.0,0.0,0.0,1.438406007903447e-06,0.0,24.16132070792116,0.2541887154023444,-0.0005519402073419341,0.0
10682,7.586206896551724,7.931034482758621,0.7142857142857143,0,105877.74395494408,318238.651653973,280745.11865815945,198716.03039607135,-14101.929033423745,7.058516263662938e-07,0.0,0.0,0.0,7.058516263662938e-07,0.0,23.556223689803453,0.5596537533431323,-0.00047250830033961425,0.0
10683,7.586206896551724,7.931034482758621,1.0714285714285714,0,200609.59568950385,440083.9206718734,288204.06118583994,212672.57087020908,-17533.064622924892,1.3373973045966924e-06,0.0,0.0,0.0,1.3373973045966924e-06,0.0,23.833897357862458,0.8686280133351466,-0.0005944285271367443,0.0
10684,7.586206896551724,7.931034482758621,1.4285714285714286,0,327758.7909094909,547054.4292529364,238708.2756761081,202834.4840366719,-14320.846409143762,2.1850586060632725e-06,0.0,0.0,0.0,2.1850586060632725e-06,0.0,23.92803939595633,1.18361180566451,-0.0005042042166352437,0.0
10685,7.586206896551724,7.931034482758621,1.7857142857142858,0,230777.6938924234,483804.8831814654,500350.5685932322,261745.30476735922,-7312.918600315206,1.5385179592828228e-06,0.0,0.0,0.0,1.5385179592828228e-06,0.0,23.492684789181954,1.504426518895193,-0.00028884199074595535,0.0
10686,7.586206896551724,7.931034482758621,2.142857142857143,0,452536.85653550347,487275.21450128424,878050.500218511,382228.81538479164,311922.6848920584,3.0169123769033563e-06,0.0,0.0,0.0,3.0169123769033563e-06,0.0,24.643684858144866,1.8250454668296399,0.016720645286985993,0.0
10687,7.586206896551724,7.931034482758621,2.5,0,484774.0884000881,554570.7083035521,608460.4087661715,98993.18400475442,457845.82923440577,3.2318272560005873e-06,0.0,0.0,0.0,3.2318272560005873e-06,0.0,23.518785607463432,2.135911089487053,0.04578458292344058,0.0
10688,7.586206896551724,7.931034482758621,2.857142857142857,0,839396.9180398714,1026827.3720883311,680804.0259557203,69731.47589084451,398996.0318804042,5.595979453599142e-06,0.0,0.0,0.0,5.595979453599142e-06,0.0,22.888494647525555,2.432188323972497,0.021388220360746998,0.0
10689,7.586206896551724,7.931034482758621,3.2142857142857144,0,354427.14237567113,542980.2497561827,135630.46544851447,305126.2094128985,40637.754203047545,2.3628476158378076e-06,0.0,0.0,0.0,2.3628476158378076e-06,0.0,23.43461295046045,2.7187122331809075,0.0016050896317849252,0.0
10690,7.586206896551724,7.931034482758621,3.5714285714285716,0,290424.707853659,396673.27364050015,171568.9315135619,68847.93356012374,20444.219678174682,1.9361647190243935e-06,0.0,0.0,0.0,1.9361647190243935e-06,0.0,23.513742556701448,3.0050403770930814,0.0007197941708928092,0.0
10691,7.586206896551724,7.931034482758621,3.928571428571429,0,184988.492487133,211350.31227268843,236491.74623669116,40218.35214753024,13732.817157470965,1.2332566165808866e-06,0.0,0.0,0.0,1.2332566165808866e-06,0.0,24.022082116118675,3.2971994419065758,0.00046558764550950956,0.0
10692,7.586206896551724,7.931034482758621,4.285714285714286,0,240681.68636150673,271458.05621507094,159370.73313954752,-4824.108210222018,-58687.14856225915,1.6045445757433782e-06,0.0,0.0,0.0,1.6045445757433782e-06,0.0,24.052507544800548,3.595368039057418,-0.001966409329759549,0.0
10693,7.586206896551724,7.931034482758621,4.642857142857143,0,233807.7670615368,299757.9850364927,352941.496878615,97123.41723053076,-8490.170860690248,1.5587184470769122e-06,0.0,0.0,0.0,1.5587184470769122e-06,0.0,24.238121877376635,3.897045858259488,-0.0002834531218834756,0.0
10694,7.586206896551724,7.931034482758621,5.0,0,157540.30139717463,331762.31641890167,261053.0430065435,151255.7057184468,54735.905082677506,1.0502686759811641e-06,0.0,0.0,0.0,1.0502686759811641e-06,0.0,24.88918258952495,4.200117586064643,0.001825407292145655,0.0
10695,7.931034482758621,7.931034482758621,0.0,0,136059.17751786008,300701.2898604819,291841.3989515048,160428.6908076212,-25351.696679970726,9.070611834524005e-07,0.0,0.0,0.0,9.070611834524005e-07,0.0,23.829868964220534,-0.049886974009061495,-0.0008454628076028449,0.0
10696,7.931034482758621,7.931034482758621,0.35714285714285715,0,63090.44873647149,259011.3737890031,226872.48154019663,186322.8193571208,74234.87239720645,4.206029915764766e-07,0.0,0.0,0.0,4.206029915764766e-07,0.0,24.242670243336406,0.25416477656695613,0.0024784078764580842,0.0
10697,7.931034482758621,7.931034482758621,0.7142857142857143,0,150520.97417629533,276412.0546597573,163718.27047811923,105471.76432061964,17849.87970497934,1.0034731611753023e-06,0.0,0.0,0.0,1.0034731611753023e-06,0.0,23.602647982055142,0.5595563789495683,0.0005980895451023736,0.0
10698,7.931034482758621,7.931034482758621,1.0714285714285714,0,252754.65581121013,419406.60414362873,201395.8678168557,142358.36892264592,17677.68304672806,1.6850310387414008e-06,0.0,0.0,0.0,1.6850310387414008e-06,0.0,23.97466627434848,0.8683211131821946,0.0005993315671076205,0.0
10699,7.931034482758621,7.931034482758621,1.4285714285714286,0,164694.07133053828,411750.4808660521,294743.8417322729,223415.64767326496,14329.972489862488,1.097960475536922e-06,0.0,0.0,0.0,1.097960475536922e-06,0.0,23.660310461972713,1.182862325686897,0.0005045255250445565,0.0
10700,7.931034482758621,7.931034482758621,1.7857142857142858,0,333915.6225530085,631139.8902093158,321868.37631613057,277097.53606587456,118050.28671077764,2.22610415035339e-06,0.0,0.0,0.0,2.22610415035339e-06,0.0,23.764703565881447,1.5030083317099465,0.004662691010973663,0.0
10701,7.931034482758621,7.931034482758621,2.142857142857143,0,453489.37458696583,683328.049928126,695002.3866962526,235788.55894489717,405973.08155136084,3.023262497246439e-06,0.0,0.0,0.0,3.023262497246439e-06,0.0,23.927267191804685,1.822966164358321,0.021762225774101654,0.0
10702,7.931034482758621,7.931034482758621,2.5,0,401955.16046463413,401148.9547528746,825639.7729488269,450840.9573204185,563776.5541829722,2.6797010697642273e-06,0.0,0.0,0.0,2.6797010697642273e-06,0.0,24.340776335749847,2.1335489128269955,0.05637765541829722,0.0
10703,7.931034482758621,7.931034482758621,2.857142857142857,0,677026.1228171528,745938.6184755942,583998.621112397,2627.356609123358,278361.64781594154,4.513507485447685e-06,0.0,0.0,0.0,4.513507485447685e-06,0.0,23.826644982684527,2.430109021501178,0.014921602692160526,0.0
10704,7.931034482758621,7.931034482758621,3.2142857142857144,0,260169.37620978538,464843.0712475112,188298.10422273018,224932.67538281035,-20886.440448574955,1.7344625080652358e-06,0.0,0.0,0.0,1.7344625080652358e-06,0.0,23.82999943839612,2.717294045995661,-0.0008249621482868962,0.0
10705,7.931034482758621,7.931034482758621,3.5714285714285716,0,306335.5071592943,419933.0446352108,409395.3059625025,108464.63252602465,36876.66479481201,2.0422367143952956e-06,0.0,0.0,0.0,2.0422367143952956e-06,0.0,24.01978112792187,3.0042908971154687,0.0012983429438302556,0.0
10706,7.931034482758621,7.931034482758621,3.928571428571429,0,330135.5979769454,559746.5024886227,222077.14553232482,237699.33404592957,2435.332924395679,2.2009039865129693e-06,0.0,0.0,0.0,2.2009039865129693e-06,0.0,24.307062471125512,3.296892541753624,8.25657918036378e-05,0.0
10707,7.931034482758621,7.931034482758621,4.285714285714286,0,324546.6500920766,373440.29374818044,407151.2732720075,67064.89779425321,-27659.868265201807,2.1636443339471773e-06,0.0,0.0,0.0,2.1636443339471773e-06,0.0,23.168479439414643,3.5952706646638544,-0.0009267893286536452,0.0
10708,7.931034482758621,7.931034482758621,4.642857142857143,0,322079.930715719,505643.8578416414,271421.2749378979,138351.99557487483,-18970.080771990553,2.1471995381047934e-06,0.0,0.0,0.0,2.1471995381047934e-06,0.0,23.99919202256861,3.897021919424099,-0.0006333357367516226,0.0
10709,7.931034482758621,7.931034482758621,5.0,0,226981.14741609892,363918.2277437604,215003.92064607426,102675.53369849442,-2234.159204499936,1.5132076494406594e-06,0.0,0.0,0.0,1.5132076494406594e-06,0.0,23.2164259764648,4.200113025990938,-7.450777506187943e-05,0.0
10710,8.275862068965518,7.931034482758621,0.0,0,185270.20516944223,295310.826987347,266774.4151584347,97428.0687534321,-33160.74765936972,1.235134701129615e-06,0.0,0.0,0.0,1.235134701129615e-06,0.0,24.39868921589043,-0.049891811683883444,-0.001105889644082495,0.0
10711,8.275862068965518,7.931034482758621,0.35714285714285715,0,236962.6034468941,361457.4420836798,100079.21994936837,160680.21378000596,1641.832628931231,1.5797506896459605e-06,0.0,0.0,0.0,1.5797506896459605e-06,0.0,23.91819187142599,0.25413938042015144,5.481427781806455e-05,0.0
10712,8.275862068965518,7.931034482758621,0.7142857142857143,0,306171.56138765335,459756.05827252177,306891.65333957976,107252.52393523384,-54920.14282631042,2.0411437425843556e-06,0.0,0.0,0.0,2.0411437425843556e-06,0.0,24.36684662512794,0.5594530767481931,-0.0018401896137587113,0.0
10713,8.275862068965518,7.931034482758621,1.0714285714285714,0,187140.3488115936,477085.15859090444,423811.5665017184,269084.2165781483,-18372.275460499197,1.247602325410624e-06,0.0,0.0,0.0,1.247602325410624e-06,0.0,22.92587025329548,0.8679955300361334,-0.0006228805332671631,0.0
10714,8.275862068965518,7.931034482758621,1.4285714285714286,0,316269.6530660104,359193.68688140943,114525.89090051298,2062.545172295712,-42058.40781809931,2.1084643537734025e-06,0.0,0.0,0.0,2.1084643537734025e-06,0.0,23.67858316813969,1.1820672200257434,-0.001480780252856456,0.0
10715,8.275862068965518,7.931034482758621,1.7857142857142858,0,277355.74493190786,610886.4558349642,373588.3680674642,305975.70788097475,72896.94883281263,1.8490382995460524e-06,0.0,0.0,0.0,1.8490382995460524e-06,0.0,24.20293666698213,1.5015038103174514,0.002879247120194677,0.0
10716,8.275862068965518,7.931034482758621,2.142857142857143,0,271343.1058912424,615213.1127826343,584877.2310739442,329976.8808879984,240674.0882578513,1.8089540392749492e-06,0.0,0.0,0.0,1.8089540392749492e-06,0.0,24.47456139067303,1.8207602813253114,0.012901357465940271,0.0
10717,8.275862068965518,7.931034482758621,2.5,0,687464.4292860506,1180798.7034766048,886962.7828833198,395247.29560583323,528196.2498595349,4.583096195240337e-06,0.0,0.0,0.0,4.583096195240337e-06,0.0,23.952450085401317,2.1310429352276485,0.052819624985953495,0.0
10718,8.275862068965518,7.931034482758621,2.857142857142857,0,666019.1420089742,1129098.593401338,965871.60912476,396640.1034138296,519584.49497284484,4.4401276133931615e-06,0.0,0.0,0.0,4.4401276133931615e-06,0.0,23.568148626034848,2.4279031384681686,0.0278523764312465,0.0
10719,8.275862068965518,7.931034482758621,3.2142857142857144,0,206258.8818137751,586072.25731787,451535.72303958575,348605.0858480599,111542.24211818956,1.375059212091834e-06,0.0,0.0,0.0,1.375059212091834e-06,0.0,23.651735555086198,2.715789524603166,0.004405639530063486,0.0
10720,8.275862068965518,7.931034482758621,3.5714285714285716,0,239383.72638647337,351721.34573959117,458000.1176408556,183878.4123951196,29481.90952488387,1.595891509243156e-06,0.0,0.0,0.0,1.595891509243156e-06,0.0,23.270360855989797,3.003495791454315,0.0010379905399595698,0.0
10721,8.275862068965518,7.931034482758621,3.928571428571429,0,147085.3927631761,374436.70643501147,256401.31935754768,209660.56967587874,45545.64572259614,9.805692850878405e-07,0.0,0.0,0.0,9.805692850878405e-07,0.0,24.527557416500656,3.2965669586075625,0.001544147112135512,0.0
10722,8.275862068965518,7.931034482758621,4.285714285714286,0,198507.80328415448,367326.7013971596,267923.29554827535,138754.7378256997,17378.570892594315,1.3233853552276965e-06,0.0,0.0,0.0,1.3233853552276965e-06,0.0,24.126552378514607,3.595167362462479,0.0005822975690296461,0.0
10723,8.275862068965518,7.931034482758621,4.642857142857143,0,246943.64726174684,343426.71528326784,258744.5680195237,65283.04333230342,-47457.468381056475,1.6462909817449788e-06,0.0,0.0,0.0,1.6462909817449788e-06,0.0,23.715992332851915,3.8969965232772945,-0.0015844165906695488,0.0
10724,8.275862068965518,7.931034482758621,5.0,0,207082.2105423265,349952.1360858346,318974.6785386164,129126.27047129952,-44481.20242493823,1.3805480702821766e-06,0.0,0.0,0.0,1.3805480702821766e-06,0.0,24.082340075248464,4.200108188316117,-0.0014834195423871004,0.0
10725,8.620689655172415,7.931034482758621,0.0,0,120598.58806712134,339946.9617563729,216785.63360934416,222085.88474391363,-95439.1344817112,8.039905871141422e-07,0.0,0.0,0.0,8.039905871141422e-07,0.0,23.61381227489047,-0.049896882170131655,-0.003182833859709393,0.0
10726,8.620689655172415,7.931034482758621,0.35714285714285715,0,271401.43328649004,422426.84045986226,304231.8118696845,111970.63941934501,7113.659169851886,1.8093428885766002e-06,0.0,0.0,0.0,1.8093428885766002e-06,0.0,23.523101801716127,0.25411276209257255,0.00023749685757744562,0.0
10727,8.620689655172415,7.931034482758621,0.7142857142857143,0,304285.30116266414,405418.70690683654,160380.23498798715,64824.58710378887,-37459.20413544413,2.028568674417761e-06,0.0,0.0,0.0,2.028568674417761e-06,0.0,23.300800801727398,0.5593448031641346,-0.001255132176325816,0.0
10728,8.620689655172415,7.931034482758621,1.0714285714285714,0,88439.37023382305,292492.1766847218,234137.80039749714,190736.77360403643,-20534.411132315723,5.895958015588203e-07,0.0,0.0,0.0,5.895958015588203e-07,0.0,23.314284156571734,0.8676542783138678,-0.0006961840401274093,0.0
10729,8.620689655172415,7.931034482758621,1.4285714285714286,0,123748.45151285015,337580.7678200712,242286.56176508666,197722.2773662375,-8215.415567917804,8.249896767523343e-07,0.0,0.0,0.0,8.249896767523343e-07,0.0,23.878319547537025,1.1812338501798707,-0.00028924597418419245,0.0
10730,8.620689655172415,7.931034482758621,1.7857142857142858,0,376257.32770246937,575243.7876213165,434916.8641167575,148989.2665111634,26962.92954878194,2.5083821846831293e-06,0.0,0.0,0.0,2.5083821846831293e-06,0.0,24.21648189380186,1.4999268843537292,0.001064968266825428,0.0
10731,8.620689655172415,7.931034482758621,2.142857142857143,0,625813.9906177998,1030294.2344286094,571808.9264354778,317329.9997486838,335579.2395671283,4.172093270785332e-06,0.0,0.0,0.0,4.172093270785332e-06,0.0,23.52924648087198,1.8184482409349,0.017988757157627645,0.0
10732,8.620689655172415,7.931034482758621,2.5,0,655933.297438989,1087848.9193180238,978827.7842199685,384235.6751718079,579738.1649654504,4.37288864959326e-06,0.0,0.0,0.0,4.37288864959326e-06,0.0,23.305764155805093,2.1284163583237716,0.05797381649654504,0.0
10733,8.620689655172415,7.931034482758621,2.857142857142857,0,379167.9170882317,782458.507295244,470772.1501662255,360331.6070469645,304320.5783672861,2.527786113921545e-06,0.0,0.0,0.0,2.527786113921545e-06,0.0,24.183145693233673,2.425591098077757,0.01631313364134026,0.0
10734,8.620689655172415,7.931034482758621,3.2142857142857144,0,381478.2558084014,637778.0617754015,214392.07590246815,320805.01432041085,-29979.11800575901,2.5431883720560094e-06,0.0,0.0,0.0,2.5431883720560094e-06,0.0,23.751171847403462,2.7142125986394436,-0.0011841001655916298,0.0
10735,8.620689655172415,7.931034482758621,3.5714285714285716,0,240348.22354570776,395103.2378790308,181315.00214918103,134950.47830272917,15545.06964348421,1.6023214903047183e-06,0.0,0.0,0.0,1.6023214903047183e-06,0.0,22.60025340457571,3.0026624216084423,0.0005473063140408254,0.0
10736,8.620689655172415,7.931034482758621,3.928571428571429,0,201225.65518070915,428190.30403858714,327244.896347048,196473.88912289558,79451.69380441347,1.3415043678713943e-06,0.0,0.0,0.0,1.3415043678713943e-06,0.0,23.368488944240905,3.296225706885297,0.002693673601415061,0.0
10737,8.620689655172415,7.931034482758621,4.285714285714286,0,244509.33543883535,376923.9757788647,178843.81321722595,103648.41585948851,9768.770013910787,1.6300622362589023e-06,0.0,0.0,0.0,1.6300622362589023e-06,0.0,23.96014073964666,3.59505908887842,0.00032731868843910363,0.0
10738,8.620689655172415,7.931034482758621,4.642857142857143,0,65143.3777890641,330047.88351425464,274610.82025504473,258298.58215864445,79929.3588808015,4.3428918526042734e-07,0.0,0.0,0.0,4.3428918526042734e-07,0.0,23.335725412191657,3.896969904949716,0.002668524188341947,0.0
10739,8.620689655172415,7.931034482758621,5.0,0,129131.9564779167,368497.8625616109,225768.84563998602,259765.14595196606,-20015.49324800832,8.60879709852778e-07,0.0,0.0,0.0,8.60879709852778e-07,0.0,23.76092100443723,4.200103117829869,-0.0006675038491757641,0.0
10740,8.965517241379311,7.931034482758621,0.0,0,334339.9425985418,467329.63852332055,320005.0723203387,84628.84429154405,-9353.004807538022,2.2289329506569455e-06,0.0,0.0,0.0,2.2289329506569455e-06,0.0,22.968976828321345,-0.04990214827301091,-0.00031191670537583654,0.0
10741,8.965517241379311,7.931034482758621,0.35714285714285715,0,239485.0660117729,327923.5566030136,241979.553822675,57326.16530162836,-734.9512936486292,1.5965671067451527e-06,0.0,0.0,0.0,1.5965671067451527e-06,0.0,23.39011007820493,0.25408511684423896,-2.453710791399389e-05,0.0
10742,8.965517241379311,7.931034482758621,0.7142857142857143,0,219137.06539129163,401166.16426114895,465149.7724809386,221142.33961295063,-6298.72334985405,1.4609137692752776e-06,0.0,0.0,0.0,1.4609137692752776e-06,0.0,23.057116199316187,0.5592323524434646,-0.00021104907401639367,0.0
10743,8.965517241379311,7.931034482758621,1.0714285714285714,0,224462.69814427022,377111.1902639292,412957.4916964401,172728.72957234606,44803.91150925244,1.496417987628468e-06,0.0,0.0,0.0,1.496417987628468e-06,0.0,22.98946575738298,0.8672998612837834,0.0015189998840012856,0.0
10744,8.965517241379311,7.931034482758621,1.4285714285714286,0,232640.82747348357,482466.41430473106,283132.2543207633,226846.86044598994,-91796.53916127638,1.5509388498232237e-06,0.0,0.0,0.0,1.5509388498232237e-06,0.0,23.230717114244783,1.180368329373777,-0.003231945989455321,0.0
10745,8.965517241379311,7.931034482758621,1.7857142857142858,0,331888.89179628884,553389.8772513535,388144.764091526,171316.5301726241,38120.22305592499,2.212592611975259e-06,0.0,0.0,0.0,2.212592611975259e-06,0.0,24.051089770075397,1.4982891214348637,0.0015056534493189419,0.0
10746,8.965517241379311,7.931034482758621,2.142857142857143,0,795322.0694710437,964223.3340965805,1251394.1046712957,352370.4984926817,512739.1861339826,5.302147129806958e-06,0.0,0.0,0.0,5.302147129806958e-06,0.0,23.827977178935168,1.8160470032703258,0.027485432997766842,0.0
10747,8.965517241379311,7.931034482758621,2.5,0,915414.1028556932,1355973.3253903016,537509.5777056848,367456.7201752142,585358.7578401638,6.102760685704621e-06,0.0,0.0,0.0,6.102760685704621e-06,0.0,24.650154124029545,2.125688449496293,0.05853587578401638,0.0
10748,8.965517241379311,7.931034482758621,2.857142857142857,0,291591.938440161,766609.692493708,650001.6924440474,434759.0066790396,443418.81555990316,1.94394625626774e-06,0.0,0.0,0.0,1.94394625626774e-06,0.0,23.330096403095453,2.4231898604131827,0.02376950791866364,0.0
10749,8.965517241379311,7.931034482758621,3.2142857142857144,0,362327.24919525156,467449.18103926274,448582.8344229739,96057.3343533231,105540.0356511124,2.4155149946350104e-06,0.0,0.0,0.0,2.4155149946350104e-06,0.0,24.143306562037157,2.7125748357205786,0.00416856738970846,0.0
10750,8.965517241379311,7.931034482758621,3.5714285714285716,0,152217.45609528682,329694.769750703,310947.03636367695,168971.81713409195,2360.695738336301,1.0147830406352454e-06,0.0,0.0,0.0,1.0147830406352454e-06,0.0,24.56755163763812,3.001796900802349,8.311469248787082e-05,0.0
10751,8.965517241379311,7.931034482758621,3.928571428571429,0,208308.41066345686,292945.40888123837,134739.05584348796,56933.162047717546,12355.062376783853,1.388722737756379e-06,0.0,0.0,0.0,1.388722737756379e-06,0.0,24.202161716633064,3.2958712898552127,0.0004188772293527918,0.0
10752,8.965517241379311,7.931034482758621,4.285714285714286,0,266518.74720628833,415472.3109074066,296761.6978484811,110224.57795372485,-3168.893466029206,1.7767916480419223e-06,0.0,0.0,0.0,1.7767916480419223e-06,0.0,24.215769910519022,3.5949466381577504,-0.00010617898175787655,0.0
10753,8.965517241379311,7.931034482758621,4.642857142857143,0,109627.91300358533,266028.1861570846,187237.59174142993,140828.97887959593,-78692.35992884215,7.308527533572355e-07,0.0,0.0,0.0,7.308527533572355e-07,0.0,23.71305194657042,3.8969422597013823,-0.0026272257008965534,0.0
10754,8.965517241379311,7.931034482758621,5.0,0,171720.70276520576,347967.7190303744,365275.76534813753,185556.48152049026,17019.570557159735,1.1448046851013718e-06,0.0,0.0,0.0,1.1448046851013718e-06,0.0,23.773133141933407,4.200097851726989,0.0005675917509229051,0.0
10755,9.310344827586208,7.931034482758621,0.0,0,261255.17145678683,440143.16935657995,160132.0216757648,202928.6324841061,-24132.87658955402,1.7417011430452455e-06,0.0,0.0,0.0,1.7417011430452455e-06,0.0,23.050167181826584,-0.04990757928494666,-0.0008048159401124892,0.0
10756,9.310344827586208,7.931034482758621,0.35714285714285715,0,184926.89037973364,424431.2266615084,278907.80514858715,216336.01994452247,-53940.82362670723,1.2328459358648909e-06,0.0,0.0,0.0,1.2328459358648909e-06,0.0,22.179425322284125,0.2540566058794688,-0.0018008701008301099,0.0
10757,9.310344827586208,7.931034482758621,0.7142857142857143,0,296566.08978262317,362726.43129738193,100921.64444735865,40656.21684653629,15215.887817774359,1.9771072652174877e-06,0.0,0.0,0.0,1.9771072652174877e-06,0.0,23.62238074768321,0.5591163803061661,0.0005098333195333962,0.0
10758,9.310344827586208,7.931034482758621,1.0714285714285714,0,269692.14633598673,420388.57557355554,108975.15474933152,264343.05366905977,13256.872146800986,1.7979476422399115e-06,0.0,0.0,0.0,1.7979476422399115e-06,0.0,23.04516208515832,0.8669343456140839,0.00044945154507440826,0.0
10759,9.310344827586208,7.931034482758621,1.4285714285714286,0,310479.1140637967,480651.154027873,250402.8119705691,127542.62215856163,52096.58374468598,2.069860760425311e-06,0.0,0.0,0.0,2.069860760425311e-06,0.0,23.317115223115305,1.179475704611917,0.0018342014463328272,0.0
10760,9.310344827586208,7.931034482758621,1.7857142857142858,0,392929.70330972486,643848.3040822166,377725.8588826106,192545.21612870906,53398.50444161585,2.6195313553981656e-06,0.0,0.0,0.0,2.6195313553981656e-06,0.0,23.121353386282458,1.4966000716452545,0.002109107343969104,0.0
10761,9.310344827586208,7.931034482758621,2.142857142857143,0,521963.388271313,956601.9409201716,991868.7799828397,453166.29953676916,462441.44516423455,3.479755921808753e-06,0.0,0.0,0.0,3.479755921808753e-06,0.0,23.701162774252232,1.8135705703718683,0.02478921779372391,0.0
10762,9.310344827586208,7.931034482758621,2.5,0,1157793.2687544257,1700482.1512693209,813035.8419646865,390840.67526720976,680529.7041029063,7.718621791696171e-06,0.0,0.0,0.0,7.718621791696171e-06,0.0,23.444058603556723,2.122875115662652,0.06805297041029063,0.0
10763,9.310344827586208,7.931034482758621,2.857142857142857,0,612839.3842912742,1160368.824136346,957249.4315341971,471758.02682258404,411158.09170371736,4.0855958952751616e-06,0.0,0.0,0.0,4.0855958952751616e-06,0.0,24.17729008244646,2.4207134275147255,0.022040168738067155,0.0
10764,9.310344827586208,7.931034482758621,3.2142857142857144,0,630028.7845865418,1008510.7648524845,420654.4113078501,343429.048280936,99839.1984778374,4.200191897243612e-06,0.0,0.0,0.0,4.200191897243612e-06,0.0,23.19173709277699,2.710885785930969,0.003943398582554457,0.0
10765,9.310344827586208,7.931034482758621,3.5714285714285716,0,290522.4402525946,423796.41209525487,386437.91281921376,116401.82654796202,-56700.533006856575,1.9368162683506305e-06,0.0,0.0,0.0,1.9368162683506305e-06,0.0,23.64835356491825,3.000904276040489,-0.001996295959802295,0.0
10766,9.310344827586208,7.931034482758621,3.928571428571429,0,222542.6570804997,398045.51135873154,224695.74582244313,147091.5115006959,15528.632737991355,1.483617713869998e-06,0.0,0.0,0.0,1.483617713869998e-06,0.0,23.467249362946895,3.295505774185513,0.0005264716970712766,0.0
10767,9.310344827586208,7.931034482758621,4.285714285714286,0,124096.06659996524,288319.8475896873,212751.41465523353,145098.95484965568,4089.3128862908025,8.273071106664349e-07,0.0,0.0,0.0,8.273071106664349e-07,0.0,23.42042480450503,3.594830666020452,0.00013701914659182133,0.0
10768,9.310344827586208,7.931034482758621,4.642857142857143,0,170422.7173602311,328348.2830562535,131572.54819272293,231800.31212520617,-10623.29043014275,1.1361514490682073e-06,0.0,0.0,0.0,1.1361514490682073e-06,0.0,23.533768021178805,3.896913748736612,-0.00035466952155707303,0.0
10769,9.310344827586208,7.931034482758621,5.0,0,365363.1697510536,540703.7202740792,300497.3273147398,120240.8853663498,4478.611378247898,2.435754465007024e-06,0.0,0.0,0.0,2.435754465007024e-06,0.0,24.337254043927917,4.200092420715054,0.00014935881403973497,0.0
10770,9.655172413793103,7.931034482758621,0.0,0,225621.9858225779,374079.05045689875,314275.8749398612,124580.18212532198,106493.0999617272,1.5041465721505193e-06,0.0,0.0,0.0,1.5041465721505193e-06,0.0,23.849813951318897,-0.049913149907751274,0.003551476511436246,0.0
10771,9.655172413793103,7.931034482758621,0.35714285714285715,0,430759.3762724052,578135.4107134657,357387.70192640927,81747.98525599121,-80188.61373029434,2.871729175149368e-06,0.0,0.0,0.0,2.871729175149368e-06,0.0,23.204852187741295,0.2540273620051394,-0.002677179679221691,0.0
10772,9.655172413793103,7.931034482758621,0.7142857142857143,0,221751.71307382415,314885.14764221286,311388.1812668433,91405.63218614491,-5507.457338834661,1.4783447538254943e-06,0.0,0.0,0.0,1.4783447538254943e-06,0.0,23.13236233371214,0.5589974269618576,-0.00018453640634538744,0.0
10773,9.655172413793103,7.931034482758621,1.0714285714285714,0,372187.1382287081,340811.72515764605,477227.3170557682,56079.9291392017,35331.231765167155,2.4812475881913874e-06,0.0,0.0,0.0,2.4812475881913874e-06,0.0,23.051301967343417,0.8665594339126985,0.0011978449011495005,0.0
10774,9.655172413793103,7.931034482758621,1.4285714285714286,0,300464.19172184466,467536.6761947808,368912.4368241154,130155.6844259137,-56218.56683363948,2.0030946114789645e-06,0.0,0.0,0.0,2.0030946114789645e-06,0.0,23.50503314765305,1.1785601338282001,-0.0019793270342326127,0.0
10775,9.655172413793103,7.931034482758621,1.7857142857142858,0,170315.73181210773,709628.5152354784,645738.8242929395,516605.95856199466,102385.9757149446,1.135438212080718e-06,0.0,0.0,0.0,1.135438212080718e-06,0.0,22.693858287511272,1.4948676027448986,0.004043989912412938,0.0
10776,9.655172413793103,7.931034482758621,2.142857142857143,0,643034.0913219446,1261572.8123221346,676440.7542830213,573142.919590035,433858.5734901251,4.286893942146298e-06,0.0,0.0,0.0,4.286893942146298e-06,0.0,23.348917182114153,1.811030477707467,0.02325703023028456,0.0
10777,9.655172413793103,7.931034482758621,2.5,0,647949.4888690439,1366024.6347849295,649466.6815842653,821340.012067557,523899.7156441657,4.319663259126959e-06,0.0,0.0,0.0,4.319663259126959e-06,0.0,23.65244788193622,2.1199894616084696,0.052389971564416576,0.0
10778,9.655172413793103,7.931034482758621,2.857142857142857,0,716889.4781978847,976290.195648715,898337.1837440531,223609.95571282192,339435.1645070432,4.779263187985899e-06,0.0,0.0,0.0,4.779263187985899e-06,0.0,23.103422330120445,2.418173334850324,0.01819545438196024,0.0
10779,9.655172413793103,7.931034482758621,3.2142857142857144,0,614793.9425273717,699627.8194064525,490339.389351676,7514.15278838414,203906.13379438317,4.0986262835158115e-06,0.0,0.0,0.0,4.0986262835158115e-06,0.0,23.491209434613626,2.709153317030613,0.008053782194149152,0.0
10780,9.655172413793103,7.931034482758621,3.5714285714285716,0,221872.9157071315,469761.40430852777,434747.69899861363,232463.46663250632,-73509.53645972401,1.4791527713808767e-06,0.0,0.0,0.0,1.4791527713808767e-06,0.0,23.608319083168627,2.9999887052567717,-0.0025881024896845504,0.0
10781,9.655172413793103,7.931034482758621,3.928571428571429,0,20041.778922753467,352799.43838044495,332729.16419158824,332786.2767883212,-18675.80299399651,1.3361185948502312e-07,0.0,0.0,0.0,1.3361185948502312e-07,0.0,22.599256245991953,3.2951308624841276,-0.0006331711144383717,0.0
10782,9.655172413793103,7.931034482758621,4.285714285714286,0,188756.86812487344,344675.07587058184,226902.34124450153,126960.68049469628,-6916.295859363067,1.2583791208324896e-06,0.0,0.0,0.0,1.2583791208324896e-06,0.0,23.588302953043183,3.5947117126761436,-0.00023174185555804985,0.0
10783,9.655172413793103,7.931034482758621,4.642857142857143,0,287262.43499419076,503655.36218829255,382205.4044251327,175615.70473801397,177.52987849713745,1.915082899961272e-06,0.0,0.0,0.0,1.915082899961272e-06,0.0,23.260391778593107,3.8968845048622827,5.927018326639025e-06,0.0
10784,9.655172413793103,7.931034482758621,5.0,0,210033.07393906979,264967.873531344,219604.80038714642,35960.05204992884,-17251.31101580746,1.400220492927132e-06,0.0,0.0,0.0,1.400220492927132e-06,0.0,24.41829851872626,4.200086850092249,-0.0005753201464333432,0.0
10785,10.0,7.931034482758621,0.0,0,356899.1574385715,593515.0731920826,370003.1131826645,181911.11273740706,3690.5381464741536,2.3793277162571435e-06,0.0,0.0,0.0,2.3793277162571435e-06,0.0,23.443120816879897,-0.04991883929012872,0.0001230770777306034,0.0
10786,10.0,7.931034482758621,0.35714285714285715,0,255340.7922930944,417772.46554486395,428950.6090632239,168204.31706625136,-1595.9139235277723,1.7022719486206292e-06,0.0,0.0,0.0,1.7022719486206292e-06,0.0,22.889347968717395,0.25399749468346045,-5.3281234418464485e-05,0.0
10787,10.0,7.931034482758621,0.7142857142857143,0,349696.09396479145,380452.151670321,280370.19752232934,-8373.506247823534,31965.342544359228,2.3313072930986096e-06,0.0,0.0,0.0,2.3313072930986096e-06,0.0,22.445009662924363,0.5588759376626208,0.001071051317845253,0.0
10788,10.0,7.931034482758621,1.0714285714285714,0,402206.8981852078,532178.2801491158,431693.9082715693,89256.12629238606,39448.89575469925,2.6813793212347185e-06,0.0,0.0,0.0,2.6813793212347185e-06,0.0,23.333487558802315,0.8661765295047404,0.0013374472463858948,0.0
10789,10.0,7.931034482758621,1.4285714285714286,0,523236.73512256105,698768.7370755627,419960.1905961602,95170.50998763516,30450.663397766166,3.4882449008170735e-06,0.0,0.0,0.0,3.4882449008170735e-06,0.0,24.016042590887864,1.1776250440788345,0.0010720981460070101,0.0
10790,10.0,7.931034482758621,1.7857142857142858,0,779686.3244011718,944238.5740863323,671709.7221910539,64867.975965638005,99558.70017597798,5.1979088293411455e-06,0.0,0.0,0.0,5.1979088293411455e-06,0.0,23.065207296478583,1.4930981995063628,0.003932319601324385,0.0
10791,10.0,7.931034482758621,2.142857142857143,0,853341.4312494926,1258164.852031803,609031.3501284176,291600.5381432109,252475.095579203,5.6889428749966174e-06,0.0,0.0,0.0,5.6889428749966174e-06,0.0,23.529777581992548,1.808436233051387,0.013533951589441517,0.0
10792,10.0,7.931034482758621,2.5,0,848426.2269609366,1637791.6637901338,999406.339101156,675034.5559458317,791842.8179461714,5.6561748464062435e-06,0.0,0.0,0.0,5.6561748464062435e-06,0.0,23.747346001121226,2.1170422885725118,0.07918428179461715,0.0
10793,10.0,7.931034482758621,2.857142857142857,0,383314.8948762879,750872.1250473274,478380.46996225556,312564.164714585,558620.336180466,2.555432632508586e-06,0.0,0.0,0.0,2.555432632508586e-06,0.0,23.725868885498787,2.4155790901942438,0.02994489642394153,0.0
10794,10.0,7.931034482758621,3.2142857142857144,0,279549.76902349805,691192.2846599703,804348.9069804229,485960.05844658177,-43018.850071036024,1.8636651268233204e-06,0.0,0.0,0.0,1.8636651268233204e-06,0.0,23.384655616314504,2.707383913792077,-0.0016991369620310347,0.0
10795,10.0,7.931034482758621,3.5714285714285716,0,272667.01474903105,440563.0091456592,160113.621903827,176409.27603476337,-64189.64473230908,1.8177800983268736e-06,0.0,0.0,0.0,1.8177800983268736e-06,0.0,23.062289077131137,2.999053615507406,-0.002259970438457036,0.0
10796,10.0,7.931034482758621,3.928571428571429,0,330101.27988142835,577135.2711422236,291620.7252776128,215682.00360976355,69461.09912201224,2.2006751992095224e-06,0.0,0.0,0.0,2.2006751992095224e-06,0.0,23.26631304877485,3.2947479580761696,0.00235495959961329,0.0
10797,10.0,7.931034482758621,4.285714285714286,0,187597.59723648574,415462.8732277127,231132.81624430633,224760.13084800952,-67394.1078667882,1.2506506482432383e-06,0.0,0.0,0.0,1.2506506482432383e-06,0.0,22.865974432143336,3.5945902233769065,-0.0022581503059308323,0.0
10798,10.0,7.931034482758621,4.642857142857143,0,185428.17585667633,524381.9801049641,374505.63084082614,317018.6630339493,-4608.210375653685,1.2361878390445088e-06,0.0,0.0,0.0,1.2361878390445088e-06,0.0,22.934242521866423,3.8968546375406037,-0.00015384986223571318,0.0
10799,10.0,7.931034482758621,5.0,0,376443.28255811747,496514.49900556396,486477.1311749229,115152.90839688618,-24738.504272028393,2.509621883720783e-06,0.0,0.0,0.0,2.509621883720783e-06,0.0,23.90521625502377,4.200081160709871,-0.0008250132344888976,0.0
10800,0.0,8.275862068965518,0.0,0,152833.7174123015,371112.2993192672,372656.9544819346,219056.76390309457,64205.81015191871,1.0188914494153433e-06,0.0,0.0,0.0,1.0188914494153433e-06,0.0,23.45968793411656,-0.04992234871934774,0.002141222546195244,0.0
10801,0.0,8.275862068965518,0.35714285714285715,0,424237.026541454,395886.8505824739,579631.3235212322,94496.41251093274,13586.668552873713,2.8282468436096935e-06,0.0,0.0,0.0,2.8282468436096935e-06,0.0,23.440673309102056,0.25397907137413783,0.0004536049604300894,0.0
10802,0.0,8.275862068965518,0.7142857142857143,0,328064.1896045855,566410.7291411124,190974.30382048068,334969.17708679865,35610.28840613981,2.1870945973639035e-06,0.0,0.0,0.0,2.1870945973639035e-06,0.0,22.94293371359519,0.5588009984041468,0.0011931812172297851,0.0
10803,0.0,8.275862068965518,1.0714285714285714,0,264631.19966295525,391688.26855282893,203869.53310256018,89037.99971952323,2878.7219020768616,1.764207997753035e-06,0.0,0.0,0.0,1.764207997753035e-06,0.0,23.904975563380663,0.8659403393828203,9.759813569901575e-05,0.0
10804,0.0,8.275862068965518,1.4285714285714286,0,284097.0711856954,552193.9354206948,280886.57524981146,256836.2068764865,114262.67001621002,1.8939804745713029e-06,0.0,0.0,0.0,1.8939804745713029e-06,0.0,23.194845637748013,1.1770482448638897,0.004022927024019322,0.0
10805,0.0,8.275862068965518,1.7857142857142858,0,97143.68233814205,650952.3480006581,558928.4678579682,549392.2384650839,23877.658374916195,6.47624548920947e-07,0.0,0.0,0.0,6.47624548920947e-07,0.0,23.38141135241987,1.4920067637381913,0.0009431077735591579,0.0
10806,0.0,8.275862068965518,2.142857142857143,0,771421.2784354967,1071606.5427547994,565543.9869792431,183739.61207608812,470529.09369918273,5.142808522903312e-06,0.0,0.0,0.0,5.142808522903312e-06,0.0,23.90296413793607,1.8068360034669901,0.025222756965155052,0.0
10807,0.0,8.275862068965518,2.5,0,615087.3653941401,1332928.6397883508,739494.788717344,698262.5089426707,945386.8939259215,4.100582435960934e-06,0.0,0.0,0.0,4.100582435960934e-06,0.0,22.963923557236736,2.1152243592297943,0.09453868939259216,0.0
10808,0.0,8.275862068965518,2.857142857142857,0,723246.14113923,964375.1023234482,942273.1648672043,230331.31970068088,600906.3984798673,4.8216409409282e-06,0.0,0.0,0.0,4.8216409409282e-06,0.0,23.012341017438853,2.413978860609847,0.03221164482839425,0.0
10809,0.0,8.275862068965518,3.2142857142857144,0,299329.4676500297,623493.1314566361,348952.17025872687,668070.3224733671,60610.90858538666,1.9955297843335313e-06,0.0,0.0,0.0,1.9955297843335313e-06,0.0,23.851531317018782,2.706292478023906,0.002393979265128098,0.0
10810,0.0,8.275862068965518,3.5714285714285716,0,484450.4795456816,569585.0702050197,255018.25751896432,11704.537812087558,-102327.54967538868,3.2296698636378775e-06,0.0,0.0,0.0,3.2296698636378775e-06,0.0,23.74643119882169,2.9984768162924613,-0.0036027187604875735,0.0
10811,0.0,8.275862068965518,3.928571428571429,0,303686.3630112079,385267.1144139278,287560.8938963654,44754.051585197056,-17510.0200223297,2.0245757534080527e-06,0.0,0.0,0.0,2.0245757534080527e-06,0.0,23.516038053848725,3.2945117679542495,-0.0005936472394220831,0.0
10812,0.0,8.275862068965518,4.285714285714286,0,264822.4061633842,377018.9454266442,287583.43809344317,79058.47354843521,78463.57311598248,1.7654827077558947e-06,0.0,0.0,0.0,1.7654827077558947e-06,0.0,22.260071326808532,3.5945152841184327,0.0026290509251417453,0.0
10813,0.0,8.275862068965518,4.642857142857143,0,304751.523517021,364300.98281801806,404586.2249490751,81695.66328646016,-34235.31236293,2.0316768234468063e-06,0.0,0.0,0.0,2.0316768234468063e-06,0.0,23.99323740392413,3.896836214231281,-0.0011429812576397923,0.0
10814,0.0,8.275862068965518,5.0,0,211934.90129298178,441465.5302375778,233138.25965441644,226098.4164275909,13058.884378951814,1.4128993419532118e-06,0.0,0.0,0.0,1.4128993419532118e-06,0.0,23.05341812642415,4.200077651280653,0.0004355054097784465,0.0
10815,0.3448275862068966,8.275862068965518,0.0,0,244951.09359205604,520502.699412112,243426.04337693102,332746.15055898443,-13447.259470566118,1.633007290613707e-06,0.0,0.0,0.0,1.633007290613707e-06,0.0,23.083679694237087,-0.04991684118825477,-0.0004484574697334184,0.0
10816,0.3448275862068966,8.275862068965518,0.35714285714285715,0,262551.5366773795,569903.4573091847,357511.36141643027,276356.1146959021,-3164.2955202938783,1.7503435778491967e-06,0.0,0.0,0.0,1.7503435778491967e-06,0.0,23.278316370756954,0.25400798403844793,-0.00010564327367568155,0.0
10817,0.3448275862068966,8.275862068965518,0.7142857142857143,0,180480.69186883935,375559.7688630784,377959.6859702799,196291.00315714476,57654.37133778604,1.203204612458929e-06,0.0,0.0,0.0,1.203204612458929e-06,0.0,22.78417510736525,0.5589186045076956,0.001931804432102737,0.0
10818,0.3448275862068966,8.275862068965518,1.0714285714285714,0,404265.1249973745,647302.5150213205,446187.00300323806,181923.2897859998,11808.866248580138,2.69510083331583e-06,0.0,0.0,0.0,2.69510083331583e-06,0.0,23.997075320910916,0.8663110049124959,0.0004003593850968933,0.0
10819,0.3448275862068966,8.275862068965518,1.4285714285714286,0,272335.6285045042,420316.8086907978,417563.1443241944,146614.78936469727,114020.87321808301,1.8155708566966947e-06,0.0,0.0,0.0,1.8155708566966947e-06,0.0,23.47868569682153,1.1779534460839314,0.004014413912314787,0.0
10820,0.3448275862068966,8.275862068965518,1.7857142857142858,0,490513.1485223759,916799.2382303849,547100.9217579627,360338.03098146076,152934.950841213,3.270087656815839e-06,0.0,0.0,0.0,3.270087656815839e-06,0.0,23.747002811702266,1.4937196110572373,0.0060405479767964,0.0
10821,0.3448275862068966,8.275862068965518,2.142857142857143,0,534074.2628475976,955254.6158830819,909869.8131409197,399936.18905300583,435711.811605589,3.560495085650651e-06,0.0,0.0,0.0,3.560495085650651e-06,0.0,23.014750622856916,1.809347327571829,0.02335637323629811,0.0
10822,0.3448275862068966,8.275862068965518,2.5,0,441728.19190732646,1084768.2292025327,849247.4505768437,575189.9387514455,745564.1990484502,2.9448546127155095e-06,0.0,0.0,0.0,2.9448546127155095e-06,0.0,23.9000907636,2.1180773309682097,0.07455641990484502,0.0
10823,0.3448275862068966,8.275862068965518,2.857142857142857,0,588701.3692227851,950105.8723976875,720126.1223412128,281129.2754638137,458098.50888501457,3.9246757948185675e-06,0.0,0.0,0.0,3.9246757948185675e-06,0.0,24.1233603026668,2.4164901847146862,0.024556414280077734,0.0
10824,0.3448275862068966,8.275862068965518,3.2142857142857144,0,568457.2922441509,745603.0247269903,260093.98049593525,120285.54167177955,-13549.00289785696,3.7897152816276728e-06,0.0,0.0,0.0,3.7897152816276728e-06,0.0,22.77899019489484,2.7080053253429517,-0.0005351517203365341,0.0
10825,0.3448275862068966,8.275862068965518,3.5714285714285716,0,329753.56381194305,587029.4968814792,462200.29053812777,213085.3368786033,-49022.01123035139,2.1983570920796204e-06,0.0,0.0,0.0,2.1983570920796204e-06,0.0,22.858489611856633,2.9993820175125028,-0.0017259527868759028,0.0
10826,0.3448275862068966,8.275862068965518,3.928571428571429,0,287674.65712663514,513281.16313458065,335990.529498525,181360.83368348048,34555.43118781586,1.9178310475109008e-06,0.0,0.0,0.0,1.9178310475109008e-06,0.0,23.02311790918043,3.294882433483925,0.0011715427112891042,0.0
10827,0.3448275862068966,8.275862068965518,4.285714285714286,0,243316.90822538332,356398.4221147784,375819.6287796399,123374.1281268606,40406.589908887305,1.6221127215025554e-06,0.0,0.0,0.0,1.6221127215025554e-06,0.0,23.89283098686814,3.5946328902219813,0.0013538891789283654,0.0
10828,0.3448275862068966,8.275862068965518,4.642857142857143,0,270507.6906638232,351263.6560576907,59927.802741993175,108040.73907189687,-57939.60334299216,1.8033846044254882e-06,0.0,0.0,0.0,1.8033846044254882e-06,0.0,23.52569038136635,3.896865126895591,-0.0019343734911509416,0.0
10829,0.3448275862068966,8.275862068965518,5.0,0,116228.51639609729,357588.7070909225,302377.70877244836,224045.1256753696,37634.793849835296,7.748567759739819e-07,0.0,0.0,0.0,7.748567759739819e-07,0.0,23.40679937064447,4.200083158811745,0.001255096212040699,0.0
10830,0.6896551724137931,8.275862068965518,0.0,0,201320.92728928046,419724.0408812806,227015.8628912788,210774.28426782254,-7543.153816712824,1.3421395152618697e-06,0.0,0.0,0.0,1.3421395152618697e-06,0.0,23.636803483176326,-0.04991146749922844,-0.0002515593368193258,0.0
10831,0.6896551724137931,8.275862068965518,0.35714285714285715,0,88912.66272693398,411322.6796199104,429486.5672532347,332894.52983174036,-35690.411007904215,5.927510848462265e-07,0.0,0.0,0.0,5.927510848462265e-07,0.0,24.42397693353736,0.25403619407744765,-0.0011915612285654685,0.0
10832,0.6896551724137931,8.275862068965518,0.7142857142857143,0,60588.38391428782,348884.54756495764,354431.8262924725,291260.56247721385,-13544.658386693372,4.039225594285855e-07,0.0,0.0,0.0,4.039225594285855e-07,0.0,22.589773438076406,0.5590333525894406,-0.0004538360317803534,0.0
10833,0.6896551724137931,8.275862068965518,1.0714285714285714,0,348600.3579827169,467702.4398232552,331431.1879806295,71550.32189794096,39703.91194259015,2.3240023865514456e-06,0.0,0.0,0.0,2.3240023865514456e-06,0.0,23.312407929213457,0.8666726626599758,0.0013460931334697654,0.0
10834,0.6896551724137931,8.275862068965518,1.4285714285714286,0,510102.3179243508,749078.714433032,316447.7704476551,186602.55073555632,37878.23225511738,3.4006821194956718e-06,0.0,0.0,0.0,3.4006821194956718e-06,0.0,21.933918199784017,1.178836649425075,0.0013336058411690737,0.0
10835,0.6896551724137931,8.275862068965518,1.7857142857142858,0,531675.1576850355,664176.8882727419,575811.3121423475,93855.22403912763,99781.35811187119,3.54450105123357e-06,0.0,0.0,0.0,3.54450105123357e-06,0.0,23.730154588223012,1.4953908333684272,0.0039411140327920095,0.0
10836,0.6896551724137931,8.275862068965518,2.142857142857143,0,836469.9079850675,999629.7976187777,562984.5470212955,35192.16723533546,454239.53875516343,5.576466053233783e-06,0.0,0.0,0.0,5.576466053233783e-06,0.0,24.025084897834535,1.8117976223692516,0.02434955381804804,0.0
10837,0.6896551724137931,8.275862068965518,2.5,0,487216.6346207584,1431995.5382105128,875804.7714260784,1080627.2248988177,596154.3110647623,3.2481108974717227e-06,0.0,0.0,0.0,3.2481108974717227e-06,0.0,23.33298320526474,2.120860970799629,0.059615431106476234,0.0
10838,0.6896551724137931,8.275862068965518,2.857142857142857,0,291417.0555698536,972199.948330762,639562.5920466329,761856.3660975792,472665.48711829033,1.9427803704656907e-06,0.0,0.0,0.0,1.9427803704656907e-06,0.0,23.81743978272581,2.4189404795121083,0.025337278538238816,0.0
10839,0.6896551724137931,8.275862068965518,3.2142857142857144,0,642467.5481043753,837587.7338197101,851997.0477477802,202446.04408179704,44038.54700290104,4.283116987362502e-06,0.0,0.0,0.0,4.283116987362502e-06,0.0,22.727809655421197,2.709676547654142,0.0017394124399701353,0.0
10840,0.6896551724137931,8.275862068965518,3.5714285714285716,0,155274.3727266357,441599.7438020843,512612.2965931806,334529.571107262,110720.17044153162,1.0351624848442379e-06,0.0,0.0,0.0,1.0351624848442379e-06,0.0,23.739846817742094,3.0002652208536467,0.00389820372401654,0.0
10841,0.6896551724137931,8.275862068965518,3.928571428571429,0,268892.1011660986,606383.1732219547,404992.2091280746,301031.3407836268,-16580.51936857695,1.7926140077739908e-06,0.0,0.0,0.0,1.7926140077739908e-06,0.0,24.732590917804842,3.295244091231405,-0.0005621341117136244,0.0
10842,0.6896551724137931,8.275862068965518,4.285714285714286,0,397454.68770729704,460442.021792478,173130.81670949972,6851.857841922798,95896.53288889946,2.649697918048647e-06,0.0,0.0,0.0,2.649697918048647e-06,0.0,23.319004228145637,3.5947476383037267,0.0032131708829621535,0.0
10843,0.6896551724137931,8.275862068965518,4.642857142857143,0,130659.3143618548,376125.76701568335,374767.2469856369,244792.48966094732,-6921.239078709158,8.710620957456987e-07,0.0,0.0,0.0,8.710620957456987e-07,0.0,23.72346229498231,3.896893336934591,-0.00023107271412468655,0.0
10844,0.6896551724137931,8.275862068965518,5.0,0,224711.36846809453,378741.3320317968,316611.6928314647,129501.97205528167,-4073.9248110607646,1.4980757897872969e-06,0.0,0.0,0.0,1.4980757897872969e-06,0.0,23.224496298809864,4.2000885325007715,-0.00013586277684694595,0.0
10845,1.0344827586206897,8.275862068965518,0.0,0,188303.18705582756,378612.2353490274,398635.7503956174,201120.96785868102,-12419.18061415117,1.2553545803721836e-06,0.0,0.0,0.0,1.2553545803721836e-06,0.0,23.61839467441611,-0.049906249384656744,-0.00041417169993449113,0.0
10846,1.0344827586206897,8.275862068965518,0.35714285714285715,0,186584.39624450076,537933.7698335514,322654.3503199032,422890.30614207406,-53099.752792687075,1.2438959749633385e-06,0.0,0.0,0.0,1.2438959749633385e-06,0.0,24.08901396123901,0.25406358740349455,-0.0017727900824724145,0.0
10847,1.0344827586206897,8.275862068965518,0.7142857142857143,0,17599.58298507152,315966.07611175976,295814.81001696194,303612.24699489976,56164.1331925395,1.1733055323381013e-07,0.0,0.0,0.0,1.1733055323381013e-07,0.0,23.839491815281615,0.5591447785827378,0.0018818715547323603,0.0
10848,1.0344827586206897,8.275862068965518,1.0714285714285714,0,193887.3814015198,377943.3208354968,325747.8844682478,163301.0615387371,4515.072399545157,1.2925825426767985e-06,0.0,0.0,0.0,1.2925825426767985e-06,0.0,23.49343425896317,0.8670238500012687,0.00015307579673596523,0.0
10849,1.0344827586206897,8.275862068965518,1.4285714285714286,0,243606.94821418272,449985.38520561816,171785.02584755857,346909.71465596283,38161.20212000195,1.6240463214278849e-06,0.0,0.0,0.0,1.6240463214278849e-06,0.0,23.489885788287108,1.179694283017494,0.0013435685622945799,0.0
10850,1.0344827586206897,8.275862068965518,1.7857142857142858,0,617803.9335091225,723889.8610554604,396865.01415602607,11312.084125717804,193774.88098822266,4.1186928900608164e-06,0.0,0.0,0.0,4.1186928900608164e-06,0.0,22.953261162932133,1.497013671878776,0.007653623052605337,0.0
10851,1.0344827586206897,8.275862068965518,2.142857142857143,0,418360.7867543317,1017552.4265837822,833455.9950041857,538713.4071242901,391675.2489674803,2.789071911695545e-06,0.0,0.0,0.0,2.789071911695545e-06,0.0,24.067883289545613,1.8141769783246733,0.02099578909415801,0.0
10852,1.0344827586206897,8.275862068965518,2.5,0,463448.97432042856,888360.3714615961,1174612.818210403,639913.352202647,718690.803770264,3.089659828802857e-06,0.0,0.0,0.0,3.089659828802857e-06,0.0,23.938114378420646,2.1235640210683577,0.0718690803770264,0.0
10853,1.0344827586206897,8.275862068965518,2.857142857142857,0,384115.9230022043,989856.2425405568,634668.5356721692,582205.1962802799,421374.16364876356,2.5607728200146954e-06,0.0,0.0,0.0,2.5607728200146954e-06,0.0,22.940560667658758,2.4213198354675303,0.02258780224948861,0.0
10854,1.0344827586206897,8.275862068965518,3.2142857142857144,0,430463.20536364726,711710.1721158571,502391.2649124446,216617.92341706576,-16665.82615227504,2.869754702424315e-06,0.0,0.0,0.0,2.869754702424315e-06,0.0,23.660957119473967,2.7112993861644905,-0.0006582584418540691,0.0
10855,1.0344827586206897,8.275862068965518,3.5714285714285716,0,230173.85005686412,443249.57678317995,192532.73825743428,241498.74029358788,-86336.62958551443,1.5344923337124275e-06,0.0,0.0,0.0,1.5344923337124275e-06,0.0,23.114316721509027,3.0011228544460655,-0.003039715072937105,0.0
10856,1.0344827586206897,8.275862068965518,3.928571428571429,0,222142.56737407277,496133.3965705297,432666.9345777533,249164.65179647962,-65313.936569013946,1.480950449160485e-06,0.0,0.0,0.0,1.480950449160485e-06,0.0,23.35471087577522,3.295595278572698,-0.0022143571561048037,0.0
10857,1.0344827586206897,8.275862068965518,4.285714285714286,0,482915.88753214385,501261.71101054887,390696.4864302991,-27348.75041387047,52561.448250923415,3.2194392502142925e-06,0.0,0.0,0.0,3.2194392502142925e-06,0.0,23.993024343187273,3.5948590642970237,0.001761157676908452,0.0
10858,1.0344827586206897,8.275862068965518,4.642857142857143,0,247311.7267402368,415441.07880137174,350485.4782184357,142134.15309538887,-13757.594111392087,1.648744844934912e-06,0.0,0.0,0.0,1.648744844934912e-06,0.0,24.086769812046345,3.896920730260638,-0.00045931148671403405,0.0
10859,1.0344827586206897,8.275862068965518,5.0,0,308577.1306054553,441430.81742260925,329714.3556325247,92554.80608323173,33098.72943179522,2.0571808707030355e-06,0.0,0.0,0.0,2.0571808707030355e-06,0.0,23.95225819033498,4.200093750615343,0.0011038213760107519,0.0
10860,1.3793103448275863,8.275862068965518,0.0,0,191634.06694843175,235811.11163207295,419679.7155968558,221125.209280448,-10737.11212502066,1.2775604463228783e-06,0.0,0.0,0.0,1.2775604463228783e-06,0.0,23.46963289168525,-0.04990121268581896,-0.0003580757957686719,0.0
10861,1.3793103448275863,8.275862068965518,0.35714285714285715,0,137243.76248997424,380412.0765270568,223898.0946719332,280628.81199501373,-65535.452530857496,9.149584165998282e-07,0.0,0.0,0.0,9.149584165998282e-07,0.0,23.839958963435127,0.2540900283586648,-0.0021879687604317117,0.0
10862,1.3793103448275863,8.275862068965518,0.7142857142857143,0,345820.76676533883,500469.70244040526,215599.11894529438,115694.63739813621,36096.57442569338,2.3054717784355923e-06,0.0,0.0,0.0,2.3054717784355923e-06,0.0,23.22812100673735,0.5592523306809578,0.0012094750292347652,0.0
10863,1.3793103448275863,8.275862068965518,1.0714285714285714,0,314078.95536769566,392973.5439292339,391681.79982388957,78250.70877239249,-37891.5748087091,2.0938597024513044e-06,0.0,0.0,0.0,2.0938597024513044e-06,0.0,23.995538630666733,0.8673628277775193,-0.0012846489469377918,0.0
10864,1.3793103448275863,8.275862068965518,1.4285714285714286,0,226537.77041197705,425361.34252031846,448469.2769347159,211263.19041871352,35203.03695270398,1.5102518027465137e-06,0.0,0.0,0.0,1.5102518027465137e-06,0.0,23.614752094060897,1.1805220996663675,0.0012394183390296467,0.0
10865,1.3793103448275863,8.275862068965518,1.7857142857142858,0,834710.0665581146,1040284.6953338301,329695.493431864,121041.39563561422,141288.56374881516,5.564733777054098e-06,0.0,0.0,0.0,5.564733777054098e-06,0.0,23.391208739089773,1.4985800899262678,0.0055805448211997824,0.0
10866,1.3793103448275863,8.275862068965518,2.142857142857143,0,967164.9448051592,1444157.667466841,628704.481470657,375609.5353627119,394687.8778895108,6.447766298701062e-06,0.0,0.0,0.0,6.447766298701062e-06,0.0,23.26895342160458,1.8164736123312073,0.02115728135498546,0.0
10867,1.3793103448275863,8.275862068965518,2.5,0,914056.2212737905,1362448.826661733,1293054.7749304238,415673.3366069742,777972.474322244,6.09370814182527e-06,0.0,0.0,0.0,6.09370814182527e-06,0.0,23.977309545655913,2.1261730956603233,0.0777972474322244,0.0
10868,1.3793103448275863,8.275862068965518,2.857142857142857,0,659570.6625203626,1300110.6428607379,828420.6509268624,546419.2676560811,248684.60367218984,4.397137750135751e-06,0.0,0.0,0.0,4.397137750135751e-06,0.0,23.574381321362,2.423616469474064,0.013330761909081171,0.0
10869,1.3793103448275863,8.275862068965518,3.2142857142857144,0,255475.37413622337,396529.30454939086,612813.842271595,330937.82353223057,284338.8574188213,1.703169160908156e-06,0.0,0.0,0.0,1.703169160908156e-06,0.0,23.40276328929573,2.7128658042119826,0.011230673567150429,0.0
10870,1.3793103448275863,8.275862068965518,3.5714285714285716,0,196321.66704936555,420343.13121884066,233594.23681547423,215677.01864017532,28230.830144246567,1.308811113662437e-06,0.0,0.0,0.0,1.308811113662437e-06,0.0,23.40558462341927,3.001950671094939,0.0009939428991259961,0.0
10871,1.3793103448275863,8.275862068965518,3.928571428571429,0,66716.75716439929,388978.9229588656,356916.57274054707,312283.6731399422,33815.74399086315,4.4477838109599524e-07,0.0,0.0,0.0,4.4477838109599524e-07,0.0,23.035361501994206,3.2959342563489487,0.0011464648837396865,0.0
10872,1.3793103448275863,8.275862068965518,4.285714285714286,0,216205.13739631418,397055.5238322554,173395.06099853225,189169.79043704455,38938.234380950584,1.4413675826420946e-06,0.0,0.0,0.0,1.4413675826420946e-06,0.0,23.745026718810365,3.5949666163952436,0.0013046895146019302,0.0
10873,1.3793103448275863,8.275862068965518,4.642857142857143,0,245862.9130060375,374692.7862463919,126295.5428412047,131445.10283669154,-5781.2795122069165,1.6390860867069166e-06,0.0,0.0,0.0,1.6390860867069166e-06,0.0,23.810161957048333,3.896947171215808,-0.0001930139867742073,0.0
10874,1.3793103448275863,8.275862068965518,5.0,0,186411.34995450696,203502.08497506595,351092.53856105654,141606.5423709765,3228.7755759139986,1.2427423330300465e-06,0.0,0.0,0.0,1.2427423330300465e-06,0.0,22.93039525672043,4.2000987873141815,0.00010767759247011052,0.0
10875,1.7241379310344829,8.275862068965518,0.0,0,322469.37012546085,440374.7727105421,403452.51347021415,101033.51789008787,44354.49696947634,2.149795800836406e-06,0.0,0.0,0.0,2.149795800836406e-06,0.0,23.13832647442154,-0.04989638805878906,0.0014791939967967716,0.0
10876,1.7241379310344829,8.275862068965518,0.35714285714285715,0,323115.1418890205,453352.6771386168,265471.06638851925,80254.6218587456,-15036.122320173417,2.1541009459268033e-06,0.0,0.0,0.0,2.1541009459268033e-06,0.0,22.85700972635266,0.2541153560090007,-0.0005019964712852036,0.0
10877,1.7241379310344829,8.275862068965518,0.7142857142857143,0,429024.86790739436,541618.1333105383,242300.2467955158,50098.195799379726,16050.045585118869,2.8601657860492956e-06,0.0,0.0,0.0,2.8601657860492956e-06,0.0,24.288129276673004,0.5593553542638455,0.0005377831459669894,0.0
10878,1.7241379310344829,8.275862068965518,1.0714285714285714,0,152040.8336058979,355981.1163871531,440432.08264577534,264912.0354597664,20039.754800909366,1.0136055573726526e-06,0.0,0.0,0.0,1.0136055573726526e-06,0.0,23.99972442108148,0.8676875327865949,0.0006794135644096453,0.0
10879,1.7241379310344829,8.275862068965518,1.4285714285714286,0,249327.21078772604,405647.5874548902,324650.39263238397,125892.54005252208,-29899.832679095376,1.6621814052515069e-06,0.0,0.0,0.0,1.6621814052515069e-06,0.0,24.247288355838123,1.1813150608317238,-0.0010527046574469552,0.0
10880,1.7241379310344829,8.275862068965518,1.7857142857142858,0,157063.470157313,326434.66270967614,483208.893048565,325857.77225571073,105328.01270437351,1.0470898010487532e-06,0.0,0.0,0.0,1.0470898010487532e-06,0.0,24.510161041218698,1.5000805534432362,0.004160193013707988,0.0
10881,1.7241379310344829,8.275862068965518,2.142857142857143,0,683221.0470707933,981132.265094868,1082764.5568203495,354420.43580124585,216522.11918343796,4.554806980471955e-06,0.0,0.0,0.0,4.554806980471955e-06,0.0,23.9243826257708,1.8186735458318144,0.011606688859149875,0.0
10882,1.7241379310344829,8.275862068965518,2.5,0,857062.200362075,1447457.9534205862,771770.4487078679,483403.04476724216,820230.5554794893,5.7137480024138335e-06,0.0,0.0,0.0,5.7137480024138335e-06,0.0,23.679455161854584,2.128672314336054,0.08202305554794893,0.0
10883,1.7241379310344829,8.275862068965518,2.857142857142857,0,294710.4528201501,914798.1045608436,593289.0664951752,657460.953377998,556759.1774431528,1.964736352134334e-06,0.0,0.0,0.0,1.964736352134334e-06,0.0,23.81183855782204,2.425816402974671,0.029845128832237965,0.0
10884,1.7241379310344829,8.275862068965518,3.2142857142857144,0,607156.2381266404,1005108.7959624594,607207.7807430767,306263.5153638597,137826.4945057419,4.047708254177603e-06,0.0,0.0,0.0,4.047708254177603e-06,0.0,23.39660024616605,2.7143662677289506,0.005443801746796284,0.0
10885,1.7241379310344829,8.275862068965518,3.5714285714285716,0,312083.0072808954,465914.49848867895,273861.62399706605,105818.80236725287,79708.17000841713,2.080553381872636e-06,0.0,0.0,0.0,2.080553381872636e-06,0.0,23.321911476495664,3.0027436322602954,0.002806342186091896,0.0
10886,1.7241379310344829,8.275862068965518,3.928571428571429,0,271700.4268402036,435034.80539845576,283605.4604847856,121364.28184858417,-31940.49743975334,1.8113361789346906e-06,0.0,0.0,0.0,1.8113361789346906e-06,0.0,23.518191430817698,3.296258961358024,-0.001082887861161616,0.0
10887,1.7241379310344829,8.275862068965518,4.285714285714286,0,103528.40380718205,298370.11785875034,178915.68539215822,234629.26014592024,-9222.717883669613,6.901893587145471e-07,0.0,0.0,0.0,6.901893587145471e-07,0.0,23.609104898861375,3.5950696399781314,-0.00030902231470572643,0.0
10888,1.7241379310344829,8.275862068965518,4.642857142857143,0,199260.05588480397,432381.8626921462,301386.882672018,203071.04514625596,5128.72444601091,1.3284003725653597e-06,0.0,0.0,0.0,1.3284003725653597e-06,0.0,22.90780901897148,3.896972498866144,0.00017122776200333167,0.0
10889,1.7241379310344829,8.275862068965518,5.0,0,49269.28091365529,246978.32871991876,291736.52761967474,238943.7837780753,5266.024763384751,3.284618727577019e-07,0.0,0.0,0.0,3.284618727577019e-07,0.0,23.124427881538423,4.200103611941211,0.0001756185448871708,0.0
10890,2.0689655172413794,8.275862068965518,0.0,0,280249.6567049334,457870.960695609,359305.4552171483,141654.69389236183,-17583.082396324036,1.868331044699556e-06,0.0,0.0,0.0,1.868331044699556e-06,0.0,23.108929916213413,-0.049891811683883444,-0.0005863845089647642,0.0
10891,2.0689655172413794,8.275862068965518,0.35714285714285715,0,369360.5919067241,460433.3223933864,350467.5125498433,48578.049036097196,-36723.670405226876,2.462403946044827e-06,0.0,0.0,0.0,2.462403946044827e-06,0.0,23.092710447440588,0.25413938042015144,-0.0012260576605798812,0.0
10892,2.0689655172413794,8.275862068965518,0.7142857142857143,0,270974.38943028526,513130.2754766849,326916.3831411692,202261.0519212707,69679.9730592786,1.806495929535235e-06,0.0,0.0,0.0,1.806495929535235e-06,0.0,24.072211408570116,0.5594530767481931,0.002334741974655668,0.0
10893,2.0689655172413794,8.275862068965518,1.0714285714285714,0,140156.36018821117,330865.55024108116,323734.9059659929,187279.97694187754,-34360.49326031356,9.343757345880745e-07,0.0,0.0,0.0,9.343757345880745e-07,0.0,23.591093080181604,0.8679955300361334,-0.0011649336747275912,0.0
10894,2.0689655172413794,8.275862068965518,1.4285714285714286,0,242740.18758150912,498548.70346938056,331049.15308556374,220169.21797346784,86081.55393274523,1.6182679172100608e-06,0.0,0.0,0.0,1.6182679172100608e-06,0.0,23.666641533604583,1.1820672200257434,0.0030307344431605644,0.0
10895,2.0689655172413794,8.275862068965518,1.7857142857142858,0,609244.3068231791,769968.1487423519,568715.2277266461,85559.56129548367,107144.62951279193,4.061628712154528e-06,0.0,0.0,0.0,4.061628712154528e-06,0.0,23.95915240424203,1.5015038103174514,0.004231944833199528,0.0
10896,2.0689655172413794,8.275862068965518,2.142857142857143,0,754103.5840686951,1115863.9653895048,489557.9953006757,278804.6534329508,407470.94788111036,5.027357227124634e-06,0.0,0.0,0.0,5.027357227124634e-06,0.0,24.183909817235236,1.8207602813253114,0.021842519041632768,0.0
10897,2.0689655172413794,8.275862068965518,2.5,0,730831.4296509885,997495.1066156713,277686.5333854089,256118.28888739654,761502.9853633342,4.87220953100659e-06,0.0,0.0,0.0,4.87220953100659e-06,0.0,24.005052115985887,2.1310429352276485,0.07615029853633341,0.0
10898,2.0689655172413794,8.275862068965518,2.857142857142857,0,444062.2798708655,534737.7485999374,955861.2149508339,491956.6745544881,542838.5062989065,2.9604151991391034e-06,0.0,0.0,0.0,2.9604151991391034e-06,0.0,24.600822824730848,2.4279031384681686,0.029098909927254283,0.0
10899,2.0689655172413794,8.275862068965518,3.2142857142857144,0,351338.795879669,739957.7389454694,577655.7457215904,336809.0766015518,-108710.65627553669,2.3422586391977936e-06,0.0,0.0,0.0,2.3422586391977936e-06,0.0,23.80648530011531,2.715789524603166,-0.0042937989727619644,0.0
10900,2.0689655172413794,8.275862068965518,3.5714285714285716,0,241889.29614216712,468304.6042362767,325858.21106813464,189013.62928853557,23419.537551951587,1.6125953076144475e-06,0.0,0.0,0.0,1.6125953076144475e-06,0.0,23.89007406949258,3.003495791454315,0.0008245483016843159,0.0
10901,2.0689655172413794,8.275862068965518,3.928571428571429,0,128123.76884727686,368548.85552698775,380289.4359727044,246699.45571839996,6459.901845690071,8.541584589818457e-07,0.0,0.0,0.0,8.541584589818457e-07,0.0,23.493542744902904,3.2965669586075625,0.00021901190819548233,0.0
10902,2.0689655172413794,8.275862068965518,4.285714285714286,0,218473.30185955443,465091.89074071427,223390.06004090447,281665.00234454864,7507.474874995225,1.456488679063696e-06,0.0,0.0,0.0,1.456488679063696e-06,0.0,22.853789280055697,3.595167362462479,0.0002515502797254616,0.0
10903,2.0689655172413794,8.275862068965518,4.642857142857143,0,193987.85388466052,398552.3251467355,224770.80999071142,189263.54390275964,37823.86143128962,1.2932523592310702e-06,0.0,0.0,0.0,1.2932523592310702e-06,0.0,23.84513225840197,3.8969965232772945,0.001262788674139285,0.0
10904,2.0689655172413794,8.275862068965518,5.0,0,81818.30207779178,295999.84239389934,213576.87420996517,214799.918826186,-24543.137876072764,5.454553471852785e-07,0.0,0.0,0.0,5.454553471852785e-07,0.0,24.242314150604177,4.200108188316117,-0.0008184978906158229,0.0
10905,2.413793103448276,8.275862068965518,0.0,0,180069.704436606,242329.59998019604,321228.5742202678,115176.8291509922,-45444.12766150948,1.20046469624404e-06,0.0,0.0,0.0,1.20046469624404e-06,0.0,23.43637227720259,-0.049887525873688505,-0.0015155324807951385,0.0
10906,2.413793103448276,8.275862068965518,0.35714285714285715,0,185010.87392030712,305764.34278036916,151422.75926322627,100675.49065962143,-54669.32579823839,1.2334058261353807e-06,0.0,0.0,0.0,1.2334058261353807e-06,0.0,23.556852575698088,0.2541618794654353,-0.0018251918981422796,0.0
10907,2.413793103448276,8.275862068965518,0.7142857142857143,0,358795.54679881054,585821.4231943528,216565.64027265125,238491.75089869258,-35943.6310956085,2.39197031199207e-06,0.0,0.0,0.0,2.39197031199207e-06,0.0,24.297167893453118,0.5595445946042105,-0.0012043504116895057,0.0
10908,2.413793103448276,8.275862068965518,1.0714285714285714,0,326413.6495576134,467193.4877634639,309383.0581336049,91863.28776248444,28322.0476290863,2.176090997050756e-06,0.0,0.0,0.0,2.176090997050756e-06,0.0,23.79722643756729,0.8682839718223316,0.000960210517654841,0.0
10909,2.413793103448276,8.275862068965518,1.4285714285714286,0,257527.2038712186,492251.1220748642,217810.49238326526,255874.2829122696,29910.489198795956,1.7168480258081241e-06,0.0,0.0,0.0,1.7168480258081241e-06,0.0,23.36478297659541,1.1827716228791898,0.0010530798491091087,0.0
10910,2.413793103448276,8.275862068965518,1.7857142857142858,0,233351.1621771113,654820.4369448287,385918.6231712364,505482.4282123834,131600.2289200823,1.5556744145140754e-06,0.0,0.0,0.0,1.5556744145140754e-06,0.0,23.35222037835077,1.502836701294994,0.005197879831762604,0.0
10911,2.413793103448276,8.275862068965518,2.142857142857143,0,608571.6442379801,956945.1782303096,259427.9684763538,534282.9012976713,333419.1586669523,4.057144294919867e-06,0.0,0.0,0.0,4.057144294919867e-06,0.0,24.164076134577737,1.8227145251179746,0.01787296581486097,0.0
10912,2.413793103448276,8.275862068965518,2.5,0,871731.7932649191,1461098.021872155,972725.0422748282,454654.8863246379,634295.3279603346,5.811545288432794e-06,0.0,0.0,0.0,5.811545288432794e-06,0.0,23.775073127303717,2.1332630398727237,0.06342953279603347,0.0
10913,2.413793103448276,8.275862068965518,2.857142857142857,0,672861.6051717877,907975.8976390129,566233.9676132016,132826.78503095408,546199.7827674837,4.485744034478584e-06,0.0,0.0,0.0,4.485744034478584e-06,0.0,23.772725372985267,2.4298573822608316,0.029279091473081966,0.0
10914,2.413793103448276,8.275862068965518,3.2142857142857144,0,448654.78223599016,757912.9249610709,326261.7422741997,293996.5115645154,140872.2701477399,2.991031881573268e-06,0.0,0.0,0.0,2.991031881573268e-06,0.0,23.160272028927295,2.7171224155807083,0.005564102265355636,0.0
10915,2.413793103448276,8.275862068965518,3.5714285714285716,0,204910.89233620948,441301.3364589621,209189.36813138652,285477.281970534,41643.246795293286,1.3660726155747299e-06,0.0,0.0,0.0,1.3660726155747299e-06,0.0,24.093367889024673,3.0042001943077614,0.0014661633836923719,0.0
10916,2.413793103448276,8.275862068965518,3.928571428571429,0,377134.8151550618,566577.3994926482,251589.50534877676,148665.25277032415,-74222.63950649276,2.5142321010337452e-06,0.0,0.0,0.0,2.5142321010337452e-06,0.0,24.375837693778024,3.296855400393761,-0.0025163914712524374,0.0
10917,2.413793103448276,8.275862068965518,4.285714285714286,0,270040.83201739227,455018.2647854253,152128.24509910573,239422.82285127186,77569.39849849837,1.8002722134492818e-06,0.0,0.0,0.0,1.8002722134492818e-06,0.0,23.68312705473092,3.595258880318496,0.0025990901355424758,0.0
10918,2.413793103448276,8.275862068965518,4.642857142857143,0,280232.48017007834,493322.2559059203,429881.1298162081,186807.8417969887,-3631.162500681321,1.8682165344671889e-06,0.0,0.0,0.0,1.8682165344671889e-06,0.0,24.07373146119737,3.8970190223225787,-0.00012123010994394168,0.0
10919,2.413793103448276,8.275862068965518,5.0,0,228799.87306097383,348708.35124186735,88074.03901098238,180951.9325980589,6827.246888312983,1.525332487073159e-06,0.0,0.0,0.0,1.525332487073159e-06,0.0,23.67036382780058,4.200112474126311,0.00022768430039442813,0.0
10920,2.7586206896551726,8.275862068965518,0.0,0,300036.5974907905,468857.7159979156,236000.92735997878,130268.91381388447,17319.30107737772,2.0002439832719365e-06,0.0,0.0,0.0,2.0002439832719365e-06,0.0,24.16285605689761,-0.04988357939967609,0.0005775875713347186,0.0
10921,2.7586206896551726,8.275862068965518,0.35714285714285715,0,288170.8146918868,362845.80664067063,279204.8366466532,42106.7680405883,6368.059776658109,1.9211387646125786e-06,0.0,0.0,0.0,1.9211387646125786e-06,0.0,24.11758343840801,0.2541825971112195,0.00021260425186397014,0.0
10922,2.7586206896551726,8.275862068965518,0.7142857142857143,0,242537.2993210875,396822.36089405435,211581.83326976278,122298.82125634144,-6671.998062514845,1.6169153288072502e-06,0.0,0.0,0.0,1.6169153288072502e-06,0.0,23.683239924345173,0.5596288663810778,-0.00022355625651753044,0.0
10923,2.7586206896551726,8.275862068965518,1.0714285714285714,0,352526.90234264353,530838.5788107521,296989.9891614483,125363.86427652263,6058.112081746284,2.3501793489509567e-06,0.0,0.0,0.0,2.3501793489509567e-06,0.0,22.816502628735197,0.8685495757482053,0.0002053899143948411,0.0
10924,2.7586206896551726,8.275862068965518,1.4285714285714286,0,123073.73095584648,367921.09066507505,251068.24808440104,239450.37526733594,35431.82406480774,8.204915397056432e-07,0.0,0.0,0.0,8.204915397056432e-07,0.0,23.485136025068524,1.183420253459862,0.0012474734094730295,0.0
10925,2.7586206896551726,8.275862068965518,1.7857142857142858,0,417597.4663182883,692991.3694541666,669930.0573163659,264341.09530513315,126669.4505513921,2.7839831087885886e-06,0.0,0.0,0.0,2.7839831087885886e-06,0.0,24.061906315815886,1.5040640584025158,0.0050031264210138255,0.0
10926,2.7586206896551726,8.275862068965518,2.142857142857143,0,547248.0915523232,1073058.0787753798,469856.70941834373,608388.222540717,492464.6152365133,3.648320610348821e-06,0.0,0.0,0.0,3.648320610348821e-06,0.0,24.336322572983374,1.8245140383933798,0.026398612690228942,0.0
10927,2.7586206896551726,8.275862068965518,2.5,0,912301.2999141571,1281620.6049803765,266719.90920821467,529678.7539373414,542418.5729454928,6.082008666094381e-06,0.0,0.0,0.0,6.082008666094381e-06,0.0,23.596700805983566,2.135307364023375,0.05424185729454928,0.0
10928,2.7586206896551726,8.275862068965518,2.857142857142857,0,546386.4455004242,897677.0377574068,434412.51131481136,295130.18634695944,318255.97079905577,3.6425763033361617e-06,0.0,0.0,0.0,3.6425763033361617e-06,0.0,24.576068617608385,2.4316568955362365,0.017060141682346326,0.0
10929,2.7586206896551726,8.275862068965518,3.2142857142857144,0,681452.4633282411,943779.7539385809,517620.4315951174,157840.04549443908,126946.14247370059,4.543016422188274e-06,0.0,0.0,0.0,4.543016422188274e-06,0.0,24.65543099955502,2.71834977268823,0.005014055059773657,0.0
10930,2.7586206896551726,8.275862068965518,3.5714285714285716,0,201298.37427826755,344476.9304968208,314446.8582996973,129850.56816662916,-67151.16055350468,1.341989161855117e-06,0.0,0.0,0.0,1.341989161855117e-06,0.0,24.262441966024742,3.0048488248884335,-0.0023642386305748847,0.0
10931,2.7586206896551726,8.275862068965518,3.928571428571429,0,297837.51623155916,516744.67322750826,340192.91222016525,172872.83649821728,6720.420186521243,1.985583441543728e-06,0.0,0.0,0.0,1.985583441543728e-06,0.0,23.350014366614698,3.2971210043196346,0.00022784433635124804,0.0
10932,2.7586206896551726,8.275862068965518,4.285714285714286,0,308604.5417471151,482634.08992273407,310757.51951063133,126361.57345013182,-30511.468975537475,2.057363611647434e-06,0.0,0.0,0.0,2.057363611647434e-06,0.0,24.27842295929539,3.5953431520953636,-0.0010223368953513918,0.0
10933,2.7586206896551726,8.275862068965518,4.642857142857143,0,408843.071140829,534186.6493895419,221675.91036619755,71491.34234332226,21332.878536341836,2.7256204742721933e-06,0.0,0.0,0.0,2.7256204742721933e-06,0.0,23.65827697365279,3.8970397399683625,0.0007122201801478793,0.0
10934,2.7586206896551726,8.275862068965518,5.0,0,31187.326105867367,264047.5585692167,233024.0539216232,232698.95273314437,-32701.601465816704,2.079155073724491e-07,0.0,0.0,0.0,2.079155073724491e-07,0.0,23.6355933360397,4.200116420600324,-0.0010905774133153846,0.0
10935,3.1034482758620694,8.275862068965518,0.0,0,129687.75056724367,312588.23084558634,235674.13549704698,162856.39222687832,-13603.889774695952,8.645850037816245e-07,0.0,0.0,0.0,8.645850037816245e-07,0.0,24.14498459276364,-0.04988002726266219,-0.00045368098981402586,0.0
10936,3.1034482758620694,8.275862068965518,0.35714285714285715,0,286597.09251335775,491315.3969131822,407491.57979717717,172152.5745601355,-10989.72384472113,1.910647283422385e-06,0.0,0.0,0.0,1.910647283422385e-06,0.0,24.137511542486262,0.2542012446219339,-0.0003669032795142385,0.0
10937,3.1034482758620694,8.275862068965518,0.7142857142857143,0,200918.31551359166,237102.69333173797,318177.3026582715,89389.23358558292,9356.890735451969,1.3394554367572777e-06,0.0,0.0,0.0,1.3394554367572777e-06,0.0,24.155986352410423,0.5597047176085015,0.0003135179965374204,0.0
10938,3.1034482758620694,8.275862068965518,1.0714285714285714,0,300797.69019790855,265441.7395681821,421736.0886431286,74965.9296761281,37730.480615845445,2.0053179346527237e-06,0.0,0.0,0.0,2.0053179346527237e-06,0.0,24.26117212256783,0.8687886401720843,0.001279187324234992,0.0
10939,3.1034482758620694,8.275862068965518,1.4285714285714286,0,235675.22282414456,410110.6825056757,394574.7863194988,167051.87696062538,52614.880414519714,1.5711681521609638e-06,0.0,0.0,0.0,1.5711681521609638e-06,0.0,23.908968832395466,1.1840040719993232,0.0018524494855151562,0.0
10940,3.1034482758620694,8.275862068965518,1.7857142857142858,0,599090.5920237976,676059.8704539192,447462.66259912384,-3673.9860640539832,81923.49952662535,3.993937280158651e-06,0.0,0.0,0.0,3.993937280158651e-06,0.0,23.217747355350337,1.505168776334822,0.0032357732918189275,0.0
10941,3.1034482758620694,8.275862068965518,2.142857142857143,0,765988.5775590137,1271783.8431703316,478569.21545482305,536286.5519829259,256774.58641633016,5.106590517060092e-06,0.0,0.0,0.0,5.106590517060092e-06,0.0,24.98825970413545,1.8261337418786818,0.013764426206018787,0.0
10942,3.1034482758620694,8.275862068965518,2.5,0,707111.5834526838,1092924.184432445,840229.2413813291,294181.18885109987,947663.3563712058,4.714077223017891e-06,0.0,0.0,0.0,4.714077223017891e-06,0.0,23.756181658918464,2.1371474165515516,0.09476633563712059,0.0
10943,3.1034482758620694,8.275862068965518,2.857142857142857,0,450247.149688942,847266.3527351328,663483.2658866583,334197.49683507957,355596.0914940191,3.0016476645929467e-06,0.0,0.0,0.0,3.0016476645929467e-06,0.0,23.599973311594276,2.433276599021539,0.019061762415156395,0.0
10944,3.1034482758620694,8.275862068965518,3.2142857142857144,0,330808.0202896483,691606.6812480035,443547.98344350344,316014.0040949765,86400.75837201583,2.2053868019309887e-06,0.0,0.0,0.0,2.2053868019309887e-06,0.0,23.353685039715813,2.7194544906205365,0.003412613815919904,0.0
10945,3.1034482758620694,8.275862068965518,3.5714285714285716,0,292372.43249222415,497183.72636051715,299141.3331911836,161379.82947398606,16723.8514862608,1.949149549948161e-06,0.0,0.0,0.0,1.949149549948161e-06,0.0,24.0416896281507,3.005432643427895,0.0005888085240806966,0.0
10946,3.1034482758620694,8.275862068965518,3.928571428571429,0,339051.24230346014,425612.10301751015,113225.92117967433,65049.49393332485,14088.460833462193,2.260341615356401e-06,0.0,0.0,0.0,2.260341615356401e-06,0.0,23.988430885151185,3.297360068743514,0.0004776451352325867,0.0
10947,3.1034482758620694,8.275862068965518,4.285714285714286,0,97698.27457492413,366098.87667105213,361454.4014200465,266161.19717209693,-32150.12690760131,6.513218304994942e-07,0.0,0.0,0.0,6.513218304994942e-07,0.0,23.91515637409584,3.595419003322787,-0.0010772428215181133,0.0
10948,3.1034482758620694,8.275862068965518,4.642857142857143,0,212043.36793747984,230441.49661718647,261064.41440885683,35374.564118579954,16595.817992384404,1.4136224529165322e-06,0.0,0.0,0.0,1.4136224529165322e-06,0.0,24.729241371865925,3.897058387479077,0.0005540685219812961,0.0
10949,3.1034482758620694,8.275862068965518,5.0,0,283281.0710158514,308896.9118196775,157819.73708916944,-17898.378247163153,68912.70504776012,1.8885404734390093e-06,0.0,0.0,0.0,1.8885404734390093e-06,0.0,24.314073200655983,4.200119972737338,0.0022981944689807357,0.0
10950,3.4482758620689657,8.275862068965518,0.0,0,231861.70658536672,473784.4262158408,293834.50252981007,212131.3652899125,-74134.27202201643,1.5457447105691113e-06,0.0,0.0,0.0,1.5457447105691113e-06,0.0,23.45550176951867,-0.049876929541597524,-0.0024723303751439255,0.0
10951,3.4482758620689657,8.275862068965518,0.35714285714285715,0,297451.40668577806,382855.94505958445,195164.91002246368,39899.2157010733,1192.5578179742304,1.983009377905187e-06,0.0,0.0,0.0,1.983009377905187e-06,0.0,25.0060212027863,0.2542175066035291,3.981477429346566e-05,0.0
10952,3.4482758620689657,8.275862068965518,0.7142857142857143,0,91640.71314847987,346345.3757593242,300782.5277372448,240853.36919411767,-41518.195920126105,6.109380876565325e-07,0.0,0.0,0.0,6.109380876565325e-07,0.0,23.216187569667436,0.5597708653792806,-0.0013911353645936623,0.0
10953,3.4482758620689657,8.275862068965518,1.0714285714285714,0,247381.08938087808,466729.4892286377,334258.2450321434,181322.8597433628,37963.01946551848,1.6492072625391872e-06,0.0,0.0,0.0,1.6492072625391872e-06,0.0,23.920675368617566,0.8689971216858228,0.0012870711556635535,0.0
10954,3.4482758620689657,8.275862068965518,1.4285714285714286,0,176670.34531004628,343073.51849379385,400675.5361508596,202393.21099705357,56153.8029406227,1.1778023020669752e-06,0.0,0.0,0.0,1.1778023020669752e-06,0.0,23.618173701300414,1.1845132041022122,0.0019770468458267148,0.0
10955,3.4482758620689657,8.275862068965518,1.7857142857142858,0,368956.29690294067,606345.8479370886,424039.1415769318,181722.93447239505,58779.51657103385,2.4597086460196043e-06,0.0,0.0,0.0,2.4597086460196043e-06,0.0,24.173259027875496,1.5061321704820738,0.0023216438619637434,0.0
10956,3.4482758620689657,8.275862068965518,2.142857142857143,0,645908.9258810428,966679.8321758818,580679.0807703361,221003.3257522608,360546.39607724355,4.306059505873619e-06,0.0,0.0,0.0,4.306059505873619e-06,0.0,24.310822947086304,1.8275462407730971,0.019327123964693202,0.0
10957,3.4482758620689657,8.275862068965518,2.5,0,564727.566902053,1009204.2303301423,636358.6475605685,359470.6864519286,541177.3393165687,3.7648504460136865e-06,0.0,0.0,0.0,3.7648504460136865e-06,0.0,23.791038071593185,2.1387520757902956,0.054117733931656864,0.0
10958,3.4482758620689657,8.275862068965518,2.857142857142857,0,651235.120572748,959719.0371283073,522581.79590170557,211253.76950070565,133008.83950112268,4.3415674704849865e-06,0.0,0.0,0.0,4.3415674704849865e-06,0.0,24.52745129814066,2.434689097915954,0.00712995153302666,0.0
10959,3.4482758620689657,8.275862068965518,3.2142857142857144,0,188749.97861958953,611127.6560889846,442286.29626311205,407350.36413461936,49728.36038495558,1.2583331907972636e-06,0.0,0.0,0.0,1.2583331907972636e-06,0.0,24.106493025465788,2.7204178847677882,0.001964145834948,0.0
10960,3.4482758620689657,8.275862068965518,3.5714285714285716,0,195461.31722725765,319206.0153072319,291723.8444920775,111458.03763115914,-3901.0166357046837,1.3030754481817177e-06,0.0,0.0,0.0,1.3030754481817177e-06,0.0,24.7421956275962,3.0059417755307836,-0.0001373458649504596,0.0
10961,3.4482758620689657,8.275862068965518,3.928571428571429,0,197965.88309304405,395273.27600375103,204041.38493616408,191198.74967597565,1885.7633256346276,1.3197725539536269e-06,0.0,0.0,0.0,1.3197725539536269e-06,0.0,24.480966561270893,3.2975685502572523,6.393357580624042e-05,0.0
10962,3.4482758620689657,8.275862068965518,4.285714285714286,0,84354.78780469159,271868.3895051926,174466.7266407666,222521.58670513882,-121375.81268672693,5.623652520312773e-07,0.0,0.0,0.0,5.623652520312773e-07,0.0,23.785538131728387,3.5954851510935666,-0.004066896012525225,0.0
10963,3.4482758620689657,8.275862068965518,4.642857142857143,0,259327.96470487854,381272.44580336264,250306.65810513965,82579.42113354107,-63674.0247214926,1.7288530980325235e-06,0.0,0.0,0.0,1.7288530980325235e-06,0.0,24.5534846853021,3.8970746494606723,-0.002125823070741516,0.0
10964,3.4482758620689657,8.275862068965518,5.0,0,273143.71441582893,470379.8708744065,226241.13579981786,175380.7567577258,-54722.11620546977,1.8209580961055262e-06,0.0,0.0,0.0,1.8209580961055262e-06,0.0,23.70801097204096,4.200123070458402,-0.0018249474419437172,0.0
10965,3.793103448275862,8.275862068965518,0.0,0,228153.75407443263,338838.5297446049,169357.84607352136,79423.17854869907,2983.3875294132627,1.5210250271628842e-06,0.0,0.0,0.0,1.5210250271628842e-06,0.0,24.31579128991031,-0.04987434892611723,9.949405866700218e-05,0.0
10966,3.793103448275862,8.275862068965518,0.35714285714285715,0,164795.45021227206,274954.9049467367,311011.2301402377,131173.0045967693,21016.278492211735,1.0986363347484805e-06,0.0,0.0,0.0,1.0986363347484805e-06,0.0,24.270519866985495,0.25423105395675066,0.0007016501607254637,0.0
10967,3.793103448275862,8.275862068965518,0.7142857142857143,0,255626.69281965215,351085.327284383,379837.8370390406,111050.54472618889,-41874.937706416924,1.7041779521310144e-06,0.0,0.0,0.0,1.7041779521310144e-06,0.0,23.75348981213526,0.5598259710384721,-0.00140308858423481,0.0
10968,3.793103448275862,8.275862068965518,1.0714285714285714,0,224279.30588086153,309379.87263782835,331244.09860821237,96833.4099978879,-10000.3791795494,1.4951953725390768e-06,0.0,0.0,0.0,1.4951953725390768e-06,0.0,23.01957731579899,0.8691708011780938,-0.0003390457284196584,0.0
10969,3.793103448275862,8.275862068965518,1.4285714285714286,0,273596.9250158615,482579.4548175284,239785.14525396546,186129.537101826,-19546.298230655724,1.8239795001057434e-06,0.0,0.0,0.0,1.8239795001057434e-06,0.0,24.760334128571284,1.1849373462889363,-0.0006881804123821941,0.0
10970,3.793103448275862,8.275862068965518,1.7857142857142858,0,442045.5706425281,599539.8115169313,426271.60924693174,97107.82187566427,190622.32451172674,2.9469704709501873e-06,0.0,0.0,0.0,2.9469704709501873e-06,0.0,24.235632629531857,1.50693474430913,0.007529104958205805,0.0
10971,3.793103448275862,8.275862068965518,2.142857142857143,0,600754.7854845554,1228382.7452074625,922771.1501089096,536264.9071949837,310017.8116380125,4.005031903230369e-06,0.0,0.0,0.0,4.005031903230369e-06,0.0,24.041224536026128,1.8287229498559139,0.016618534374441784,0.0
10972,3.793103448275862,8.275862068965518,2.5,0,1012732.5285693092,1327560.7338727284,501105.01754031976,197844.64403171113,575460.4117869039,6.751550190462061e-06,0.0,0.0,0.0,6.751550190462061e-06,0.0,24.045051454807332,2.140088867704627,0.05754604117869039,0.0
10973,3.793103448275862,8.275862068965518,2.857142857142857,0,707193.7546601106,887344.6129753763,784031.531518585,134176.98036732158,270547.874125004,4.714625031067404e-06,0.0,0.0,0.0,4.714625031067404e-06,0.0,24.527806248940248,2.435865806998771,0.014502744607875434,0.0
10974,3.793103448275862,8.275862068965518,3.2142857142857144,0,472622.5030983534,706250.4608923903,253545.53866908464,215955.35358454936,-52367.60255548452,3.150816687322356e-06,0.0,0.0,0.0,3.150816687322356e-06,0.0,25.13779120905865,2.7212204585948445,-0.00206838929836675,0.0
10975,3.793103448275862,8.275862068965518,3.5714285714285716,0,285167.1684703922,397377.0461525306,447172.40616158507,140387.10570415904,33304.03202640628,1.9011144564692813e-06,0.0,0.0,0.0,1.9011144564692813e-06,0.0,24.501261960160782,3.006365917717508,0.0011725587230617632,0.0
10976,3.793103448275862,8.275862068965518,3.928571428571429,0,178315.87109084334,373655.02504440455,227853.24334278234,174845.7142116056,-9650.415870838535,1.1887724739389557e-06,0.0,0.0,0.0,1.1887724739389557e-06,0.0,24.23840127235634,3.297742229749523,-0.0003271808218204493,0.0
10977,3.793103448275862,8.275862068965518,4.285714285714286,0,233408.38924836178,334194.1967059975,412759.72929053364,150205.67288510324,-13985.448722942065,1.5560559283224119e-06,0.0,0.0,0.0,1.5560559283224119e-06,0.0,24.202340480954195,3.595540256752758,-0.00046860543617129513,0.0
10978,3.793103448275862,8.275862068965518,4.642857142857143,0,369558.15530376474,414133.0452875879,375467.01075399615,26762.07687769754,6548.587036956533,2.4637210353584317e-06,0.0,0.0,0.0,2.4637210353584317e-06,0.0,24.246106925484103,3.8970881968138937,0.00021863134087740597,0.0
10979,3.793103448275862,8.275862068965518,5.0,0,234224.03558221486,461910.3633411239,243669.79215830163,214445.6211865195,-56646.42405511133,1.5614935705480991e-06,0.0,0.0,0.0,1.5614935705480991e-06,0.0,23.566934189746252,4.200125651073883,-0.0018891218732564553,0.0
10980,4.137931034482759,8.275862068965518,0.0,0,255449.16337597434,404336.0554098719,193889.0967270849,120120.02523085495,61730.38804427143,1.7029944225064956e-06,0.0,0.0,0.0,1.7029944225064956e-06,0.0,24.324689415721064,-0.049872346665654245,0.002058668808212606,0.0
10981,4.137931034482759,8.275862068965518,0.35714285714285715,0,223930.3552080074,413014.61700723093,257685.34504734806,156326.47157142524,-63487.44316056185,1.4928690347200492e-06,0.0,0.0,0.0,1.4928690347200492e-06,0.0,23.381614382607406,0.2542415651429157,-0.002119593852649265,0.0
10982,4.137931034482759,8.275862068965518,0.7142857142857143,0,160437.83155843412,414409.9063120209,232275.40856917267,294007.2463450831,62146.76065696067,1.0695855437228942e-06,0.0,0.0,0.0,1.0695855437228942e-06,0.0,24.26258228881468,0.5598687266847618,0.0020823293167930466,0.0
10983,4.137931034482759,8.275862068965518,1.0714285714285714,0,170434.9871947653,400150.48455023015,223343.96003602413,236896.20675569164,-307.001445820536,1.136233247965102e-06,0.0,0.0,0.0,1.136233247965102e-06,0.0,23.810568999363383,0.8693055564654508,-1.0408358218753254e-05,0.0
10984,4.137931034482759,8.275862068965518,1.4285714285714286,0,155982.36213588406,323403.8799946889,154290.97947811635,185171.38799854767,-10914.964424357331,1.039882414239227e-06,0.0,0.0,0.0,1.039882414239227e-06,0.0,24.483981774001375,1.1852664317872006,-0.0003842909092070687,0.0
10985,4.137931034482759,8.275862068965518,1.7857142857142858,0,636441.4152716883,804090.1864473966,358241.8099513023,75229.15040619139,103467.33803224323,4.242942768477922e-06,0.0,0.0,0.0,4.242942768477922e-06,0.0,24.246186267243203,1.5075574491850832,0.004086701018814798,0.0
10986,4.137931034482759,8.275862068965518,2.142857142857143,0,977774.309228246,1209728.1860621534,424823.07891424786,114434.55559625853,304478.5514207676,6.518495394854973e-06,0.0,0.0,0.0,6.518495394854973e-06,0.0,23.88518191125618,1.8296359406098435,0.01632160180194576,0.0
10987,4.137931034482759,8.275862068965518,2.5,0,291172.5300451817,997008.2105422042,847550.1442092602,661457.0980593422,700963.3142786392,1.941150200301211e-06,0.0,0.0,0.0,1.941150200301211e-06,0.0,23.560051406346936,2.1411260643027785,0.07009633142786392,0.0
10988,4.137931034482759,8.275862068965518,2.857142857142857,0,527032.1280144423,823024.5580977877,798449.0789394781,284134.5983110685,362640.3868180368,3.5135475200962817e-06,0.0,0.0,0.0,3.5135475200962817e-06,0.0,24.808148614213657,2.4367787977527002,0.019439372538159902,0.0
10989,4.137931034482759,8.275862068965518,3.2142857142857144,0,397801.35896596994,673467.2904273487,508865.37593825493,219783.00223610154,105963.97278679299,2.652009059773133e-06,0.0,0.0,0.0,2.652009059773133e-06,0.0,24.03160519044603,2.7218431634707976,0.004185311846048483,0.0
10990,4.137931034482759,8.275862068965518,3.5714285714285716,0,344880.8191596034,464979.91875395126,321867.68137321644,71582.30948458903,48828.54212040594,2.2992054610640227e-06,0.0,0.0,0.0,2.2992054610640227e-06,0.0,24.949435550456766,3.006695003215772,0.0017191411824332434,0.0
10991,4.137931034482759,8.275862068965518,3.928571428571429,0,162785.96240279268,345857.5198743744,190810.06794721354,176303.98736109785,-6051.197081827771,1.0852397493519512e-06,0.0,0.0,0.0,1.0852397493519512e-06,0.0,23.46871580130347,3.29787698503688,-0.00020515547316593362,0.0
10992,4.137931034482759,8.275862068965518,4.285714285714286,0,41108.012275537134,262370.0394751924,259251.4128603482,219791.53188907192,33748.91334009547,2.740534151702476e-07,0.0,0.0,0.0,2.740534151702476e-07,0.0,23.962524549719948,3.5955830123990475,0.001130812787586822,0.0
10993,4.137931034482759,8.275862068965518,4.642857142857143,0,107975.77654206265,370036.4074780368,299391.0389583449,245743.5470359491,18060.69881760989,7.198385102804177e-07,0.0,0.0,0.0,7.198385102804177e-07,0.0,22.968384335090995,3.8970987080000588,0.0006029750810966032,0.0
10994,4.137931034482759,8.275862068965518,5.0,0,245586.06811011533,387098.14279135887,203174.94218389798,108209.52716208225,46508.28418014794,1.6372404540674354e-06,0.0,0.0,0.0,1.6372404540674354e-06,0.0,24.476583414168317,4.200127653334346,0.0015510214174661013,0.0
10995,4.482758620689656,8.275862068965518,0.0,0,184457.13702462005,387212.1814562446,244736.1855458698,178861.53513727713,-12418.027111934445,1.2297142468308003e-06,0.0,0.0,0.0,1.2297142468308003e-06,0.0,24.47153446731035,-0.049870977046245824,-0.0004141332313761521,0.0
10996,4.482758620689656,8.275862068965518,0.35714285714285715,0,202602.29265485832,361820.8265442092,226897.63153690507,128846.42719196723,46187.333334561255,1.3506819510323887e-06,0.0,0.0,0.0,1.3506819510323887e-06,0.0,23.754628784457637,0.25424875517879925,0.001542011820488821,0.0
10997,4.482758620689656,8.275862068965518,0.7142857142857143,0,142440.25315057128,320878.19667538826,350292.07931504864,195441.12867393479,-26224.333660110722,9.496016876704752e-07,0.0,0.0,0.0,9.496016876704752e-07,0.0,23.734729129616554,0.5598979731110191,-0.0008786893832686835,0.0
10998,4.482758620689656,8.275862068965518,1.0714285714285714,0,243325.78063878155,419029.41349033633,304208.5489588947,139538.9003423768,-69930.03892594283,1.6221718709252104e-06,0.0,0.0,0.0,1.6221718709252104e-06,0.0,23.87243369958632,0.8693977340119609,-0.0023708582005117196,0.0
10999,4.482758620689656,8.275862068965518,1.4285714285714286,0,285218.8596650723,411552.5868637794,333830.60485598515,95528.70504794606,-50333.53370708031,1.9014590644338152e-06,0.0,0.0,0.0,1.9014590644338152e-06,0.0,23.951442248693063,1.185491538307449,-0.0017721284907474557,0.0
11000,4.482758620689656,8.275862068965518,1.7857142857142858,0,277967.3751817778,527773.0120830921,207533.61463826892,386385.8494564597,41981.9123486528,1.8531158345451855e-06,0.0,0.0,0.0,1.8531158345451855e-06,0.0,23.796368994044546,1.5079834021015954,0.0016581805159959543,0.0
11001,4.482758620689656,8.275862068965518,2.142857142857143,0,407946.5477011834,830961.610959203,633278.1316188861,361834.417512848,347788.9401141975,2.719643651341223e-06,0.0,0.0,0.0,2.719643651341223e-06,0.0,24.621312420843633,1.8302604596868617,0.01864325932049057,0.0
11002,4.482758620689656,8.275862068965518,2.5,0,335321.80045993556,660162.6242520205,678615.2728375797,334448.1557413163,586913.1015791302,2.2354786697329038e-06,0.0,0.0,0.0,2.2354786697329038e-06,0.0,23.851163136549843,2.1418355447212565,0.05869131015791302,0.0
11003,4.482758620689656,8.275862068965518,2.857142857142857,0,395187.8527800344,830687.7285144989,575259.0717971558,375497.30945518636,392977.3330273299,2.6345856852002295e-06,0.0,0.0,0.0,2.6345856852002295e-06,0.0,23.14216307765887,2.4374033168297187,0.02106558743442979,0.0
11004,4.482758620689656,8.275862068965518,3.2142857142857144,0,480611.5663743725,661996.0996576474,225371.7208964878,147024.43944156327,-8567.353726547823,3.2040771091624836e-06,0.0,0.0,0.0,3.2040771091624836e-06,0.0,23.967627854254555,2.72226911638731,-0.0003383890401424938,0.0
11005,4.482758620689656,8.275862068965518,3.5714285714285716,0,237713.4523091878,433807.1928342532,195971.13180238678,196216.53926065247,75153.44491880434,1.5847563487279186e-06,0.0,0.0,0.0,1.5847563487279186e-06,0.0,23.843585376129163,3.0069201097360208,0.0026459807430468255,0.0
11006,4.482758620689656,8.275862068965518,3.928571428571429,0,290101.87756058335,455847.37308444694,239923.44508284246,126093.29391395673,47248.20133325945,1.9340125170705557e-06,0.0,0.0,0.0,1.9340125170705557e-06,0.0,23.450624378072597,3.29796916258339,0.0016018693441457515,0.0
11007,4.482758620689656,8.275862068965518,4.285714285714286,0,235599.87790010858,321430.5517864713,313106.83329739264,81779.11899475346,31732.754013477163,1.5706658526673905e-06,0.0,0.0,0.0,1.5706658526673905e-06,0.0,24.203812430930324,3.5956122588253048,0.001063258056998096,0.0
11008,4.482758620689656,8.275862068965518,4.642857142857143,0,151484.18017221306,371156.38807877223,196794.01553627703,296049.104385465,42787.15103586967,1.0098945344814204e-06,0.0,0.0,0.0,1.0098945344814204e-06,0.0,23.150971636870878,3.8971058980359423,0.0014284932231188373,0.0
11009,4.482758620689656,8.275862068965518,5.0,0,281812.1409383197,391737.6219557374,209643.55279192267,67132.46770816257,-52501.880635865884,1.8787476062554645e-06,0.0,0.0,0.0,1.8787476062554645e-06,0.0,24.309169809585054,4.200129022953754,-0.0017509040111661615,0.0
11010,4.827586206896552,8.275862068965518,0.0,0,284693.6891610273,481370.08610612113,346208.5269583893,154272.42587767958,22909.62169478714,1.897957927740182e-06,0.0,0.0,0.0,1.897957927740182e-06,0.0,24.046216861763902,-0.04987028112927476,0.0007640211747443542,0.0
11011,4.827586206896552,8.275862068965518,0.35714285714285715,0,177276.56513850568,337338.2371279091,210029.84301447176,134862.53547445967,24273.649064691308,1.181843767590038e-06,0.0,0.0,0.0,1.181843767590038e-06,0.0,23.785804378444173,0.25425240850611275,0.0008104008411358735,0.0
11012,4.827586206896552,8.275862068965518,0.7142857142857143,0,179993.30706780174,260207.61193696206,221753.3202400163,64094.79347261951,31821.57313450062,1.1999553804520116e-06,0.0,0.0,0.0,1.1999553804520116e-06,0.0,23.499255599554964,0.5599128335052644,0.0010662340875690185,0.0
11013,4.827586206896552,8.275862068965518,1.0714285714285714,0,246911.39964335627,396307.68095426634,229381.12750660453,112677.26509564916,28913.5861391316,1.646075997622375e-06,0.0,0.0,0.0,1.646075997622375e-06,0.0,23.34526206021136,0.8694445703217947,0.0009802656177091197,0.0
11014,4.827586206896552,8.275862068965518,1.4285714285714286,0,441937.48307303723,540707.614750329,169676.38137666072,51777.0893315047,22454.375098203076,2.9462498871535815e-06,0.0,0.0,0.0,2.9462498871535815e-06,0.0,24.52253464844199,1.1856059171244944,0.0007905671412825604,0.0
11015,4.827586206896552,8.275862068965518,1.7857142857142858,0,68627.94085056659,527684.797387637,459358.27754216245,458759.3557188794,82233.36811124098,4.57519605670444e-07,0.0,0.0,0.0,4.57519605670444e-07,0.0,23.936680880457303,1.5081998329302273,0.003248012325745294,0.0
11016,4.827586206896552,8.275862068965518,2.142857142857143,0,615171.5674854983,976312.5244466534,475884.93427202926,289503.6908092237,414851.4015223648,4.101143783236655e-06,0.0,0.0,0.0,4.101143783236655e-06,0.0,23.251798091818138,1.8305777839170656,0.022238148963307638,0.0
11017,4.827586206896552,8.275862068965518,2.5,0,759199.5940283003,1224986.8176530772,682421.4694595744,357381.1138337741,506088.3552251501,5.061330626855335e-06,0.0,0.0,0.0,5.061330626855335e-06,0.0,24.08999447660968,2.142196038637172,0.05060883552251501,0.0
11018,4.827586206896552,8.275862068965518,2.857142857142857,0,346372.6104607986,1005727.5201804566,659285.5622365852,659424.298880081,345866.30972799426,2.309150736405324e-06,0.0,0.0,0.0,2.309150736405324e-06,0.0,23.96402861459088,2.4377206410599226,0.018540196535182695,0.0
11019,4.827586206896552,8.275862068965518,3.2142857142857144,0,464480.01575447473,578237.8357083835,613999.9586783153,132672.5810403458,28224.543648324925,3.096533438363165e-06,0.0,0.0,0.0,3.096533438363165e-06,0.0,24.81184438923448,2.7224855472159417,0.0011147988677088362,0.0
11020,4.827586206896552,8.275862068965518,3.5714285714285716,0,144602.58399436728,338764.98051741195,171860.64824207945,259449.8663061897,-1039.419797011652,9.640172266291151e-07,0.0,0.0,0.0,9.640172266291151e-07,0.0,23.904118134237898,3.007034488553066,-3.659559145699674e-05,0.0
11021,4.827586206896552,8.275862068965518,3.928571428571429,0,142632.22753173922,333336.25935005094,295810.02781159995,175692.65974469477,-90333.40660480078,9.508815168782615e-07,0.0,0.0,0.0,9.508815168782615e-07,0.0,24.604528492223785,3.298015998893224,-0.003062599436787943,0.0
11022,4.827586206896552,8.275862068965518,4.285714285714286,0,327765.12188104424,359058.79596538475,287368.2595972914,1382.3214508501987,-28627.509185079405,2.185100812540295e-06,0.0,0.0,0.0,2.185100812540295e-06,0.0,24.010174647396692,3.59562711921955,-0.000959211727412478,0.0
11023,4.827586206896552,8.275862068965518,4.642857142857143,0,250167.3320743539,387397.5158396459,187645.01224712055,106806.30334950851,-14304.711011731923,1.667782213829026e-06,0.0,0.0,0.0,1.667782213829026e-06,0.0,23.533483333755377,3.897109551363256,-0.00047757754943305084,0.0
11024,4.827586206896552,8.275862068965518,5.0,0,165090.1337359572,349673.374293239,268748.05244088673,159734.7237591123,-13869.86310426483,1.1006008915730481e-06,0.0,0.0,0.0,1.1006008915730481e-06,0.0,24.364805000636068,4.200129718870725,-0.00046255102959098646,0.0
11025,5.172413793103448,8.275862068965518,0.0,0,183281.36277891826,293810.30842329777,327091.87414932536,129450.23222974376,-10603.768669254701,1.221875751859455e-06,0.0,0.0,0.0,1.221875751859455e-06,0.0,24.671550153057183,-0.04987028112927476,-0.0003536288771300302,0.0
11026,5.172413793103448,8.275862068965518,0.35714285714285715,0,205174.4896294319,353358.95874388044,173965.95470795152,129646.84654590096,-37687.04494498251,1.3678299308628792e-06,0.0,0.0,0.0,1.3678299308628792e-06,0.0,24.520923435245802,0.25425240850611275,-0.00125822091445515,0.0
11027,5.172413793103448,8.275862068965518,0.7142857142857143,0,246972.91446561244,373930.2144655552,238742.0297634057,88876.38672113954,-10601.630539619466,1.6464860964374163e-06,0.0,0.0,0.0,1.6464860964374163e-06,0.0,24.22919477943148,0.5599128335052644,-0.00035522504866044853,0.0
11028,5.172413793103448,8.275862068965518,1.0714285714285714,0,236005.94778424446,353658.082889556,256703.46920198208,84616.364698291,35888.53585868847,1.5733729852282963e-06,0.0,0.0,0.0,1.5733729852282963e-06,0.0,24.575591871435986,0.8694445703217947,0.0012167393419448647,0.0
11029,5.172413793103448,8.275862068965518,1.4285714285714286,0,184119.06113764804,318104.27985576814,308200.58315902867,129233.24744001184,-6602.954453563649,1.2274604075843203e-06,0.0,0.0,0.0,1.2274604075843203e-06,0.0,24.166846040094356,1.1856059171244944,-0.0002324749098357453,0.0
11030,5.172413793103448,8.275862068965518,1.7857142857142858,0,82316.01923271641,527336.7230183916,467222.2525753456,433517.3136272636,128675.38112688411,5.487734615514427e-07,0.0,0.0,0.0,5.487734615514427e-07,0.0,24.12737966207575,1.5081998329302273,0.005082355660718246,0.0
11031,5.172413793103448,8.275862068965518,2.142857142857143,0,682220.3688547525,964396.9768041869,594465.3387053895,177112.66307737093,405690.9704024558,4.548135792365017e-06,0.0,0.0,0.0,4.548135792365017e-06,0.0,23.35484788110868,1.8305777839170656,0.02174710317904584,0.0
11032,5.172413793103448,8.275862068965518,2.5,0,443169.91068146,690050.365788556,765686.1333611177,289565.8508462932,494403.6984220814,2.954466071209733e-06,0.0,0.0,0.0,2.954466071209733e-06,0.0,24.20204311653713,2.142196038637172,0.04944036984220815,0.0
11033,5.172413793103448,8.275862068965518,2.857142857142857,0,124828.70171455522,471320.5781907929,419711.1984440772,328963.0731932997,351930.06813745084,8.321913447637015e-07,0.0,0.0,0.0,8.321913447637015e-07,0.0,24.85459932741353,2.4377206410599226,0.018865244883319313,0.0
11034,5.172413793103448,8.275862068965518,3.2142857142857144,0,566141.7732788873,712230.8100773365,400980.7859688423,58751.32699695777,-14209.117098255105,3.774278488525915e-06,0.0,0.0,0.0,3.774278488525915e-06,0.0,23.28734897558936,2.7224855472159417,-0.000561224579913346,0.0
11035,5.172413793103448,8.275862068965518,3.5714285714285716,0,216234.00455970486,421057.532821972,230999.52151275793,185794.405139891,-35456.16241184254,1.4415600303980324e-06,0.0,0.0,0.0,1.4415600303980324e-06,0.0,23.45400690163913,3.007034488553066,-0.0012483303069531282,0.0
11036,5.172413793103448,8.275862068965518,3.928571428571429,0,284736.5460819745,368589.0544438826,149242.11026730062,46806.9091831139,3883.7076679704624,1.8982436405464968e-06,0.0,0.0,0.0,1.8982436405464968e-06,0.0,23.95128599074647,3.298015998893224,0.00013167045685115602,0.0
11037,5.172413793103448,8.275862068965518,4.285714285714286,0,170327.56384450351,250337.09468049015,190845.56062516462,58242.79197414794,16229.813158347984,1.1355170922966902e-06,0.0,0.0,0.0,1.1355170922966902e-06,0.0,23.441701047558723,3.59562711921955,0.000543806553848375,0.0
11038,5.172413793103448,8.275862068965518,4.642857142857143,0,270064.83935241366,364944.8044520239,239762.40477157792,55003.564057672775,51310.50598512309,1.8004322623494245e-06,0.0,0.0,0.0,1.8004322623494245e-06,0.0,24.466437328008304,3.897109551363256,0.0017130542300678115,0.0
11039,5.172413793103448,8.275862068965518,5.0,0,279922.1229845992,335474.3655925638,250293.24162532573,22856.903049086497,-5179.533317612226,1.8661474865639947e-06,0.0,0.0,0.0,1.8661474865639947e-06,0.0,23.26526088449461,4.200129718870725,-0.00017273411070118432,0.0
11040,5.517241379310345,8.275862068965518,0.0,0,69097.68426995305,211148.7385428209,137948.54523171284,202040.25416960535,5426.294974802331,4.606512284663537e-07,0.0,0.0,0.0,4.606512284663537e-07,0.0,24.392742346281427,-0.049870977046245824,0.0001809634535388771,0.0
11041,5.517241379310345,8.275862068965518,0.35714285714285715,0,240053.65476566824,397212.5212368542,158428.0807587393,155909.47126753928,3023.844615650212,1.6003576984377882e-06,0.0,0.0,0.0,1.6003576984377882e-06,0.0,24.559349774567213,0.25424875517879925,0.00010095417518215972,0.0
11042,5.517241379310345,8.275862068965518,0.7142857142857143,0,120669.1562429159,319978.93050677155,262043.8032987626,181267.63794789187,55628.8180857831,8.044610416194393e-07,0.0,0.0,0.0,8.044610416194393e-07,0.0,24.390365103823257,0.5598979731110191,0.0018639349426107083,0.0
11043,5.517241379310345,8.275862068965518,1.0714285714285714,0,99844.86781593654,294209.0730527159,256137.06381657874,180929.29297056454,43094.29671328077,6.656324521062436e-07,0.0,0.0,0.0,6.656324521062436e-07,0.0,24.076866264407403,0.8693977340119609,0.0014610383224034425,0.0
11044,5.517241379310345,8.275862068965518,1.4285714285714286,0,199055.16989957858,343245.68612843024,325800.6755917394,136042.16320529458,18951.083545865233,1.3270344659971906e-06,0.0,0.0,0.0,1.3270344659971906e-06,0.0,24.338519109183565,1.185491538307449,0.0006672242659855003,0.0
11045,5.517241379310345,8.275862068965518,1.7857142857142858,0,270898.9871516747,317523.30630456563,517844.0617009994,209621.2956240685,98255.60876354738,1.8059932476778312e-06,0.0,0.0,0.0,1.8059932476778312e-06,0.0,23.498467879523602,1.5079834021015954,0.0038808507503413883,0.0
11046,5.517241379310345,8.275862068965518,2.142857142857143,0,354592.4882642788,881586.2294312833,636426.1489372496,475002.256231619,324787.37049337645,2.3639499217618588e-06,0.0,0.0,0.0,2.3639499217618588e-06,0.0,24.21070926848049,1.8302604596868617,0.01741025798617994,0.0
11047,5.517241379310345,8.275862068965518,2.5,0,363396.4031376874,975819.1889346975,572153.4812491619,674752.0509837627,634686.7237773819,2.4226426875845826e-06,0.0,0.0,0.0,2.4226426875845826e-06,0.0,23.776390943480163,2.1418355447212565,0.0634686723777382,0.0
11048,5.517241379310345,8.275862068965518,2.857142857142857,0,570341.6788524457,757478.599690316,569749.6381537606,116935.04635154818,365143.5106106644,3.8022778590163044e-06,0.0,0.0,0.0,3.8022778590163044e-06,0.0,24.535708924682158,2.4374033168297187,0.019573552727909244,0.0
11049,5.517241379310345,8.275862068965518,3.2142857142857144,0,163998.33754303626,667910.7519861205,548914.3701033302,480837.6789519579,39962.2621373589,1.0933222502869085e-06,0.0,0.0,0.0,1.0933222502869085e-06,0.0,24.450172486181028,2.72226911638731,0.0015784093849983418,0.0
11050,5.517241379310345,8.275862068965518,3.5714285714285716,0,359032.3192781739,268546.52498525934,465218.5902429902,50821.9932491462,8359.953950449142,2.393548795187826e-06,0.0,0.0,0.0,2.393548795187826e-06,0.0,23.694600866190676,3.0069201097360208,0.0002943348397341649,0.0
11051,5.517241379310345,8.275862068965518,3.928571428571429,0,170779.7906154116,281384.2560601301,253258.07412492918,98287.36580979798,5376.267730625891,1.1385319374360772e-06,0.0,0.0,0.0,1.1385319374360772e-06,0.0,24.280357032783215,3.29796916258339,0.00018227314946584768,0.0
11052,5.517241379310345,8.275862068965518,4.285714285714286,0,125365.49969537095,257412.56769415253,250314.31788551764,128648.7485598418,4713.808181938899,8.357699979691396e-07,0.0,0.0,0.0,8.357699979691396e-07,0.0,24.305820467629548,3.5956122588253048,0.00015794388745652034,0.0
11053,5.517241379310345,8.275862068965518,4.642857142857143,0,145121.58610793715,291911.42862631695,261274.9416903545,133917.57755265434,-15698.656273984294,9.67477240719581e-07,0.0,0.0,0.0,9.67477240719581e-07,0.0,23.876960620315717,3.8971058980359423,-0.0005241158515241812,0.0
11054,5.517241379310345,8.275862068965518,5.0,0,85149.03603924421,313258.9344626352,217832.4857663858,245034.6641799641,10413.272713783846,5.676602402616281e-07,0.0,0.0,0.0,5.676602402616281e-07,0.0,24.129959975691676,4.200129022953754,0.0003472759593201299,0.0
11055,5.862068965517242,8.275862068965518,0.0,0,129088.18150344127,327476.07253333705,281270.1206195929,181643.65385926704,-15350.03051760902,8.605878766896085e-07,0.0,0.0,0.0,8.605878766896085e-07,0.0,24.287943224454477,-0.049872346665654245,-0.00051191366250687,0.0
11056,5.862068965517242,8.275862068965518,0.35714285714285715,0,130975.87394788914,280672.6871104738,271927.351622659,145543.3029546837,-17650.204800773434,8.731724929859276e-07,0.0,0.0,0.0,8.731724929859276e-07,0.0,23.808554174908647,0.2542415651429157,-0.0005892703144321876,0.0
11057,5.862068965517242,8.275862068965518,0.7142857142857143,0,59358.84718254387,249473.69522429694,233239.99677955228,183686.89702549134,-3588.509380355588,3.9572564788362577e-07,0.0,0.0,0.0,3.9572564788362577e-07,0.0,23.598714116889916,0.5598687266847618,-0.0001202389023548301,0.0
11058,5.862068965517242,8.275862068965518,1.0714285714285714,0,248655.46542027462,416832.78983973607,198377.54428893072,146243.7102294486,8598.701611075881,1.6577031028018309e-06,0.0,0.0,0.0,1.6577031028018309e-06,0.0,24.16029954498009,0.8693055564654508,0.0002915242511156336,0.0
11059,5.862068965517242,8.275862068965518,1.4285714285714286,0,419309.19057743764,536976.0241047897,143401.26569824602,95966.65682176087,48953.62088906527,2.795394603849584e-06,0.0,0.0,0.0,2.795394603849584e-06,0.0,24.79280777324592,1.1852664317872006,0.0017235449195286507,0.0
11060,5.862068965517242,8.275862068965518,1.7857142857142858,0,242774.5327060083,533790.2965932068,439256.3407435785,257969.22851862945,91507.42824431276,1.618496884706722e-06,0.0,0.0,0.0,1.618496884706722e-06,0.0,23.9795591578471,1.5075574491850832,0.0036143145010517014,0.0
11061,5.862068965517242,8.275862068965518,2.142857142857143,0,302138.1155651943,652462.7741209025,570911.252729443,317919.32817653887,375322.5813434454,2.014254103767962e-06,0.0,0.0,0.0,2.014254103767962e-06,0.0,23.884494197787035,1.8296359406098435,0.02011920278581661,0.0
11062,5.862068965517242,8.275862068965518,2.5,0,854842.9000903018,1171566.409015457,499754.6851811766,209355.39813025418,682323.5592009859,5.698952667268678e-06,0.0,0.0,0.0,5.698952667268678e-06,0.0,23.669012431463305,2.1411260643027785,0.06823235592009859,0.0
11063,5.862068965517242,8.275862068965518,2.857142857142857,0,164219.2408161936,546367.8329331754,364437.60458933184,501706.09947276,244968.0685878045,1.094794938774624e-06,0.0,0.0,0.0,1.094794938774624e-06,0.0,24.64508973643917,2.4367787977527002,0.013131536691254674,0.0
11064,5.862068965517242,8.275862068965518,3.2142857142857144,0,260088.31820506617,484175.370642741,431889.6877883284,201916.1712977406,91568.3691842478,1.7339221213671078e-06,0.0,0.0,0.0,1.7339221213671078e-06,0.0,24.512381789284888,2.7218431634707976,0.003616721515729535,0.0
11065,5.862068965517242,8.275862068965518,3.5714285714285716,0,220646.1609695237,311817.8829756108,137566.1182071847,63720.045869757465,31766.61696836163,1.4709744064634914e-06,0.0,0.0,0.0,1.4709744064634914e-06,0.0,24.00641231124254,3.006695003215772,0.0011184298585492796,0.0
11066,5.862068965517242,8.275862068965518,3.928571428571429,0,173499.3002959071,239430.12964427314,236885.04191676716,64672.286404711864,8176.999275743778,1.156662001972714e-06,0.0,0.0,0.0,1.156662001972714e-06,0.0,23.69056827116755,3.29787698503688,0.00027722715568635943,0.0
11067,5.862068965517242,8.275862068965518,4.285714285714286,0,122430.14822121091,285620.0342151962,262841.3953172075,153400.29061344988,27017.318724752204,8.162009881414061e-07,0.0,0.0,0.0,8.162009881414061e-07,0.0,23.690673782172404,3.5955830123990475,0.0009052596506555332,0.0
11068,5.862068965517242,8.275862068965518,4.642857142857143,0,63099.95099004978,249475.02969640616,244291.38916018003,183943.1489100502,2640.48540062072,4.206663399336652e-07,0.0,0.0,0.0,4.206663399336652e-07,0.0,23.66601201023575,3.8970987080000588,8.815533189785936e-05,0.0
11069,5.862068965517242,8.275862068965518,5.0,0,137675.07188149818,302305.76584897825,187514.8786853351,149664.773364788,20227.363751950594,9.178338125433212e-07,0.0,0.0,0.0,9.178338125433212e-07,0.0,23.85182835193441,4.200127653334346,0.0006745695944539799,0.0
11070,6.206896551724139,8.275862068965518,0.0,0,157723.55012353318,297350.2479191032,133121.23935434883,147056.98724627064,-41890.71357939291,1.0514903341568878e-06,0.0,0.0,0.0,1.0514903341568878e-06,0.0,23.722154574160115,-0.04987434892611723,-0.0013970284025724249,0.0
11071,6.206896551724139,8.275862068965518,0.35714285714285715,0,180653.59095384076,259043.15386303666,241789.1210126182,70381.57495796602,62.86365130383581,1.2043572730256051e-06,0.0,0.0,0.0,1.2043572730256051e-06,0.0,23.63823070413751,0.25423105395675066,2.0987679173299715e-06,0.0
11072,6.206896551724139,8.275862068965518,0.7142857142857143,0,152696.75773023313,274756.0001988592,278971.9515503951,124210.87522817249,21024.211691333305,1.0179783848682208e-06,0.0,0.0,0.0,1.0179783848682208e-06,0.0,24.569572411968483,0.5598259710384721,0.0007044507534186823,0.0
11073,6.206896551724139,8.275862068965518,1.0714285714285714,0,165085.41840234862,291609.44048407784,178987.53527121485,102105.3002937944,31637.152084341004,1.1005694560156575e-06,0.0,0.0,0.0,1.1005694560156575e-06,0.0,24.809375974659538,0.8691708011780938,0.0010726034564263619,0.0
11074,6.206896551724139,8.275862068965518,1.4285714285714286,0,246851.5602495967,412829.42499929504,284718.3197196691,128260.03758786347,-26117.85662691113,1.6456770683306446e-06,0.0,0.0,0.0,1.6456770683306446e-06,0.0,23.476817770485898,1.1849373462889363,-0.000919549938916682,0.0
11075,6.206896551724139,8.275862068965518,1.7857142857142858,0,313991.66196648945,493830.3200062185,517235.8488919447,192196.3650916741,49446.34642421745,2.093277746443263e-06,0.0,0.0,0.0,2.093277746443263e-06,0.0,23.74053815492539,1.50693474430913,0.0019530069889837855,0.0
11076,6.206896551724139,8.275862068965518,2.142857142857143,0,586986.9782033309,878414.2457384056,578930.5833659269,202093.01450004402,204226.74496328636,3.913246521355539e-06,0.0,0.0,0.0,3.913246521355539e-06,0.0,23.556995117747338,1.8287229498559139,0.010947594150866472,0.0
11077,6.206896551724139,8.275862068965518,2.5,0,474803.2103684483,991170.8543394626,550631.0302501264,488267.63548243826,477517.22071628424,3.1653547357896554e-06,0.0,0.0,0.0,3.1653547357896554e-06,0.0,24.194925504335426,2.140088867704627,0.04775172207162843,0.0
11078,6.206896551724139,8.275862068965518,2.857142857142857,0,627686.6417698967,840233.9128296606,684799.0875606325,149433.6904731966,308218.6214547572,4.184577611799312e-06,0.0,0.0,0.0,4.184577611799312e-06,0.0,23.870518826594687,2.435865806998771,0.01652208861299147,0.0
11079,6.206896551724139,8.275862068965518,3.2142857142857144,0,507550.15552019275,650204.2906225711,281182.37595646724,71391.06314554205,106309.87932812318,3.3836677034679516e-06,0.0,0.0,0.0,3.3836677034679516e-06,0.0,23.529841266564286,2.7212204585948445,0.0041989742891126725,0.0
11080,6.206896551724139,8.275862068965518,3.5714285714285716,0,165877.18649100896,275743.9035231238,156453.56431515818,86319.68234721226,36575.40430828808,1.1058479099400597e-06,0.0,0.0,0.0,1.1058479099400597e-06,0.0,24.876193741579524,3.006365917717508,0.0012877362517904635,0.0
11081,6.206896551724139,8.275862068965518,3.928571428571429,0,94613.50071137866,276791.93480341876,263676.6085357058,176305.0127587701,7006.321486378111,6.30756671409191e-07,0.0,0.0,0.0,6.30756671409191e-07,0.0,24.298473180320254,3.297742229749523,0.00023753733025935173,0.0
11082,6.206896551724139,8.275862068965518,4.285714285714286,0,243286.19647683974,401395.8932502387,183616.5750602806,138827.0233858611,-19310.94329800955,1.621907976512265e-06,0.0,0.0,0.0,1.621907976512265e-06,0.0,23.569633851180143,3.595540256752758,-0.0006470448811698383,0.0
11083,6.206896551724139,8.275862068965518,4.642857142857143,0,235590.65654097756,280578.38911006314,188335.44464174414,12823.465325218658,-4121.71089110627,1.5706043769398504e-06,0.0,0.0,0.0,1.5706043769398504e-06,0.0,24.817445457229926,3.8970881968138937,-0.00013760757454181683,0.0
11084,6.206896551724139,8.275862068965518,5.0,0,35482.359082633564,129232.26908668184,169937.299962063,153624.97661691564,75035.56372217086,2.3654906055089042e-07,0.0,0.0,0.0,2.3654906055089042e-07,0.0,23.49540110917992,4.200125651073883,0.0025023878746833444,0.0
11085,6.551724137931035,8.275862068965518,0.0,0,145379.79034596155,280230.91570597375,176840.6410329482,114001.40899365753,-40850.71858571658,9.691986023064103e-07,0.0,0.0,0.0,9.691986023064103e-07,0.0,24.271570790534167,-0.049876929541597524,-0.0013623452372464066,0.0
11086,6.551724137931035,8.275862068965518,0.35714285714285715,0,201126.68229277313,300030.0506568348,286479.97877908254,92470.95411010338,-35283.68025799326,1.3408445486184875e-06,0.0,0.0,0.0,1.3408445486184875e-06,0.0,25.17800053305511,0.2542175066035291,-0.0011779821024536423,0.0
11087,6.551724137931035,8.275862068965518,0.7142857142857143,0,183997.06895013855,139674.499544163,302603.29887370433,103047.51025945279,5137.367464028599,1.226647126334257e-06,0.0,0.0,0.0,1.226647126334257e-06,0.0,23.90821832145311,0.5597708653792806,0.0001721359370689471,0.0
11088,6.551724137931035,8.275862068965518,1.0714285714285714,0,315601.81847249466,382501.8121362828,319759.94684784097,40241.66839228648,21534.96399965169,2.1040121231499644e-06,0.0,0.0,0.0,2.1040121231499644e-06,0.0,23.83440538118929,0.8689971216858228,0.0007301060714461843,0.0
11089,6.551724137931035,8.275862068965518,1.4285714285714286,0,160021.2203337793,300806.1201284336,322128.73339410743,152515.23086654933,34712.15037264029,1.0668081355585285e-06,0.0,0.0,0.0,1.0668081355585285e-06,0.0,24.067082749108366,1.1845132041022122,0.00122213534635683,0.0
11090,6.551724137931035,8.275862068965518,1.7857142857142858,0,411053.22797852615,535679.2910146326,398728.38708644506,73632.88780222138,67431.20226828079,2.7403548531901742e-06,0.0,0.0,0.0,2.7403548531901742e-06,0.0,25.100764401693556,1.5061321704820738,0.002663363803984348,0.0
11091,6.551724137931035,8.275862068965518,2.142857142857143,0,437528.6842716636,711064.7005382272,307975.0822782735,245757.84088017177,167720.0205743572,2.916857895144424e-06,0.0,0.0,0.0,2.916857895144424e-06,0.0,24.730865853893494,1.8275462407730971,0.008990647706563196,0.0
11092,6.551724137931035,8.275862068965518,2.5,0,331682.79354906705,650471.5849586776,580515.9108513471,289390.80667072244,486358.4091056002,2.211218623660447e-06,0.0,0.0,0.0,2.211218623660447e-06,0.0,23.775795210855765,2.1387520757902956,0.048635840910560016,0.0
11093,6.551724137931035,8.275862068965518,2.857142857142857,0,374766.0044170969,585276.9491889692,842543.5457939307,412563.3016462489,149381.2075793806,2.4984400294473125e-06,0.0,0.0,0.0,2.4984400294473125e-06,0.0,24.154490385013982,2.434689097915954,0.008007593886096483,0.0
11094,6.551724137931035,8.275862068965518,3.2142857142857144,0,176318.43859869512,408645.23834003124,308061.2961898923,205055.04572917568,72799.23594729001,1.175456257324634e-06,0.0,0.0,0.0,1.175456257324634e-06,0.0,24.468414917976574,2.7204178847677882,0.0028753877056546776,0.0
11095,6.551724137931035,8.275862068965518,3.5714285714285716,0,209938.67503571534,427084.59008960146,351886.1794745395,189902.95430163443,20404.35007965253,1.3995911669047689e-06,0.0,0.0,0.0,1.3995911669047689e-06,0.0,23.797201193354425,3.0059417755307836,0.0007183904536043124,0.0
11096,6.551724137931035,8.275862068965518,3.928571428571429,0,216215.78202779236,293036.6744943175,214686.05307972993,48568.52540523602,-3619.7206280130517,1.441438546851949e-06,0.0,0.0,0.0,1.441438546851949e-06,0.0,23.450632106175824,3.2975685502572523,-0.00012272042839236086,0.0
11097,6.551724137931035,8.275862068965518,4.285714285714286,0,190843.50961693897,262488.83127545496,48173.730692903664,110912.55284357556,-34666.542301507354,1.2722900641129265e-06,0.0,0.0,0.0,1.2722900641129265e-06,0.0,24.56333766606527,3.5954851510935666,-0.0011615594535125595,0.0
11098,6.551724137931035,8.275862068965518,4.642857142857143,0,91965.46434675017,237537.26538170542,241924.9703164465,147844.1891455459,-23925.1694763812,6.131030956450012e-07,0.0,0.0,0.0,6.131030956450012e-07,0.0,24.28077882467145,3.8970746494606723,-0.000798766490209379,0.0
11099,6.551724137931035,8.275862068965518,5.0,0,149463.81810481002,361964.017466889,278433.0005598547,189407.2255372728,-47411.54197829085,9.964254540320669e-07,0.0,0.0,0.0,9.964254540320669e-07,0.0,24.190065551141736,4.200123070458402,-0.0015811444851111323,0.0
11100,6.8965517241379315,8.275862068965518,0.0,0,282653.79502045806,376163.2351357024,200819.99092762423,50092.30960900896,-1496.34141818094,1.8843586334697203e-06,0.0,0.0,0.0,1.8843586334697203e-06,0.0,24.471930738213448,-0.04988002726266219,-4.9902025592913535e-05,0.0
11101,6.8965517241379315,8.275862068965518,0.35714285714285715,0,260743.26732618472,359972.36186116276,275479.0783253363,67460.43038264052,92201.01250483311,1.7382884488412316e-06,0.0,0.0,0.0,1.7382884488412316e-06,0.0,23.35059041854306,0.2542012446219339,0.0030782260173722324,0.0
11102,6.8965517241379315,8.275862068965518,0.7142857142857143,0,197030.47722117198,320698.4223092356,106978.88555526371,146281.42884674517,-2976.3453971447802,1.3135365148078133e-06,0.0,0.0,0.0,1.3135365148078133e-06,0.0,23.812111593321195,0.5597047176085015,-9.972734237246926e-05,0.0
11103,6.8965517241379315,8.275862068965518,1.0714285714285714,0,165516.54590569515,318214.2212043744,127195.6784479249,217258.46371545867,-12443.821932139193,1.103443639371301e-06,0.0,0.0,0.0,1.103443639371301e-06,0.0,25.25179598470483,0.8687886401720843,-0.00042188647005850395,0.0
11104,6.8965517241379315,8.275862068965518,1.4285714285714286,0,102078.50015770608,264534.08966885944,258997.56926347854,159799.9998917601,11975.439089256754,6.805233343847072e-07,0.0,0.0,0.0,6.805233343847072e-07,0.0,24.221262124023493,1.1840040719993232,0.0004216277943604306,0.0
11105,6.8965517241379315,8.275862068965518,1.7857142857142858,0,354515.78110282996,476089.34119420947,398273.01086896576,89129.59493765827,-4860.941918306533,2.363438540685533e-06,0.0,0.0,0.0,2.363438540685533e-06,0.0,24.256178641740455,1.505168776334822,-0.00019199504566119526,0.0
11106,6.8965517241379315,8.275862068965518,2.142857142857143,0,549925.4835718933,640381.1559105333,720565.536837134,134949.84892084214,197013.09314385033,3.6661698904792885e-06,0.0,0.0,0.0,3.6661698904792885e-06,0.0,23.999828025583035,1.8261337418786818,0.010560905656766241,0.0
11107,6.8965517241379315,8.275862068965518,2.5,0,303058.81757419,554182.9614470277,722548.4855935868,372688.4105660262,449621.8023175773,2.0203921171612664e-06,0.0,0.0,0.0,2.0203921171612664e-06,0.0,23.031077962460646,2.1371474165515516,0.04496218023175773,0.0
11108,6.8965517241379315,8.275862068965518,2.857142857142857,0,552723.85691668,898677.2090127323,342193.84433654655,349791.18323873065,345449.76568122447,3.6848257127778667e-06,0.0,0.0,0.0,3.6848257127778667e-06,0.0,23.547378749395385,2.433276599021539,0.018517867651809388,0.0
11109,6.8965517241379315,8.275862068965518,3.2142857142857144,0,229112.06824947894,431024.7211508238,371828.8157628538,178123.7827926794,69444.8759051747,1.5274137883298596e-06,0.0,0.0,0.0,1.5274137883298596e-06,0.0,24.417838314438168,2.7194544906205365,0.0027428988752441342,0.0
11110,6.8965517241379315,8.275862068965518,3.5714285714285716,0,321600.03737282613,433142.42030975624,286671.3467005336,64379.80778275964,-1175.797158806371,2.1440002491521742e-06,0.0,0.0,0.0,2.1440002491521742e-06,0.0,23.69493290525142,3.005432643427895,-4.139712615026623e-05,0.0
11111,6.8965517241379315,8.275862068965518,3.928571428571429,0,225167.57727815537,353821.452754573,97799.33530382169,186568.26884032227,22717.083315576856,1.5011171818543692e-06,0.0,0.0,0.0,1.5011171818543692e-06,0.0,23.88561541822634,3.297360068743514,0.0007701838022352738,0.0
11112,6.8965517241379315,8.275862068965518,4.285714285714286,0,197672.11344368212,324451.7102853534,201814.09904772192,96416.7486835688,49886.42477655481,1.3178140896245475e-06,0.0,0.0,0.0,1.3178140896245475e-06,0.0,24.121013244295778,3.595419003322787,0.0016715266206007177,0.0
11113,6.8965517241379315,8.275862068965518,4.642857142857143,0,164233.46480970492,326688.245989944,184179.46550890367,147077.6534453767,21423.80102506925,1.0948897653980328e-06,0.0,0.0,0.0,1.0948897653980328e-06,0.0,23.491603976430508,3.897058387479077,0.0007152557213286259,0.0
11114,6.8965517241379315,8.275862068965518,5.0,0,211876.53897500224,255152.59281675465,165573.41165770707,13199.756435226594,-29617.830830380582,1.4125102598333484e-06,0.0,0.0,0.0,1.4125102598333484e-06,0.0,23.34356328066721,4.200119972737338,-0.0009877356425119779,0.0
11115,7.241379310344828,8.275862068965518,0.0,0,194965.220424432,401476.86232566106,234099.08768207434,187404.1278767489,-55128.20787686628,1.2997681361628798e-06,0.0,0.0,0.0,1.2997681361628798e-06,0.0,23.85963881758248,-0.04988357939967609,-0.0018384903384597632,0.0
11116,7.241379310344828,8.275862068965518,0.35714285714285715,0,195172.0017958541,295296.47329197795,137621.1569239654,77009.96699087087,-51070.20715020469,1.3011466786390273e-06,0.0,0.0,0.0,1.3011466786390273e-06,0.0,23.68526820460935,0.2541825971112195,-0.0017050316053102874,0.0
11117,7.241379310344828,8.275862068965518,0.7142857142857143,0,102390.0776356148,311441.79489492753,230082.17722410598,196470.75200346857,25527.87840123983,6.826005175707653e-07,0.0,0.0,0.0,6.826005175707653e-07,0.0,23.989298116840594,0.5596288663810778,0.0008553535056131018,0.0
11118,7.241379310344828,8.275862068965518,1.0714285714285714,0,97576.94005665123,263311.83734724444,245674.74630118418,158119.23413546674,-22736.491460441695,6.505129337110082e-07,0.0,0.0,0.0,6.505129337110082e-07,0.0,23.164225507379804,0.8685495757482053,-0.0007708418021465602,0.0
11119,7.241379310344828,8.275862068965518,1.4285714285714286,0,265943.89353457093,286157.0738017813,322371.4846955707,40176.14653340412,33197.992541779284,1.772959290230473e-06,0.0,0.0,0.0,1.772959290230473e-06,0.0,23.617506063579714,1.183420253459862,0.0011688253155695478,0.0
11120,7.241379310344828,8.275862068965518,1.7857142857142858,0,319188.1722024195,551810.5807859687,239428.79748947814,226225.75367278507,30152.301171879993,2.12792114801613e-06,0.0,0.0,0.0,2.12792114801613e-06,0.0,24.234064980586123,1.5040640584025158,0.0011909404674191272,0.0
11121,7.241379310344828,8.275862068965518,2.142857142857143,0,416660.0057958865,778785.175051181,297746.0469731549,545787.4707075787,310443.3052983078,2.777733371972577e-06,0.0,0.0,0.0,2.777733371972577e-06,0.0,25.367236770052365,1.8245140383933798,0.016641343002702088,0.0
11122,7.241379310344828,8.275862068965518,2.5,0,460056.7883716896,739502.1604364169,663676.3805830044,246243.1528595324,568247.1051376527,3.067045255811264e-06,0.0,0.0,0.0,3.067045255811264e-06,0.0,23.95872444403959,2.135307364023375,0.056824710513765274,0.0
11123,7.241379310344828,8.275862068965518,2.857142857142857,0,60449.30490202764,531613.4732445066,479692.9268410121,546055.0701604931,223057.63061678348,4.029953660135176e-07,0.0,0.0,0.0,4.029953660135176e-07,0.0,24.239224790232182,2.4316568955362365,0.011957025573146256,0.0
11124,7.241379310344828,8.275862068965518,3.2142857142857144,0,356796.37322894525,375786.86714167957,645035.4617011211,240350.8976379416,94506.08478745108,2.3786424881929684e-06,0.0,0.0,0.0,2.3786424881929684e-06,0.0,24.15233104009545,2.71834977268823,0.0037327539330790343,0.0
11125,7.241379310344828,8.275862068965518,3.5714285714285716,0,183021.44537556477,435767.8812253552,278397.2348866621,234924.01672316805,-18779.020455045254,1.2201429691704318e-06,0.0,0.0,0.0,1.2201429691704318e-06,0.0,24.060002693886965,3.0048488248884335,-0.0006611663184703777,0.0
11126,7.241379310344828,8.275862068965518,3.928571428571429,0,117999.92033058837,265479.76627394516,215334.9885486422,130689.06923902385,-21048.300460297847,7.866661355372558e-07,0.0,0.0,0.0,7.866661355372558e-07,0.0,24.259022531021515,3.2971210043196346,-0.0007136065776536952,0.0
11127,7.241379310344828,8.275862068965518,4.285714285714286,0,141722.01147716772,273798.0749126958,195442.05677277842,110199.89322962279,24120.138048473837,9.448134098477848e-07,0.0,0.0,0.0,9.448134098477848e-07,0.0,23.443315121878054,3.5953431520953636,0.0008081848523155003,0.0
11128,7.241379310344828,8.275862068965518,4.642857142857143,0,213634.77974201535,377694.8949661269,133617.19801301695,224682.2268515488,18505.94280337908,1.424231864946769e-06,0.0,0.0,0.0,1.424231864946769e-06,0.0,23.74889488204974,3.8970397399683625,0.0006178400113597215,0.0
11129,7.241379310344828,8.275862068965518,5.0,0,73752.50192384933,227019.66225563476,237910.47904951428,159318.13550010888,13465.097335976083,4.916833461589955e-07,0.0,0.0,0.0,4.916833461589955e-07,0.0,24.057161120337494,4.200116420600324,0.0004490523510923085,0.0
11130,7.586206896551724,8.275862068965518,0.0,0,131526.79928596332,254401.8332459223,203667.38187514164,105063.60081504528,-32827.95738679345,8.768453285730888e-07,0.0,0.0,0.0,8.768453285730888e-07,0.0,23.32432914238983,-0.049887525873688505,-0.0010947913021550474,0.0
11131,7.586206896551724,8.275862068965518,0.35714285714285715,0,93374.57752904267,251964.72088671842,203757.20334583614,144339.47884319152,-11435.410884415534,6.224971835269511e-07,0.0,0.0,0.0,6.224971835269511e-07,0.0,24.02891434008516,0.2541618794654353,-0.00038178300159018655,0.0
11132,7.586206896551724,8.275862068965518,0.7142857142857143,0,269380.05720868066,395355.9785494486,214728.00747487487,85734.52102166091,20585.218033847512,1.7958670480578711e-06,0.0,0.0,0.0,1.7958670480578711e-06,0.0,22.85876550937273,0.5595445946042105,0.0006897415497014571,0.0
11133,7.586206896551724,8.275862068965518,1.0714285714285714,0,265357.5478091069,430418.12557204865,229027.52606786301,129732.83106329067,70474.85279480947,1.7690503187273793e-06,0.0,0.0,0.0,1.7690503187273793e-06,0.0,24.227808253127794,0.8682839718223316,0.002389329181632192,0.0
11134,7.586206896551724,8.275862068965518,1.4285714285714286,0,250425.93376408293,411371.89881968347,125934.58854384736,228562.03855539244,69265.63809443162,1.6695062250938863e-06,0.0,0.0,0.0,1.6695062250938863e-06,0.0,23.751249895428842,1.1827716228791898,0.0024386845440116187,0.0
11135,7.586206896551724,8.275862068965518,1.7857142857142858,0,354187.6640425568,592543.4242333656,444354.7482568237,188329.4282509626,29990.822932731888,2.361251093617045e-06,0.0,0.0,0.0,2.361251093617045e-06,0.0,24.178245168368647,1.502836701294994,0.0011845624809260625,0.0
11136,7.586206896551724,8.275862068965518,2.142857142857143,0,433433.0763772658,670896.8749018173,402806.60040868307,170846.36168447614,236236.73601890425,2.889553842515105e-06,0.0,0.0,0.0,2.889553842515105e-06,0.0,24.33438086221008,1.8227145251179746,0.012663492775763851,0.0
11137,7.586206896551724,8.275862068965518,2.5,0,921669.3099591112,1240859.6700706396,600479.7766653622,184524.68941600295,669780.219974464,6.144462066394074e-06,0.0,0.0,0.0,6.144462066394074e-06,0.0,24.54551298333537,2.1332630398727237,0.0669780219974464,0.0
11138,7.586206896551724,8.275862068965518,2.857142857142857,0,452741.81892486085,799630.0511155,726494.6974076122,314772.7696175179,331855.2804037945,3.0182787928324057e-06,0.0,0.0,0.0,3.0182787928324057e-06,0.0,23.97973652024521,2.4298573822608316,0.01778913397134072,0.0
11139,7.586206896551724,8.275862068965518,3.2142857142857144,0,451007.6530670966,599687.2357509813,540912.0603480578,122173.53612079324,29996.784783887088,3.0067176871139774e-06,0.0,0.0,0.0,3.0067176871139774e-06,0.0,22.983508352680374,2.7171224155807083,0.001184797959132551,0.0
11140,7.586206896551724,8.275862068965518,3.5714285714285716,0,276186.596241542,350069.95850638347,128706.92552755156,40572.341898546554,9025.590073337771,1.8412439749436134e-06,0.0,0.0,0.0,1.8412439749436134e-06,0.0,22.974194790899848,3.0042001943077614,0.00031777036374697,0.0
11141,7.586206896551724,8.275862068965518,3.928571428571429,0,214707.84522638825,291235.92948403966,217274.13653371052,49324.07222100834,-38249.58691953235,1.4313856348425883e-06,0.0,0.0,0.0,1.4313856348425883e-06,0.0,23.227260279626048,3.296855400393761,-0.001296786734387427,0.0
11142,7.586206896551724,8.275862068965518,4.285714285714286,0,193003.5917067801,398042.66156442347,225389.5964583041,189676.89046976168,30142.1199399983,1.286690611378534e-06,0.0,0.0,0.0,1.286690611378534e-06,0.0,24.224455749367085,3.595258880318496,0.001009961249111714,0.0
11143,7.586206896551724,8.275862068965518,4.642857142857143,0,215361.73389962869,329883.7181029197,118649.1314670486,110619.43413044029,41679.54661089151,1.4357448926641912e-06,0.0,0.0,0.0,1.4357448926641912e-06,0.0,23.16475015359572,3.8970190223225787,0.0013915147055809129,0.0
11144,7.586206896551724,8.275862068965518,5.0,0,226555.0255491784,384095.42635985237,256163.30572305914,122513.04843681409,45845.827366335594,1.5103668369945225e-06,0.0,0.0,0.0,1.5103668369945225e-06,0.0,23.75669844643277,4.200112474126311,0.0015289289080458572,0.0
11145,7.931034482758621,8.275862068965518,0.0,0,225758.66738910796,321821.0363882024,221449.42516709966,63281.851522680154,34470.959958200496,1.505057782594053e-06,0.0,0.0,0.0,1.505057782594053e-06,0.0,23.532985622732042,-0.049891811683883444,0.0011495843830464719,0.0
11146,7.931034482758621,8.275862068965518,0.35714285714285715,0,155299.48985014125,254284.30316265146,226264.38648887785,86882.38040158036,-9811.984329873023,1.035329932334275e-06,0.0,0.0,0.0,1.035329932334275e-06,0.0,23.929248027841357,0.25413938042015144,-0.00032758322957332535,0.0
11147,7.931034482758621,8.275862068965518,0.7142857142857143,0,162443.36428601033,271380.41591215105,158677.8308663748,85177.5077136883,27474.559677903846,1.0829557619067356e-06,0.0,0.0,0.0,1.0829557619067356e-06,0.0,24.111174962283897,0.5594530767481931,0.0009205802599925448,0.0
11148,7.931034482758621,8.275862068965518,1.0714285714285714,0,187968.48609330115,323037.98143496213,247701.27618020927,109087.36255477619,46438.09935460588,1.2531232406220078e-06,0.0,0.0,0.0,1.2531232406220078e-06,0.0,23.805747218379423,0.8679955300361334,0.0015744042240222582,0.0
11149,7.931034482758621,8.275862068965518,1.4285714285714286,0,295321.2130198692,321740.4039893881,319145.30633921426,25130.19380237024,39386.8088577631,1.9688080867991277e-06,0.0,0.0,0.0,1.9688080867991277e-06,0.0,24.16390131534155,1.1820672200257434,0.001386719369688281,0.0
11150,7.931034482758621,8.275862068965518,1.7857142857142858,0,74664.40804414665,410202.9663300663,382251.40656668035,325595.7022598174,100462.04711209929,4.97762720294311e-07,0.0,0.0,0.0,4.97762720294311e-07,0.0,23.21743852224773,1.5015038103174514,0.003967999545492271,0.0
11151,7.931034482758621,8.275862068965518,2.142857142857143,0,595907.3834021955,968249.0740391858,466224.7005957321,309702.5256437688,309367.2549324613,3.97271588934797e-06,0.0,0.0,0.0,3.97271588934797e-06,0.0,24.282894044083505,1.8207602813253114,0.016583661220165247,0.0
11152,7.931034482758621,8.275862068965518,2.5,0,361736.4003198929,818451.5589119735,562874.4577392635,404545.05654085265,446794.94375249394,2.4115760021326194e-06,0.0,0.0,0.0,2.4115760021326194e-06,0.0,23.842946564069525,2.1310429352276485,0.044679494375249394,0.0
11153,7.931034482758621,8.275862068965518,2.857142857142857,0,304468.4737987772,802244.1233645234,580878.4798731772,455025.9121977251,439276.6079712722,2.0297898253251813e-06,0.0,0.0,0.0,2.0297898253251813e-06,0.0,24.161773670185216,2.4279031384681686,0.02354746448562982,0.0
11154,7.931034482758621,8.275862068965518,3.2142857142857144,0,230909.7845806002,558116.4213674421,373978.87711188546,299046.5947169187,53571.64957626062,1.539398563870668e-06,0.0,0.0,0.0,1.539398563870668e-06,0.0,23.52810326338874,2.715789524603166,0.0021159461436484296,0.0
11155,7.931034482758621,8.275862068965518,3.5714285714285716,0,219478.06707479153,324561.44184703624,324044.65945228137,104825.4398806921,49285.56635591082,1.4631871138319435e-06,0.0,0.0,0.0,1.4631871138319435e-06,0.0,22.76604770072435,3.003495791454315,0.0017352319594769055,0.0
11156,7.931034482758621,8.275862068965518,3.928571428571429,0,231466.20307130198,408361.2447322205,191161.65227533667,164873.13936741237,78636.67489843158,1.5431080204753466e-06,0.0,0.0,0.0,1.5431080204753466e-06,0.0,24.128972030301128,3.2965669586075625,0.002666041781291729,0.0
11157,7.931034482758621,8.275862068965518,4.285714285714286,0,90329.57856846451,238581.27714202806,140193.547194501,159398.68576673543,27913.27229334733,6.021971904564301e-07,0.0,0.0,0.0,6.021971904564301e-07,0.0,23.729188223609817,3.595167362462479,0.0009352800469344182,0.0
11158,7.931034482758621,8.275862068965518,4.642857142857143,0,156306.7246224565,322270.4329249496,236384.37928514948,141852.02101798577,35981.0295335119,1.0420448308163766e-06,0.0,0.0,0.0,1.0420448308163766e-06,0.0,24.40655389975134,3.8969965232772945,0.0012012638281612056,0.0
11159,7.931034482758621,8.275862068965518,5.0,0,135001.8578866219,321257.0142351365,185087.29490766974,187454.1411614647,-28647.09785153859,9.000123859108127e-07,0.0,0.0,0.0,9.000123859108127e-07,0.0,24.02130234345483,4.200108188316117,-0.0009553623209120537,0.0
11160,8.275862068965518,8.275862068965518,0.0,0,121263.06224975141,315056.44463919033,272881.33465383144,178337.25323380917,-23168.758667387036,8.084204149983428e-07,0.0,0.0,0.0,8.084204149983428e-07,0.0,25.152308739934217,-0.04989638805878906,-0.0007726632264055791,0.0
11161,8.275862068965518,8.275862068965518,0.35714285714285715,0,56969.45354757023,235942.69368254353,223483.2792852289,173774.70905093558,40299.03566027506,3.797963569838015e-07,0.0,0.0,0.0,3.797963569838015e-07,0.0,24.31652917130301,0.2541153560090007,0.001345424921857203,0.0
11162,8.275862068965518,8.275862068965518,0.7142857142857143,0,141819.56009078267,375254.08806238003,265569.5950862205,215103.85695411477,-17559.809148288194,9.454637339385512e-07,0.0,0.0,0.0,9.454637339385512e-07,0.0,23.561548790654978,0.5593553542638455,-0.0005883702545431995,0.0
11163,8.275862068965518,8.275862068965518,1.0714285714285714,0,231059.3101297457,378225.1762693809,163688.71359566457,133592.52291859352,-43955.1463756229,1.5403954008649714e-06,0.0,0.0,0.0,1.5403954008649714e-06,0.0,22.898116480892526,0.8676875327865949,-0.0014902239558267699,0.0
11164,8.275862068965518,8.275862068965518,1.4285714285714286,0,154158.7677805738,330938.6849584243,278819.8788027198,157476.26896257585,-58738.36026972264,1.0277251185371586e-06,0.0,0.0,0.0,1.0277251185371586e-06,0.0,23.25958935620303,1.1813150608317238,-0.0020680431924278253,0.0
11165,8.275862068965518,8.275862068965518,1.7857142857142858,0,317643.89249003923,625680.8177817323,307029.5601509466,309053.9669623048,45862.602508416705,2.117625949933595e-06,0.0,0.0,0.0,2.117625949933595e-06,0.0,23.231226686640714,1.5000805534432362,0.0018114580693884034,0.0
11166,8.275862068965518,8.275862068965518,2.142857142857143,0,543765.6267688139,872989.8341816621,370255.77791212214,295854.62412090605,287670.2982212425,3.6251041784587598e-06,0.0,0.0,0.0,3.6251041784587598e-06,0.0,23.44425072693538,1.8186735458318144,0.015420593785358693,0.0
11167,8.275862068965518,8.275862068965518,2.5,0,223042.60630770595,710797.838814242,504308.47506038373,474250.45170996425,646691.4777039767,1.4869507087180396e-06,0.0,0.0,0.0,1.4869507087180396e-06,0.0,23.646828964475837,2.128672314336054,0.06466914777039767,0.0
11168,8.275862068965518,8.275862068965518,2.857142857142857,0,381563.84899868537,673402.8044051491,480034.5613649881,233866.655327461,225964.96246127324,2.543758993324569e-06,0.0,0.0,0.0,2.543758993324569e-06,0.0,23.873114489291936,2.425816402974671,0.012112873374084794,0.0
11169,8.275862068965518,8.275862068965518,3.2142857142857144,0,640963.787435105,672906.4498584262,520135.08642560436,-30639.70549237431,133238.68153974655,4.273091916234033e-06,0.0,0.0,0.0,4.273091916234033e-06,0.0,24.406032770506172,2.7143662677289506,0.005262594611493141,0.0
11170,8.275862068965518,8.275862068965518,3.5714285714285716,0,196068.04344302922,406317.2747273228,224154.12031976585,198809.2549007706,-41589.520843103375,1.3071202896201947e-06,0.0,0.0,0.0,1.3071202896201947e-06,0.0,23.288300374813076,3.0027436322602954,-0.0014642718159132773,0.0
11171,8.275862068965518,8.275862068965518,3.928571428571429,0,227670.04306139806,292102.2344162569,146749.89392831357,29720.578369721814,-38838.4115409582,1.517800287075987e-06,0.0,0.0,0.0,1.517800287075987e-06,0.0,23.034180873652428,3.296258961358024,-0.0013167498246961441,0.0
11172,8.275862068965518,8.275862068965518,4.285714285714286,0,167663.1612917797,264720.1754980573,232118.73584209147,83150.59818741931,4429.442080395662,1.1177544086118645e-06,0.0,0.0,0.0,1.1177544086118645e-06,0.0,24.148666880936542,3.5950696399781314,0.0001484157340389325,0.0
11173,8.275862068965518,8.275862068965518,4.642857142857143,0,92184.95203690456,285737.26646861975,224862.2040508675,179677.4140591056,1692.934181585148,6.145663469126971e-07,0.0,0.0,0.0,6.145663469126971e-07,0.0,24.40404102927836,3.896972498866144,5.65203559253864e-05,0.0
11174,8.275862068965518,8.275862068965518,5.0,0,104648.38774927505,290198.13345607184,191613.80289572498,180390.41327884063,18463.053562339708,6.976559183285003e-07,0.0,0.0,0.0,6.976559183285003e-07,0.0,23.49740674785021,4.200103611941211,0.0006157309823791825,0.0
11175,8.620689655172415,8.275862068965518,0.0,0,60836.73490391913,278287.01403496607,223671.1323269186,212717.63812279067,-39379.70689941895,4.0557823269279423e-07,0.0,0.0,0.0,4.0557823269279423e-07,0.0,24.12550912162887,-0.04990121268581896,-0.0013132879419492293,0.0
11176,8.620689655172415,8.275862068965518,0.35714285714285715,0,269865.77595034445,218318.7655253481,299930.51618516265,-1321.4738114098232,11828.67750277534,1.7991051730022964e-06,0.0,0.0,0.0,1.7991051730022964e-06,0.0,23.994813387132186,0.2540900283586648,0.000394912613765928,0.0
11177,8.620689655172415,8.275862068965518,0.7142857142857143,0,223795.14617230566,412726.28725459595,280351.1695320099,154336.00050883123,-56397.43827748231,1.4919676411487044e-06,0.0,0.0,0.0,1.4919676411487044e-06,0.0,22.7602254913834,0.5592523306809578,-0.0018896888249005505,0.0
11178,8.620689655172415,8.275862068965518,1.0714285714285714,0,254083.0850924472,413484.65719914914,282845.4431492461,120660.63055907568,-75789.52266343428,1.693887233949648e-06,0.0,0.0,0.0,1.693887233949648e-06,0.0,23.300826008827684,0.8673628277775193,-0.002569513961085635,0.0
11179,8.620689655172415,8.275862068965518,1.4285714285714286,0,98339.07091521131,299925.9988847504,186416.0382625465,240489.69462338684,78617.10652179006,6.555938061014088e-07,0.0,0.0,0.0,6.555938061014088e-07,0.0,23.38550747598772,1.1805220996663675,0.0027679283385540245,0.0
11180,8.620689655172415,8.275862068965518,1.7857142857142858,0,291511.38505405013,592141.0949601528,736274.9928233736,400773.1330860831,121045.00833138525,1.9434092336936677e-06,0.0,0.0,0.0,1.9434092336936677e-06,0.0,24.62292151343091,1.4985800899262678,0.004780975023404619,0.0
11181,8.620689655172415,8.275862068965518,2.142857142857143,0,624226.6097972434,699923.9551273526,777383.0216064907,118041.74972182057,321788.87117227167,4.161510731981622e-06,0.0,0.0,0.0,4.161510731981622e-06,0.0,23.887657840536733,1.8164736123312073,0.017249523143958344,0.0
11182,8.620689655172415,8.275862068965518,2.5,0,490996.55486020964,952303.3792125181,807319.6466711761,405140.6745091703,376567.0819786919,3.273310365734731e-06,0.0,0.0,0.0,3.273310365734731e-06,0.0,23.386389596291753,2.1261730956603233,0.03765670819786919,0.0
11183,8.620689655172415,8.275862068965518,2.857142857142857,0,361309.4174603928,795143.6780962946,398950.50558852655,483831.7099844632,282987.49185903557,2.408729449735952e-06,0.0,0.0,0.0,2.408729449735952e-06,0.0,23.294253254881706,2.423616469474064,0.015169571503483942,0.0
11184,8.620689655172415,8.275862068965518,3.2142857142857144,0,328561.2584057838,527103.4207335854,512757.81927711057,191604.32907766243,86586.11533390201,2.190408389371892e-06,0.0,0.0,0.0,2.190408389371892e-06,0.0,22.862598008950588,2.7128658042119826,0.0034199349522262092,0.0
11185,8.620689655172415,8.275862068965518,3.5714285714285716,0,296793.52126021823,563592.6670495736,241347.24434266737,301451.0964649102,-13461.134273549786,1.9786234750681215e-06,0.0,0.0,0.0,1.9786234750681215e-06,0.0,24.18536190163542,3.001950671094939,-0.0004739357205230163,0.0
11186,8.620689655172415,8.275862068965518,3.928571428571429,0,178286.47979089443,315771.40293499385,228931.86520694278,110703.12683501266,54282.60014210834,1.1885765319392963e-06,0.0,0.0,0.0,1.1885765319392963e-06,0.0,23.854841881233128,3.2959342563489487,0.0018403585879354068,0.0
11187,8.620689655172415,8.275862068965518,4.285714285714286,0,163639.87535872374,281764.81514505675,122286.41536520279,114258.94270705235,21152.850436045355,1.0909325023914916e-06,0.0,0.0,0.0,1.0909325023914916e-06,0.0,23.971487101646066,3.5949666163952436,0.000708761005900995,0.0
11188,8.620689655172415,8.275862068965518,4.642857142857143,0,193334.7790882942,283929.1025067798,151332.39016535957,62093.22445692788,-30928.208594488067,1.2888985272552946e-06,0.0,0.0,0.0,1.2888985272552946e-06,0.0,23.02371029038563,3.896947171215808,-0.001032570183123294,0.0
11189,8.620689655172415,8.275862068965518,5.0,0,225932.09211409674,404884.37052954844,263850.8885225939,144295.33285504597,-53453.76480556661,1.5062139474273116e-06,0.0,0.0,0.0,1.5062139474273116e-06,0.0,24.039131657261848,4.2000987873141815,-0.001782648737082818,0.0
11190,8.965517241379311,8.275862068965518,0.0,0,359101.84689863713,238256.0774596309,320690.14773245086,-72460.97852004303,31122.096521668445,2.394012312657581e-06,0.0,0.0,0.0,2.394012312657581e-06,0.0,23.41136321295011,-0.049906249384656744,0.0010379019375253474,0.0
11191,8.965517241379311,8.275862068965518,0.35714285714285715,0,175054.66657937455,301616.3543722239,297881.3519784728,124724.07318961318,29932.244663872654,1.1670311105291637e-06,0.0,0.0,0.0,1.1670311105291637e-06,0.0,23.17157145941962,0.25406358740349455,0.0009993188987794917,0.0
11192,8.965517241379311,8.275862068965518,0.7142857142857143,0,202902.32090990117,460349.6151522538,296398.3926824057,233427.9818311535,26999.190031970942,1.3526821393993412e-06,0.0,0.0,0.0,1.3526821393993412e-06,0.0,23.796420374114206,0.5591447785827378,0.0009046522190202476,0.0
11193,8.965517241379311,8.275862068965518,1.0714285714285714,0,298056.1039832146,385788.9118015145,252722.82627037508,44378.61682558557,62229.45608962921,1.9870406932214304e-06,0.0,0.0,0.0,1.9870406932214304e-06,0.0,22.944560708467154,0.8670238500012687,0.0021097831282451585,0.0
11194,8.965517241379311,8.275862068965518,1.4285714285714286,0,357109.9221975041,443876.21853133274,264456.8218661434,32632.68588711852,24937.19132260207,2.3807328146500272e-06,0.0,0.0,0.0,2.3807328146500272e-06,0.0,23.638859194093847,1.179694283017494,0.0008779814165081554,0.0
11195,8.965517241379311,8.275862068965518,1.7857142857142858,0,456244.79161839915,873460.6550607844,464018.91107387235,381638.0526830734,70246.99661762462,3.041631944122661e-06,0.0,0.0,0.0,3.041631944122661e-06,0.0,23.421349601752826,1.497013671878776,0.002774580636804097,0.0
11196,8.965517241379311,8.275862068965518,2.142857142857143,0,313711.60121708445,951941.9550596785,784113.0486572635,590016.5985290979,411531.9219144385,2.091410674780563e-06,0.0,0.0,0.0,2.091410674780563e-06,0.0,24.095072472522308,1.8141769783246733,0.022060207942183357,0.0
11197,8.965517241379311,8.275862068965518,2.5,0,709794.9440557694,916285.2724570782,748274.223190374,137558.1646694681,747746.7515646109,4.731966293705129e-06,0.0,0.0,0.0,4.731966293705129e-06,0.0,24.009490384438866,2.1235640210683577,0.07477467515646108,0.0
11198,8.965517241379311,8.275862068965518,2.857142857142857,0,178067.01306338407,856060.0308208587,854668.153327531,677301.158960371,404542.4751415326,1.1871134204225604e-06,0.0,0.0,0.0,1.1871134204225604e-06,0.0,23.61371258509986,2.4213198354675303,0.021685537980995793,0.0
11199,8.965517241379311,8.275862068965518,3.2142857142857144,0,152807.04265922305,473286.38660806324,402299.33144120575,297897.8241402228,66427.12203890298,1.0187136177281536e-06,0.0,0.0,0.0,1.0187136177281536e-06,0.0,23.71347689402095,2.7112993861644905,0.0026237051467268143,0.0
11200,8.965517241379311,8.275862068965518,3.5714285714285716,0,299381.9113322682,534842.7179758743,215420.08082356633,260648.1561325905,46763.97613667457,1.995879408881788e-06,0.0,0.0,0.0,1.995879408881788e-06,0.0,23.877051707010242,3.0011228544460655,0.0016464525406603384,0.0
11201,8.965517241379311,8.275862068965518,3.928571428571429,0,278286.5107107929,410108.6504959032,256725.22866398573,88879.56723384013,3772.7136046597707,1.8552434047386194e-06,0.0,0.0,0.0,1.8552434047386194e-06,0.0,23.577933848197993,3.295595278572698,0.00012790739323428955,0.0
11202,8.965517241379311,8.275862068965518,4.285714285714286,0,184151.10988005067,437327.31097095564,257492.41009355377,249143.95805400045,-17415.608004890044,1.2276740658670045e-06,0.0,0.0,0.0,1.2276740658670045e-06,0.0,23.178369250273636,3.5948590642970237,-0.0005835385583254271,0.0
11203,8.965517241379311,8.275862068965518,4.642857142857143,0,279030.9814991506,442239.98132493865,243290.9816925613,123282.54300250391,4323.153155090446,1.8602065433276708e-06,0.0,0.0,0.0,1.8602065433276708e-06,0.0,23.3504976607565,3.896920730260638,0.00014433293255197913,0.0
11204,8.965517241379311,8.275862068965518,5.0,0,213498.1804335831,326351.7167014733,340219.55103464937,120125.51699196396,-11354.293130651888,1.423321202890554e-06,0.0,0.0,0.0,1.423321202890554e-06,0.0,22.986400369632012,4.200093750615343,-0.0003786583860547248,0.0
11205,9.310344827586208,8.275862068965518,0.0,0,130581.22819609779,309373.3501707863,328449.94365715486,189379.72095392688,-3274.6618304106573,8.705415213073186e-07,0.0,0.0,0.0,8.705415213073186e-07,0.0,23.915874810940277,-0.04991146749922844,-0.00010920786959699702,0.0
11206,9.310344827586208,8.275862068965518,0.35714285714285715,0,239238.40580958096,377577.7584826598,157879.0157599524,122696.1091661697,-32280.47028962457,1.5949227053972064e-06,0.0,0.0,0.0,1.5949227053972064e-06,0.0,23.656857097644043,0.25403619407744765,-0.001077716836280133,0.0
11207,9.310344827586208,8.275862068965518,0.7142857142857143,0,319671.0496662054,315933.3117435035,385372.4658561986,36689.1442340516,38241.84644622544,2.131140331108036e-06,0.0,0.0,0.0,2.131140331108036e-06,0.0,23.25110237245671,0.5590333525894406,0.0012813558927524588,0.0
11208,9.310344827586208,8.275862068965518,1.0714285714285714,0,307986.1292993377,407332.12411159195,59825.320400724064,168120.93531082492,8684.237371770483,2.0532408619955847e-06,0.0,0.0,0.0,2.0532408619955847e-06,0.0,23.104944624263407,0.8666726626599758,0.0002944241945847708,0.0
11209,9.310344827586208,8.275862068965518,1.4285714285714286,0,387708.8419247287,562000.2200719557,517910.4314383883,154131.25443470626,38319.66858048445,2.5847256128315248e-06,0.0,0.0,0.0,2.5847256128315248e-06,0.0,23.590270991842402,1.178836649425075,0.0013491478035829669,0.0
11210,9.310344827586208,8.275862068965518,1.7857142857142858,0,409968.9178408046,634353.336493882,421780.2910931212,161755.417748627,100804.46172982927,2.7331261189386974e-06,0.0,0.0,0.0,2.7331261189386974e-06,0.0,22.770354484294323,1.4953908333684272,0.003981524066309634,0.0
11211,9.310344827586208,8.275862068965518,2.142857142857143,0,364806.4604569577,1001737.5469369513,643919.8944648069,630322.4889170052,279071.88263473473,2.4320430697130514e-06,0.0,0.0,0.0,2.4320430697130514e-06,0.0,22.9472412301866,1.8117976223692513,0.014959674897391825,0.0
11212,9.310344827586208,8.275862068965518,2.5,0,294902.8589091829,1122857.9048180867,787299.5132984294,1005259.5879202783,811698.0066049491,1.9660190593945527e-06,0.0,0.0,0.0,1.9660190593945527e-06,0.0,23.476521404681957,2.120860970799629,0.08116980066049491,0.0
11213,9.310344827586208,8.275862068965518,2.857142857142857,0,800070.7945448875,1128702.0632987216,755720.3631643,210243.4784184831,344911.89107555465,5.333805296965917e-06,0.0,0.0,0.0,5.333805296965917e-06,0.0,24.711601235185,2.4189404795121083,0.018489034832249007,0.0
11214,9.310344827586208,8.275862068965518,3.2142857142857144,0,244668.2760937078,568757.4746140362,459464.7925434198,288492.2124727507,45440.064598190045,1.6311218406247187e-06,0.0,0.0,0.0,1.6311218406247187e-06,0.0,23.72198143684692,2.709676547654142,0.0017947688789535135,0.0
11215,9.310344827586208,8.275862068965518,3.5714285714285716,0,143119.0996042324,256942.74708289746,308545.78483293956,146781.32415850024,15588.773079131184,9.541273306948827e-07,0.0,0.0,0.0,9.541273306948827e-07,0.0,23.593168855195106,3.0002652208536467,0.0005488450119574919,0.0
11216,9.310344827586208,8.275862068965518,3.928571428571429,0,80953.48785312181,431457.74243252684,379253.2942444086,338202.79026569246,9480.964680771944,5.396899190208121e-07,0.0,0.0,0.0,5.396899190208121e-07,0.0,22.919863236795685,3.295244091231405,0.00032143586944052426,0.0
11217,9.310344827586208,8.275862068965518,4.285714285714286,0,232149.51606183103,458358.8184115652,311214.65360196517,190738.17538441403,99543.9799082218,1.5476634404122069e-06,0.0,0.0,0.0,1.5476634404122069e-06,0.0,23.04347230655237,3.5947476383037267,0.003335384587739277,0.0
11218,9.310344827586208,8.275862068965518,4.642857142857143,0,208525.24025599236,415584.1860933856,193905.31836869704,223340.6029077768,22757.57068044768,1.3901682683732825e-06,0.0,0.0,0.0,1.3901682683732825e-06,0.0,24.19287996361801,3.896893336934591,0.0007597849986416301,0.0
11219,9.310344827586208,8.275862068965518,5.0,0,85683.56242122459,332605.25150918536,323519.49165658624,242740.86435805084,-18521.62936096782,5.712237494748306e-07,0.0,0.0,0.0,5.712237494748306e-07,0.0,23.288512599250687,4.2000885325007715,-0.0006176844476557228,0.0
11220,9.655172413793103,8.275862068965518,0.0,0,150003.00576053793,318616.04188380373,331733.2623135585,175602.40991001867,78234.590646041,1.0000200384035862e-06,0.0,0.0,0.0,1.0000200384035862e-06,0.0,23.408965185891347,-0.04991684118825477,0.0026090733687074655,0.0
11221,9.655172413793103,8.275862068965518,0.35714285714285715,0,269088.46283709886,453036.7594972395,243625.48328059836,149537.78931507652,-67206.04988573283,1.7939230855806592e-06,0.0,0.0,0.0,1.7939230855806592e-06,0.0,23.674277556518373,0.25400798403844793,-0.0022437433783304137,0.0
11222,9.655172413793103,8.275862068965518,0.7142857142857143,0,116272.46115536982,425282.7794390714,355028.69435236114,291072.14658128057,-19929.129760005653,7.751497410357988e-07,0.0,0.0,0.0,7.751497410357988e-07,0.0,23.173084624759003,0.5589186045076956,-0.0006677582341982374,0.0
11223,9.655172413793103,8.275862068965518,1.0714285714285714,0,160107.31325557313,415374.55688568443,284837.9631050769,236728.5725033714,-23403.76963127977,1.0673820883704875e-06,0.0,0.0,0.0,1.0673820883704875e-06,0.0,23.133994961131418,0.8663110049124959,-0.0007934647256805982,0.0
11224,9.655172413793103,8.275862068965518,1.4285714285714286,0,491207.2357644572,675651.2980511202,324663.609408581,114294.42066839631,6012.250856087658,3.2747149050963813e-06,0.0,0.0,0.0,3.2747149050963813e-06,0.0,22.53018757266772,1.1779534460839314,0.000211677588495937,0.0
11225,9.655172413793103,8.275862068965518,1.7857142857142858,0,351226.1801857837,575001.2710675129,461210.6812554073,180987.88720663043,99273.583934322,2.3415078679052247e-06,0.0,0.0,0.0,2.3415078679052247e-06,0.0,22.789409139356692,1.4937196110572373,0.003921058223024568,0.0
11226,9.655172413793103,8.275862068965518,2.142857142857143,0,1146325.246363142,1424009.0078159245,225293.16628900255,338470.2370554473,442152.931793084,7.642168309087613e-06,0.0,0.0,0.0,7.642168309087613e-06,0.0,23.69545773647025,1.809347327571829,0.023701650098553954,0.0
11227,9.655172413793103,8.275862068965518,2.5,0,487717.3497234795,1244398.5567414481,735319.9439413699,781298.8568975535,765069.5234107269,3.25144899815653e-06,0.0,0.0,0.0,3.25144899815653e-06,0.0,23.187512686221464,2.1180773309682097,0.07650695234107269,0.0
11228,9.655172413793103,8.275862068965518,2.857142857142857,0,196190.806195472,665114.6158290114,885544.4818333195,730065.4563778606,462565.45772576,1.3079387079698133e-06,0.0,0.0,0.0,1.3079387079698133e-06,0.0,23.745765509720627,2.4164901847146862,0.024795865498917633,0.0
11229,9.655172413793103,8.275862068965518,3.2142857142857144,0,165023.54185581693,683895.3581702262,493343.03810424655,588978.8573410555,70446.36238129278,1.1001569457054462e-06,0.0,0.0,0.0,1.1001569457054462e-06,0.0,22.6238572281535,2.7080053253429517,0.0027824550857364306,0.0
11230,9.655172413793103,8.275862068965518,3.5714285714285716,0,424040.8954756236,590188.771628939,219340.37434527848,127881.41945502047,70080.2234896841,2.826939303170824e-06,0.0,0.0,0.0,2.826939303170824e-06,0.0,23.826649599203208,2.9993820175125028,0.0024673642309073285,0.0
11231,9.655172413793103,8.275862068965518,3.928571428571429,0,205726.2181951097,394984.8795647863,380470.9335525115,182386.03094330718,-68410.88306237527,1.3715081213007313e-06,0.0,0.0,0.0,1.3715081213007313e-06,0.0,23.40589418132548,3.294882433483925,-0.0023193538228177663,0.0
11232,9.655172413793103,8.275862068965518,4.285714285714286,0,147703.6459403434,291592.3596778831,264807.11770064954,132328.97351256578,-105552.54217271354,9.846909729356228e-07,0.0,0.0,0.0,9.846909729356228e-07,0.0,22.695124796449846,3.5946328902219813,-0.003536711337884639,0.0
11233,9.655172413793103,8.275862068965518,4.642857142857143,0,232175.8590289863,398699.363215701,187862.50253084302,149870.70608221274,30538.20434791719,1.547839060193242e-06,0.0,0.0,0.0,1.547839060193242e-06,0.0,23.99978661355226,3.896865126895591,0.001019549488598739,0.0
11234,9.655172413793103,8.275862068965518,5.0,0,198719.05195807767,341520.17392292625,470383.64715812815,241528.93294786382,-13651.81581726251,1.3247936797205178e-06,0.0,0.0,0.0,1.3247936797205178e-06,0.0,22.73659606485518,4.200083158811745,-0.0004552792925634284,0.0
11235,10.0,8.275862068965518,0.0,0,297672.78522551426,492564.2957026842,219457.49249344683,175266.34343459932,77014.32428112636,1.9844852348367616e-06,0.0,0.0,0.0,1.9844852348367616e-06,0.0,23.83077518816248,-0.04992234871934774,0.0025683782688911624,0.0
11236,10.0,8.275862068965518,0.35714285714285715,0,191499.67479833044,517922.3717081904,392877.10927076027,297460.2356012683,46767.18366778798,1.2766644986555363e-06,0.0,0.0,0.0,1.2766644986555363e-06,0.0,23.2807019263873,0.25397907137413783,0.0015613707226681966,0.0
11237,10.0,8.275862068965518,0.7142857142857143,0,191735.16839117883,354915.0712043613,245747.4727060422,133525.39263263094,26501.38005060589,1.2782344559411921e-06,0.0,0.0,0.0,1.2782344559411921e-06,0.0,22.854761250654384,0.5588009984041468,0.0008879722777420445,0.0
11238,10.0,8.275862068965518,1.0714285714285714,0,125161.30850373927,398148.71962936345,337106.13524847775,254178.29647951204,-22268.111803198255,8.344087233582618e-07,0.0,0.0,0.0,8.344087233582618e-07,0.0,24.230531349178577,0.8659403393828203,-0.0007549621920621946,0.0
11239,10.0,8.275862068965518,1.4285714285714286,0,408135.1775458318,620266.3755241943,279909.65356738423,167789.7688649515,43182.00300645414,2.7209011836388786e-06,0.0,0.0,0.0,2.7209011836388786e-06,0.0,23.51367882289214,1.1770482448638897,0.001520339467135708,0.0
11240,10.0,8.275862068965518,1.7857142857142858,0,532048.7282815571,639175.2056132416,348931.750426873,25123.950471267697,50699.80413139764,3.5469915218770473e-06,0.0,0.0,0.0,3.5469915218770473e-06,0.0,23.923165159032155,1.4920067637381913,0.002002515432772861,0.0
11241,10.0,8.275862068965518,2.142857142857143,0,684406.9456364774,895933.0212984314,919798.246855296,223770.82669100715,438065.52466973866,4.5627129709098495e-06,0.0,0.0,0.0,4.5627129709098495e-06,0.0,23.536829810666205,1.8068360034669901,0.023482544249690773,0.0
11242,10.0,8.275862068965518,2.5,0,468367.27659311105,1028199.1406049116,1050796.080822217,571539.3438746725,732368.9324836829,3.1224485106207404e-06,0.0,0.0,0.0,3.1224485106207404e-06,0.0,23.217046666384014,2.1152243592297943,0.0732368932483683,0.0
11243,10.0,8.275862068965518,2.857142857142857,0,283314.17662349454,1223905.4793057153,1062139.553789957,896769.0664555151,460877.2718808685,1.8887611774899636e-06,0.0,0.0,0.0,1.8887611774899636e-06,0.0,22.894632001831678,2.413978860609847,0.024705370135617237,0.0
11244,10.0,8.275862068965518,3.2142857142857144,0,503801.85085879,819452.8786306496,534907.9559293187,237758.13159978262,61929.51636635452,3.3586790057252666e-06,0.0,0.0,0.0,3.3586790057252666e-06,0.0,23.244138562251077,2.706292478023906,0.0024460609738526343,0.0
11245,10.0,8.275862068965518,3.5714285714285716,0,367583.08652597346,465035.1558035001,616356.1304306657,197266.17804692502,60682.811891193975,2.450553910173156e-06,0.0,0.0,0.0,2.450553910173156e-06,0.0,23.421183161983297,2.9984768162924613,0.0021365028824893778,0.0
11246,10.0,8.275862068965518,3.928571428571429,0,201987.25788359993,464060.8783765571,349393.0924477274,230836.88762386146,21283.376697353768,1.3465817192239996e-06,0.0,0.0,0.0,1.3465817192239996e-06,0.0,23.75251572449327,3.2945117679542495,0.0007215764348556865,0.0
11247,10.0,8.275862068965518,4.285714285714286,0,399659.47568822757,587407.833294151,365988.4867357834,126044.76813826206,-22905.720839718168,2.6643965045881838e-06,0.0,0.0,0.0,2.6643965045881838e-06,0.0,23.152372369954,3.5945152841184327,-0.0007674938085687708,0.0
11248,10.0,8.275862068965518,4.642857142857143,0,202991.5898988838,361160.56020932883,192116.8531353233,136019.52450401383,-20068.34471869384,1.3532772659925588e-06,0.0,0.0,0.0,1.3532772659925588e-06,0.0,23.610449984583457,3.896836214231281,-0.0006700024127765388,0.0
11249,10.0,8.275862068965518,5.0,0,81255.01415470341,273400.1270355787,258839.5970733083,185849.25379279882,-56954.724363492336,5.417000943646895e-07,0.0,0.0,0.0,5.417000943646895e-07,0.0,24.197660086389554,4.200077651280653,-0.0018994034906014026,0.0
11250,0.0,8.620689655172415,0.0,0,305727.86840480746,489269.1672951134,360527.6063668117,140225.35089911398,-87550.71857276846,2.038185789365383e-06,0.0,0.0,0.0,2.038185789365383e-06,0.0,23.31530945163435,-0.0499261269373935,-0.002919760253784514,0.0
11251,0.0,8.620689655172415,0.35714285714285715,0,371166.08006135834,438638.0134017103,306423.4099260296,19467.356217653956,41839.13444576854,2.4744405337423887e-06,0.0,0.0,0.0,2.4744405337423887e-06,0.0,22.26140712875833,0.25395923701492984,0.0013968427102527578,0.0
11252,0.0,8.620689655172415,0.7142857142857143,0,242090.6813976839,386075.3421759176,331872.2269958166,121477.648305349,-16019.814654939528,1.6139378759845593e-06,0.0,0.0,0.0,1.6139378759845593e-06,0.0,23.26992736509225,0.5587203195127853,-0.000536770208984902,0.0
11253,0.0,8.620689655172415,1.0714285714285714,0,278473.9321822268,524048.8647068227,248808.99451097826,242449.7946762218,-56137.528110563195,1.8564928812148453e-06,0.0,0.0,0.0,1.8564928812148453e-06,0.0,23.203061774396435,0.8656860593488953,-0.001903246743768225,0.0
11254,0.0,8.620689655172415,1.4285714285714286,0,305379.9450220309,629164.4892499275,390257.33058694215,285101.3865754942,30715.616644170863,2.0358663001468726e-06,0.0,0.0,0.0,2.0358663001468726e-06,0.0,23.191971267726682,1.1764272683270574,0.0010814265432421868,0.0
11255,0.0,8.620689655172415,1.7857142857142858,0,112357.39531100314,430894.07657560374,558511.9154439928,514937.85906825366,25614.58244760566,7.490493020733543e-07,0.0,0.0,0.0,7.490493020733543e-07,0.0,22.46204591268598,1.4908317343936055,0.0010117119293484172,0.0
11256,0.0,8.620689655172415,2.142857142857143,0,401994.1281222463,994164.9573737761,530438.6784307983,744476.7594720984,423322.34758805326,2.6799608541483085e-06,0.0,0.0,0.0,2.6799608541483085e-06,0.0,23.402848514236794,1.8051132115496138,0.022692234835447973,0.0
11257,0.0,8.620689655172415,2.5,0,1448966.993589872,1968923.2563437838,1114635.413445593,295926.3902739603,602419.6515971682,9.659779957265813e-06,0.0,0.0,0.0,9.659779957265813e-06,0.0,23.003404718656416,2.113267193827696,0.06024196515971682,0.0
11258,0.0,8.620689655172415,2.857142857142857,0,933826.9970594852,1276814.3811748216,411609.58153923525,286898.46864376724,505462.40774740046,6.225513313729901e-06,0.0,0.0,0.0,6.225513313729901e-06,0.0,23.22131892222495,2.412256068692471,0.027095360598011268,0.0
11259,0.0,8.620689655172415,3.2142857142857144,0,585906.4690457778,876089.9019272773,568651.3116021774,200453.44345825244,88087.57865834652,3.906043126971852e-06,0.0,0.0,0.0,3.906043126971852e-06,0.0,23.752821224640307,2.70511744867932,0.0034792389974874134,0.0
11260,0.0,8.620689655172415,3.5714285714285716,0,425630.2869948947,665116.6515740276,567356.7734982043,199111.55639433337,33694.65410210226,2.8375352466326312e-06,0.0,0.0,0.0,2.8375352466326312e-06,0.0,22.87779142793142,2.997855839755629,0.0011863116320763427,0.0
11261,0.0,8.620689655172415,3.928571428571429,0,306202.3814679127,465171.9564463103,387611.759067818,127647.46826400922,-19529.38399505439,2.0413492097860846e-06,0.0,0.0,0.0,2.0413492097860846e-06,0.0,23.23709194470798,3.2942574879203246,-0.0006621103163499029,0.0
11262,0.0,8.620689655172415,4.285714285714286,0,311228.6710188715,521671.3071479533,375665.13613059674,164283.03534643952,11126.344347463733,2.0748578067924767e-06,0.0,0.0,0.0,2.0748578067924767e-06,0.0,23.191893108813332,3.5944346052270713,0.00037280644684516395,0.0
11263,0.0,8.620689655172415,4.642857142857143,0,364130.3859843735,512958.10954868136,233472.6490453165,101173.38617361111,-65279.2974683557,2.42753590656249e-06,0.0,0.0,0.0,2.42753590656249e-06,0.0,23.21487261751096,3.896816379872073,-0.0021794167591417768,0.0
11264,0.0,8.620689655172415,5.0,0,235891.70598182533,496800.123685073,472585.49719211616,249735.07839116678,102001.19776072919,1.5726113732121689e-06,0.0,0.0,0.0,1.5726113732121689e-06,0.0,23.080623126370313,4.200073873062607,0.0034016744569909667,0.0
11265,0.3448275862068966,8.620689655172415,0.0,0,330249.8121852749,414251.3037160081,431849.50791998295,93152.44302494383,18363.88412762152,2.2016654145684994e-06,0.0,0.0,0.0,2.2016654145684994e-06,0.0,23.120044989601038,-0.049920802329415565,0.0006124237454015696,0.0
11266,0.3448275862068966,8.620689655172415,0.35714285714285715,0,322098.2074309183,458093.57634311914,235280.44921974294,88785.8921628158,75617.1196021507,2.1473213828727887e-06,0.0,0.0,0.0,2.1473213828727887e-06,0.0,24.157277725138837,0.2539871893951252,0.002524555626825537,0.0
11267,0.3448275862068966,8.620689655172415,0.7142857142857143,0,150718.48230028956,391989.9436328924,268803.1677126324,223931.42248033438,-11815.955907541758,1.0047898820019304e-06,0.0,0.0,0.0,1.0047898820019304e-06,0.0,23.113045192399813,0.55883401953311,-0.0003959130151291703,0.0
11268,0.3448275862068966,8.620689655172415,1.0714285714285714,0,198918.11540386008,458883.861259671,435251.4959251573,249205.2260721205,-47760.18245418128,1.3261207693590672e-06,0.0,0.0,0.0,1.3261207693590672e-06,0.0,23.46457588047077,0.8660444138644016,-0.0016192271871798471,0.0
11269,0.3448275862068966,8.620689655172415,1.4285714285714286,0,325936.39451180986,407602.2242491673,563412.8461033624,188814.39259387396,-19459.518372655344,2.172909296745399e-06,0.0,0.0,0.0,2.172909296745399e-06,0.0,23.38643041904324,1.1773024048549334,-0.0006851250922514746,0.0
11270,0.3448275862068966,8.620689655172415,1.7857142857142858,0,266030.6066709929,641466.2046723752,340639.173680141,437204.6924258261,76922.54685090581,1.7735373778066195e-06,0.0,0.0,0.0,1.7735373778066195e-06,0.0,23.375110870739608,1.4924876924528565,0.0030382481714902416,0.0
11271,0.3448275862068966,8.620689655172415,2.142857142857143,0,471302.0218595381,1065161.729641812,563613.3160641072,631459.9758919993,412617.2673263701,3.1420134790635872e-06,0.0,0.0,0.0,3.1420134790635872e-06,0.0,23.58353941853277,1.8075411263699004,0.022118387986552517,0.0
11272,0.3448275862068966,8.620689655172415,2.5,0,169019.8334842308,1077586.8464259724,891604.6859868909,1035837.166556597,1013692.5462388981,1.126798889894872e-06,0.0,0.0,0.0,1.126798889894872e-06,0.0,23.03167619697612,2.1160254090465966,0.10136925462388982,0.0
11273,0.3448275862068966,8.620689655172415,2.857142857142857,0,620386.1471358637,1014879.2419405186,300040.993535295,617041.3037919822,329174.56221920054,4.135907647572425e-06,0.0,0.0,0.0,4.135907647572425e-06,0.0,24.053599036350604,2.414683983512757,0.01764543381726414,0.0
11274,0.3448275862068966,8.620689655172415,3.2142857142857144,0,188012.21721583858,736968.6249871101,536266.7859345904,564940.1450034936,34180.66061796459,1.2534147814389239e-06,0.0,0.0,0.0,1.2534147814389239e-06,0.0,22.89759833504535,2.706773406738571,0.0013500505882123757,0.0
11275,0.3448275862068966,8.620689655172415,3.5714285714285716,0,324033.19123954413,574701.5302983773,498477.08169123135,219351.40772162282,44611.345094568846,2.160221274930294e-06,0.0,0.0,0.0,2.160221274930294e-06,0.0,23.28009409651865,2.998730976283505,0.0015706633297938196,0.0
11276,0.3448275862068966,8.620689655172415,3.928571428571429,0,313171.1394024383,544607.8782161558,188701.62507033028,311209.1315872268,-72329.99193476157,2.087807596016255e-06,0.0,0.0,0.0,2.087807596016255e-06,0.0,22.773813990818972,3.2946158424358307,-0.00245222449687295,0.0
11277,0.3448275862068966,8.620689655172415,4.285714285714286,0,91335.31797144077,403059.07532758446,322281.5005073378,303947.39746098086,-1793.325103856893,6.089021198096052e-07,0.0,0.0,0.0,6.089021198096052e-07,0.0,23.82034993421964,3.594548305247396,-6.008830386051487e-05,0.0
11278,0.3448275862068966,8.620689655172415,4.642857142857143,0,358959.9388913266,561105.5044409027,258470.0047706242,164510.25159467288,6276.206096799489,2.3930662592755107e-06,0.0,0.0,0.0,2.3930662592755107e-06,0.0,22.915973766423566,3.8968443322522686,0.0002095376219056781,0.0
11279,0.3448275862068966,8.620689655172415,5.0,0,379364.3881007958,525883.6418843128,455159.2045399359,116134.08444272612,19187.27621911622,2.529095920671972e-06,0.0,0.0,0.0,2.529095920671972e-06,0.0,23.75914977925576,4.2000791976705845,0.0006398833430064543,0.0
11280,0.6896551724137931,8.620689655172415,0.0,0,309026.4358928922,482625.0089687735,256934.52401027535,130415.62583754155,15295.434259529635,2.060176239285948e-06,0.0,0.0,0.0,2.060176239285948e-06,0.0,23.524091616198593,-0.04991562469392928,0.000510092912352626,0.0
11281,0.6896551724137931,8.620689655172415,0.35714285714285715,0,234492.70215138598,451985.8111325024,440176.19456062536,211811.4421273412,87164.41957673404,1.5632846810092398e-06,0.0,0.0,0.0,1.5632846810092398e-06,0.0,23.48447188433759,0.25401437021974665,0.0029100741612375198,0.0
11282,0.6896551724137931,8.620689655172415,0.7142857142857143,0,340878.05139853305,467987.3204709408,255371.94290934686,74810.5468386796,-38915.4820964528,2.272520342656887e-06,0.0,0.0,0.0,2.272520342656887e-06,0.0,23.959232895286963,0.558944581148625,-0.0013039271619300788,0.0
11283,0.6896551724137931,8.620689655172415,1.0714285714285714,0,366143.1449287937,560820.7703850275,387157.6373405903,140160.44574835253,-28912.97598350426,2.4409542995252912e-06,0.0,0.0,0.0,2.4409542995252912e-06,0.0,23.103592002387874,0.8663928768993978,-0.0009802449314275893,0.0
11284,0.6896551724137931,8.620689655172415,1.4285714285714286,0,293962.2335985154,655580.6879950167,395223.20340979565,336790.4933789313,38719.69776317219,1.9597482239901025e-06,0.0,0.0,0.0,1.9597482239901025e-06,0.0,24.144079353793167,1.1781533854268094,0.0013632319152985651,0.0
11285,0.6896551724137931,8.620689655172415,1.7857142857142858,0,509234.36723532336,955912.7238343646,507268.3433536427,402412.3057737814,96554.09911110935,3.3948957815688226e-06,0.0,0.0,0.0,3.3948957815688226e-06,0.0,23.223329514127485,1.4940979419297968,0.0038136453755594955,0.0
11286,0.6896551724137931,8.620689655172415,2.142857142857143,0,1047531.3383615987,1127068.7597144425,605745.4132607915,-78838.05694418988,460863.0172690676,6.983542255743991e-06,0.0,0.0,0.0,6.983542255743991e-06,0.0,23.635906612903916,1.8099020246713888,0.02470460601579149,0.0
11287,0.6896551724137931,8.620689655172415,2.5,0,1129086.6561720525,1461246.5799675295,1005673.8308896353,175548.6874513018,574091.5401249176,7.52724437448035e-06,0.0,0.0,0.0,7.52724437448035e-06,0.0,23.32809832689097,2.11870749062995,0.05740915401249176,0.0
11288,0.6896551724137931,8.620689655172415,2.857142857142857,0,647312.2869463898,1418200.6705459787,683991.9810986244,929785.1676926216,665409.1058036074,4.315415246309265e-06,0.0,0.0,0.0,4.315415246309265e-06,0.0,23.738140695823017,2.417044881814246,0.03566931860926644,0.0
11289,0.6896551724137931,8.620689655172415,3.2142857142857144,0,213958.75920500525,660360.0163821898,424050.6412814615,479781.2944366275,113540.54118289988,1.4263917280333683e-06,0.0,0.0,0.0,1.4263917280333683e-06,0.0,22.932899861709856,2.7083836562155112,0.004484567344182986,0.0
11290,0.6896551724137931,8.620689655172415,3.5714285714285716,0,360192.2450253554,493149.548609448,523817.66993011464,149271.89853723667,-76706.928663441,2.4012816335023697e-06,0.0,0.0,0.0,2.4012816335023697e-06,0.0,23.49254853978149,2.9995819568553808,-0.002700675349227365,0.0
11291,0.6896551724137931,8.620689655172415,3.928571428571429,0,372256.04522191273,454675.01029594266,366885.4459195721,46370.695446749676,27996.135582540024,2.481706968146085e-06,0.0,0.0,0.0,2.481706968146085e-06,0.0,23.452835732886488,3.294964305470827,0.000949161027906693,0.0
11292,0.6896551724137931,8.620689655172415,4.285714285714286,0,398890.44327514205,519058.97371394245,364565.97767778154,66029.9303746784,-48531.73448158866,2.6592696218342804e-06,0.0,0.0,0.0,2.6592696218342804e-06,0.0,23.666494354767437,3.5946588668629107,-0.001626135496645698,0.0
11293,0.6896551724137931,8.620689655172415,4.642857142857143,0,276212.60072924057,518772.97337388596,272613.3133324618,220058.67313781803,40743.41387111897,1.841417338194937e-06,0.0,0.0,0.0,1.841417338194937e-06,0.0,23.65593231300581,3.89687151307689,0.0013602609473303653,0.0
11294,0.6896551724137931,8.620689655172415,5.0,0,110642.63175894038,418180.41650163464,290589.1103598321,348715.90902123385,-57678.7659710468,7.376175450596025e-07,0.0,0.0,0.0,7.376175450596025e-07,0.0,23.02764542706173,4.200084375306071,-0.0019235498133533587,0.0
11295,1.0344827586206897,8.620689655172415,0.0,0,50444.1329754836,303479.4899197567,282621.00203693286,340149.1118254099,43724.18076589049,3.3629421983655733e-07,0.0,0.0,0.0,3.3629421983655733e-07,0.0,24.11888231552422,-0.04991061605601807,0.0014581733560921873,0.0
11296,1.0344827586206897,8.620689655172415,0.35714285714285715,0,373352.05960346,456100.3317181435,333607.42960154335,36889.668610041794,-53066.909605309964,2.4890137306897333e-06,0.0,0.0,0.0,2.4890137306897333e-06,0.0,23.44173766290226,0.25404066386460006,-0.0017716935787450573,0.0
11297,1.0344827586206897,8.620689655172415,0.7142857142857143,0,210025.32859309897,355992.22609954723,361235.6763767406,148637.71848183376,-42482.785837424795,1.4001688572873264e-06,0.0,0.0,0.0,1.4001688572873264e-06,0.0,23.840491339033353,0.559051534042559,-0.0014234555344985933,0.0
11298,1.0344827586206897,8.620689655172415,1.0714285714285714,0,210911.33364066604,315400.45329682267,311777.89192221477,102701.17284447815,6473.430985135582,1.4060755576044403e-06,0.0,0.0,0.0,1.4060755576044403e-06,0.0,22.84953587391188,0.866729966131029,0.0002194705904970069,0.0
11299,1.0344827586206897,8.620689655172415,1.4285714285714286,0,146584.12337657914,390134.73343074013,282707.95307699405,223145.04223198004,-25372.383911628305,9.772274891771942e-07,0.0,0.0,0.0,9.772274891771942e-07,0.0,23.27737923874547,1.1789765900663196,-0.0008933035512595857,0.0
11300,1.0344827586206897,8.620689655172415,1.7857142857142858,0,632220.6888830028,796735.9701706003,637308.8465806708,100061.92045961058,37316.445370373076,4.214804592553353e-06,0.0,0.0,0.0,4.214804592553353e-06,0.0,24.028751604072973,1.495655633002889,0.001473906241466528,0.0
11301,1.0344827586206897,8.620689655172415,2.142857142857143,0,945417.7876039293,1409744.5515115825,783079.3263516047,322278.3491686224,248414.05316701703,6.302785250692862e-06,0.0,0.0,0.0,6.302785250692862e-06,0.0,24.311856140134513,1.8121858634562307,0.013316259023435726,0.0
11302,1.0344827586206897,8.620689655172415,2.5,0,921852.5627499424,1313966.2149330508,536957.3466156035,295378.4042552617,709311.8594101636,6.145683751666282e-06,0.0,0.0,0.0,6.145683751666282e-06,0.0,23.711081227925675,2.121302029302078,0.07093118594101636,0.0
11303,1.0344827586206897,8.620689655172415,2.857142857142857,0,757481.4545332076,1154955.5625723698,302448.4343245998,559285.7915000375,515875.4172772526,5.049876363554717e-06,0.0,0.0,0.0,5.049876363554717e-06,0.0,23.459607872073732,2.4193287205990877,0.02765355096745783,0.0
11304,1.0344827586206897,8.620689655172415,3.2142857142857144,0,608583.5327944409,924855.8806314802,568100.796064272,222151.8431036006,219269.07221886562,4.057223551962939e-06,0.0,0.0,0.0,4.057223551962939e-06,0.0,22.977255066570446,2.7099413472886034,0.008660579830053888,0.0
11305,1.0344827586206897,8.620689655172415,3.5714285714285716,0,165737.43001238554,360835.604240453,278862.2084414367,170085.20081455988,49770.70585157275,1.1049162000825702e-06,0.0,0.0,0.0,1.1049162000825702e-06,0.0,23.911765127481935,3.000405161494891,0.0017523126104650242,0.0
11306,1.0344827586206897,8.620689655172415,3.928571428571429,0,234296.30698116575,496021.22558365075,353229.6988985437,225621.20501222555,31054.458645305403,1.5619753798744383e-06,0.0,0.0,0.0,1.5619753798744383e-06,0.0,23.671118031528,3.295301394702458,0.001052848233355702,0.0
11307,1.0344827586206897,8.620689655172415,4.285714285714286,0,172021.27842993167,435074.1794627185,237612.40105880515,317689.7440874215,-73627.05976147854,1.1468085228662112e-06,0.0,0.0,0.0,1.1468085228662112e-06,0.0,22.34596231280889,3.594765819756845,-0.00246699559928597,0.0
11308,1.0344827586206897,8.620689655172415,4.642857142857143,0,151486.88559368454,483909.95822702546,315867.1624219979,357823.24693691847,-1249.7813017557453,1.0099125706245635e-06,0.0,0.0,0.0,1.0099125706245635e-06,0.0,22.66093069751265,3.8968978067217432,-4.1725239393528456e-05,0.0
11309,1.0344827586206897,8.620689655172415,5.0,0,158313.94186112468,392585.699532066,271336.3342341437,213482.1253085049,-28319.98882902857,1.0554262790741645e-06,0.0,0.0,0.0,1.0554262790741645e-06,0.0,23.707193447546274,4.200089383943982,-0.000944453445026755,0.0
11310,1.3793103448275863,8.620689655172415,0.0,0,254489.28751223296,360214.93797574315,452365.36616138864,164637.46452426066,-65060.659164381395,1.696595250081553e-06,0.0,0.0,0.0,1.696595250081553e-06,0.0,23.120925147769814,-0.04990580210851661,-0.0021697312119179695,0.0
11311,1.3793103448275863,8.620689655172415,0.35714285714285715,0,137441.6758626822,442856.7353099241,383396.3329344915,285695.9268257018,-54796.208647702006,9.16277839084548e-07,0.0,0.0,0.0,9.16277839084548e-07,0.0,23.021970134781157,0.2540659354510453,-0.001829428013102045,0.0
11312,1.3793103448275863,8.620689655172415,0.7142857142857143,0,260670.95578798972,574659.040785458,418929.5888191344,273723.4728391982,28871.269323958113,1.7378063719199314e-06,0.0,0.0,0.0,1.7378063719199314e-06,0.0,23.494465607779098,0.5591543295781226,0.00096737931133941,0.0
11313,1.3793103448275863,8.620689655172415,1.0714285714285714,0,241793.93365571226,521858.33914056123,313782.9591379404,256597.87304890843,-24527.630978187066,1.6119595577047485e-06,0.0,0.0,0.0,1.6119595577047485e-06,0.0,23.7228268032193,0.8670539523909953,-0.0008315673198086393,0.0
11314,1.3793103448275863,8.620689655172415,1.4285714285714286,0,412799.9264560137,464838.97353311954,447253.87632456265,43527.513181495226,-69810.75556444241,2.751999509706758e-06,0.0,0.0,0.0,2.751999509706758e-06,0.0,24.27117850113615,1.1797677959765502,-0.0024578768821659812,0.0
11315,1.3793103448275863,8.620689655172415,1.7857142857142858,0,62436.187449777884,542360.6696022265,532373.5593770056,475532.89479472727,30909.96429757539,4.162412496651859e-07,0.0,0.0,0.0,4.162412496651859e-07,0.0,23.15198626365581,1.497152775176526,0.0012208662655171982,0.0
11316,1.3793103448275863,8.620689655172415,2.142857142857143,0,502433.1431020702,728652.2620293817,1091373.5451748215,517885.35247566056,445927.14364829106,3.349554287347135e-06,0.0,0.0,0.0,3.349554287347135e-06,0.0,23.78333400020483,1.8143809273053078,0.023903967085183806,0.0
11317,1.3793103448275863,8.620689655172415,2.5,0,1168149.039183591,1632067.6467620113,885643.2054661799,285865.142081053,658365.7170331037,7.78766026122394e-06,0.0,0.0,0.0,7.78766026122394e-06,0.0,23.056860196548627,2.1237957158451124,0.06583657170331036,0.0
11318,1.3793103448275863,8.620689655172415,2.857142857142857,0,532381.5331001395,888305.668765129,461733.03652594396,291669.72260208044,281267.7680251232,3.5492102206675963e-06,0.0,0.0,0.0,3.5492102206675963e-06,0.0,23.327322596098245,2.4215237844481647,0.015077385543272762,0.0
11319,1.3793103448275863,8.620689655172415,3.2142857142857144,0,414167.0779708463,692877.3707950051,222542.33717178463,382722.6178368869,9868.98940250634,2.7611138531389755e-06,0.0,0.0,0.0,2.7611138531389755e-06,0.0,23.674080462968437,2.7114384894622403,0.00038980039317650816,0.0
11320,1.3793103448275863,8.620689655172415,3.5714285714285716,0,655569.3487370783,654083.7794501934,534788.0972545341,-52941.52199102904,52262.8754731951,4.370462324913855e-06,0.0,0.0,0.0,4.370462324913855e-06,0.0,23.51054526487105,3.001196367405122,0.0018400561973936531,0.0
11321,1.3793103448275863,8.620689655172415,3.928571428571429,0,167321.70582318195,301499.8918411586,354248.0092869629,166908.7980650737,-92221.293867896,1.115478038821213e-06,0.0,0.0,0.0,1.115478038821213e-06,0.0,22.90602062081493,3.2956253809624245,-0.0031266050210561145,0.0
11322,1.3793103448275863,8.620689655172415,4.285714285714286,0,385412.9333538404,561096.5776315569,349526.5287342525,116236.7605432778,-11576.159393522188,2.5694195556922692e-06,0.0,0.0,0.0,2.5694195556922692e-06,0.0,23.85056665446412,3.5948686152924085,-0.00038787823896498737,0.0
11323,1.3793103448275863,8.620689655172415,4.642857142857143,0,312817.37655448524,408900.62294102303,429859.9992582926,107089.99827723947,-4960.057201364626,2.0854491770299015e-06,0.0,0.0,0.0,2.0854491770299015e-06,0.0,23.969193373273214,3.8969230783081885,-0.0001655966318601409,0.0
11324,1.3793103448275863,8.620689655172415,5.0,0,187085.85389333795,331735.2987185358,159197.2021568235,132887.0753956439,-32553.51051493037,1.2472390259555863e-06,0.0,0.0,0.0,1.2472390259555863e-06,0.0,24.78294755553523,4.200094197891484,-0.001085638675182885,0.0
11325,1.7241379310344829,8.620689655172415,0.0,0,315258.42277887586,404986.65419676,267687.4652093422,44361.7650965169,-40822.8452178443,2.101722818525839e-06,0.0,0.0,0.0,2.101722818525839e-06,0.0,23.715902459779006,-0.04990121268581896,-0.001361415678323541,0.0
11326,1.7241379310344829,8.620689655172415,0.35714285714285715,0,96657.30277261452,364561.7631852404,278183.7664158568,260161.9370422333,41908.73382966136,6.443820184840968e-07,0.0,0.0,0.0,6.443820184840968e-07,0.0,23.696548646219558,0.2540900283586648,0.0013991663575584825,0.0
11327,1.7241379310344829,8.620689655172415,0.7142857142857143,0,434065.7201177665,465199.8243528056,362722.1202475924,-10935.237970436976,41902.34188230055,2.893771467451777e-06,0.0,0.0,0.0,2.893771467451777e-06,0.0,23.766046139495142,0.5592523306809578,0.0014040068061701419,0.0
11328,1.7241379310344829,8.620689655172415,1.0714285714285714,0,171222.5016719609,383351.3738306693,247297.32929487378,191090.22660954672,4921.009950967117,1.1414833444797393e-06,0.0,0.0,0.0,1.1414833444797393e-06,0.0,22.93706883309207,0.8673628277775193,0.00016683841416713274,0.0
11329,1.7241379310344829,8.620689655172415,1.4285714285714286,0,172593.37147060176,316150.9397941722,235307.20883204936,117973.9151306547,-21378.193241176356,1.1506224764706785e-06,0.0,0.0,0.0,1.1506224764706785e-06,0.0,22.976061187546538,1.1805220996663675,-0.0007526772418536576,0.0
11330,1.7241379310344829,8.620689655172415,1.7857142857142858,0,322974.1489771128,700862.8317875848,335757.4065612332,584157.080077734,85491.07651685142,2.153160993180752e-06,0.0,0.0,0.0,2.153160993180752e-06,0.0,23.587314882465154,1.4985800899262678,0.003376683658297223,0.0
11331,1.7241379310344829,8.620689655172415,2.142857142857143,0,498726.45177372254,791589.3309190598,1010148.2787563748,439455.6890304274,453645.2646393441,3.3248430118248167e-06,0.0,0.0,0.0,3.3248430118248167e-06,0.0,22.484847307959203,1.8164736123312073,0.024317697697364506,0.0
11332,1.7241379310344829,8.620689655172415,2.5,0,1180780.5929767645,1330414.4840974144,704909.6373043652,-31528.376602730805,723212.5299176904,7.871870619845097e-06,0.0,0.0,0.0,7.871870619845097e-06,0.0,23.07272991192002,2.1261730956603233,0.07232125299176904,0.0
11333,1.7241379310344829,8.620689655172415,2.857142857142857,0,243482.3349793393,828396.9453344231,640488.640764252,553330.9512162756,456575.02595040866,1.6232155665289286e-06,0.0,0.0,0.0,1.6232155665289286e-06,0.0,23.394037353535104,2.423616469474064,0.024474747831998985,0.0
11334,1.7241379310344829,8.620689655172415,3.2142857142857144,0,503188.94233286375,661643.581807404,606288.1045732792,133065.7133828092,51305.579085177626,3.3545929488857583e-06,0.0,0.0,0.0,3.3545929488857583e-06,0.0,24.151965285198656,2.7128658042119826,0.002026442028043086,0.0
11335,1.7241379310344829,8.620689655172415,3.5714285714285716,0,234950.77247005922,530534.3864823905,286740.10658099427,305558.98839838227,-154863.5542701105,1.5663384831337282e-06,0.0,0.0,0.0,1.5663384831337282e-06,0.0,23.781970338134883,3.001950671094939,-0.005452391208962009,0.0
11336,1.7241379310344829,8.620689655172415,3.928571428571429,0,235873.60398535556,421729.4063175587,158124.1795113462,230592.39852659093,-8236.792918406905,1.5724906932357036e-06,0.0,0.0,0.0,1.5724906932357036e-06,0.0,22.898065556318134,3.2959342563489487,-0.0002792543567322,0.0
11337,1.7241379310344829,8.620689655172415,4.285714285714286,0,246918.40882264034,448921.1802089062,164017.9807496753,296913.12617213075,29287.585558364863,1.646122725484269e-06,0.0,0.0,0.0,1.646122725484269e-06,0.0,23.64162718329369,3.5949666163952436,0.0009813286707396084,0.0
11338,1.7241379310344829,8.620689655172415,4.642857142857143,0,261207.5656610998,484129.1313216558,293462.2485394471,186400.04468050078,1306.579014597836,1.7413837710739986e-06,0.0,0.0,0.0,1.7413837710739986e-06,0.0,23.95821927703485,3.896947171215808,4.362148969108995e-05,0.0
11339,1.7241379310344829,8.620689655172415,5.0,0,94478.19596181287,327393.3236594967,340623.6483957461,240227.63300991443,14642.49105962034,6.298546397454192e-07,0.0,0.0,0.0,6.298546397454192e-07,0.0,24.02832169675734,4.2000987873141815,0.0004883176758479766,0.0
11340,2.0689655172413794,8.620689655172415,0.0,0,211261.66084219355,414992.7496546775,277280.09401197266,171757.78868500225,-11406.953071380562,1.4084110722812904e-06,0.0,0.0,0.0,1.4084110722812904e-06,0.0,24.191793674970572,-0.049896882170131655,-0.00038041456126850604,0.0
11341,2.0689655172413794,8.620689655172415,0.35714285714285715,0,201887.36887736054,140485.59338410068,330542.84989283787,118607.46756282786,-8114.816040061792,1.345915792515737e-06,0.0,0.0,0.0,1.345915792515737e-06,0.0,24.27280003236321,0.25411276209257255,-0.00027092151357229757,0.0
11342,2.0689655172413794,8.620689655172415,0.7142857142857143,0,249125.25902231914,442699.69618251704,159213.49109186302,258647.33548472018,7212.473863028701,1.6608350601487942e-06,0.0,0.0,0.0,1.6608350601487942e-06,0.0,23.963460234333187,0.5593448031641346,0.00024166578616203555,0.0
11343,2.0689655172413794,8.620689655172415,1.0714285714285714,0,303466.8623113414,408450.42280317494,169901.04611612885,66885.8726063569,84744.9268168733,2.0231124154089424e-06,0.0,0.0,0.0,2.0231124154089424e-06,0.0,23.926790301689262,0.8676542783138678,0.0028731316009751626,0.0
11344,2.0689655172413794,8.620689655172415,1.4285714285714286,0,331940.93064922333,405709.75087923347,581202.2182489159,198351.6354557496,48887.68278022796,2.212939537661489e-06,0.0,0.0,0.0,2.212939537661489e-06,0.0,23.804255545349392,1.1812338501798707,0.001721223389671903,0.0
11345,2.0689655172413794,8.620689655172415,1.7857142857142858,0,524967.3699519275,769154.6472856009,684807.2157919598,207120.49583073088,127572.82439723123,3.499782466346183e-06,0.0,0.0,0.0,3.499782466346183e-06,0.0,24.113903466105633,1.4999268843537292,0.005038807428048247,0.0
11346,2.0689655172413794,8.620689655172415,2.142857142857143,0,620460.4816341355,1323295.700930185,915177.2108228358,609284.8083705566,426229.70874380803,4.136403210894237e-06,0.0,0.0,0.0,4.136403210894237e-06,0.0,23.303525266708032,1.8184482409349,0.022848084207619673,0.0
11347,2.0689655172413794,8.620689655172415,2.5,0,758272.7854968995,1141140.8375481078,716438.3030868701,265691.964273041,559761.5401103175,5.055151903312664e-06,0.0,0.0,0.0,5.055151903312664e-06,0.0,23.59997406521426,2.1284163583237716,0.05597615401103175,0.0
11348,2.0689655172413794,8.620689655172415,2.857142857142857,0,467035.96391686436,869345.9357820447,699302.42495952,341112.6113519704,535652.8178883141,3.1135730927790958e-06,0.0,0.0,0.0,3.1135730927790958e-06,0.0,23.35722746688315,2.425591098077757,0.028713720414353355,0.0
11349,2.0689655172413794,8.620689655172415,3.2142857142857144,0,391404.839544239,747350.0514886011,506187.5797930752,295742.7666614112,141845.52669526055,2.6093655969615934e-06,0.0,0.0,0.0,2.6093655969615934e-06,0.0,23.928426572190567,2.7142125986394436,0.005602543464288204,0.0
11350,2.0689655172413794,8.620689655172415,3.5714285714285716,0,126030.00360259364,370138.55643587315,486294.71746223076,352293.1787837133,24829.402599616766,8.402000240172909e-07,0.0,0.0,0.0,8.402000240172909e-07,0.0,23.586963891968292,3.0026624216084423,0.0008741864223379632,0.0
11351,2.0689655172413794,8.620689655172415,3.928571428571429,0,232991.55526646142,377197.0535293346,339227.54181047087,127552.8041294073,-1627.0302727180451,1.553277035109743e-06,0.0,0.0,0.0,1.553277035109743e-06,0.0,24.227841815793678,3.296225706885297,-5.51616747795538e-05,0.0
11352,2.0689655172413794,8.620689655172415,4.285714285714286,0,337934.3171446875,524962.9455793959,339652.6796031116,134911.30673266883,23034.4289487303,2.25289544763125e-06,0.0,0.0,0.0,2.25289544763125e-06,0.0,23.75197556619876,3.59505908887842,0.0007718063852159163,0.0
11353,2.0689655172413794,8.620689655172415,4.642857142857143,0,323691.0224262822,425719.76629220136,280243.9617056691,54815.01354553933,-9717.57925741666,2.157940149508548e-06,0.0,0.0,0.0,2.157940149508548e-06,0.0,24.2623521959679,3.896969904949716,-0.00032443141873836465,0.0
11354,2.0689655172413794,8.620689655172415,5.0,0,241715.38525072995,262379.02985082584,360933.623422342,85511.30340729916,30603.366801511373,1.611435901671533e-06,0.0,0.0,0.0,1.611435901671533e-06,0.0,22.679736404076028,4.200103117829869,0.001020602634400696,0.0
11355,2.413793103448276,8.620689655172415,0.0,0,99799.11561315588,264841.181423429,314395.5736885708,199517.6831491731,-34640.989663507775,6.653274374210392e-07,0.0,0.0,0.0,6.653274374210392e-07,0.0,23.368808440634115,-0.04989284972978898,-0.0011552547645534638,0.0
11356,2.413793103448276,8.620689655172415,0.35714285714285715,0,224219.78279560848,426912.24851645716,293096.00880611077,168055.12113780866,-78982.04077136434,1.4947985519707233e-06,0.0,0.0,0.0,1.4947985519707233e-06,0.0,24.202539862113294,0.2541339310323407,-0.0026368969949741466,0.0
11357,2.413793103448276,8.620689655172415,0.7142857142857143,0,291533.69608799345,486376.32933556597,228728.97724138122,169921.95904078946,-49822.25956495811,1.9435579739199564e-06,0.0,0.0,0.0,1.9435579739199564e-06,0.0,23.748352011122897,0.5594309106392427,-0.0016693766597690733,0.0
11358,2.413793103448276,8.620689655172415,1.0714285714285714,0,30500.270772852135,289111.95146796096,289458.1047541688,319783.8256389041,6300.90455331505,2.033351384856809e-07,0.0,0.0,0.0,2.033351384856809e-07,0.0,24.270862493121516,0.867925667909364,0.0002136213773123852,0.0
11359,2.413793103448276,8.620689655172415,1.4285714285714286,0,443062.6325899291,541331.0655329924,240429.95198465555,32553.303126113547,-8743.16026926965,2.9537508839328605e-06,0.0,0.0,0.0,2.9537508839328605e-06,0.0,23.873111115072728,1.181896609927627,-0.00030782665692642274,0.0
11360,2.413793103448276,8.620689655172415,1.7857142857142858,0,363136.1145676325,900753.594569846,492308.549035609,614388.9919217189,64431.377979921475,2.4209074304508833e-06,0.0,0.0,0.0,2.4209074304508833e-06,0.0,23.285467849146453,1.5011809770703337,0.0025448782489420115,0.0
11361,2.413793103448276,8.620689655172415,2.142857142857143,0,742559.0048581049,1452089.072682606,756609.4159067324,670039.5495444325,260943.7787820496,4.950393365720699e-06,0.0,0.0,0.0,4.950393365720699e-06,0.0,24.653851018993414,1.8202869531387795,0.013987916160603296,0.0
11362,2.413793103448276,8.620689655172415,2.5,0,986776.1147663865,1322428.7812159227,271738.11388957966,415293.00520454696,753082.6704254855,6.5785074317759094e-06,0.0,0.0,0.0,6.5785074317759094e-06,0.0,23.430140349709905,2.1305052141359866,0.07530826704254855,0.0
11363,2.413793103448276,8.620689655172415,2.857142857142857,0,586576.4041298921,1160936.6403913219,689305.3755825586,504116.44693905895,288295.2691181094,3.910509360865947e-06,0.0,0.0,0.0,3.910509360865947e-06,0.0,23.39377902672511,2.4274298102816365,0.015454095409919334,0.0
11364,2.413793103448276,8.620689655172415,3.2142857142857144,0,193797.18838396415,407923.2712612718,330702.31614389963,187419.8491071444,110271.80817565258,1.2919812558930943e-06,0.0,0.0,0.0,1.2919812558930943e-06,0.0,24.181178816317146,2.715466691356048,0.004355460567445497,0.0
11365,2.413793103448276,8.620689655172415,3.5714285714285716,0,417257.666223333,705232.8973348908,397192.9976245934,230374.16372379588,-64022.543424901894,2.78171777482222e-06,0.0,0.0,0.0,2.78171777482222e-06,0.0,23.320368747721993,3.0033251813561983,-0.0022540871839766183,0.0
11366,2.413793103448276,8.620689655172415,3.928571428571429,0,24037.7819594111,378189.08887155406,353627.5766777085,354711.72388658527,-35571.958903733575,1.6025187972940732e-07,0.0,0.0,0.0,1.6025187972940732e-07,0.0,23.134199578069182,3.296497096480793,-0.0012060063424888985,0.0
11367,2.413793103448276,8.620689655172415,4.285714285714286,0,197236.36122637978,337381.7123729987,255007.83984779308,112311.4135304065,-40363.81026211591,1.3149090748425318e-06,0.0,0.0,0.0,1.3149090748425318e-06,0.0,23.40170945481985,3.5951451963535286,-0.001352455776580561,0.0
11368,2.413793103448276,8.620689655172415,4.642857142857143,0,223052.87620272566,392401.5869746001,334860.2147322579,146215.79456442336,23726.99954692719,1.4870191746848378e-06,0.0,0.0,0.0,1.4870191746848378e-06,0.0,24.20035605975711,3.8969910738894837,0.0007921503824668075,0.0
11369,2.413793103448276,8.620689655172415,5.0,0,377672.6549318033,538418.6021842816,338270.4262325784,102796.95419548411,-19095.513821618522,2.517817699545355e-06,0.0,0.0,0.0,2.517817699545355e-06,0.0,24.864795362176274,4.200107150270211,-0.0006368231259645683,0.0
11370,2.7586206896551726,8.620689655172415,0.0,0,415674.48639134044,583811.4450804178,264874.73984260525,113706.95133214908,17198.9173391357,2.7711632426089363e-06,0.0,0.0,0.0,2.7711632426089363e-06,0.0,23.785783806692514,-0.04988915924157275,0.0005735728509549094,0.0
11371,2.7586206896551726,8.620689655172415,0.35714285714285715,0,282194.6831511114,415211.63285905373,407829.8231450813,129398.4657419506,46193.15774861892,1.8812978876740762e-06,0.0,0.0,0.0,1.8812978876740762e-06,0.0,23.426001609069473,0.25415330483979365,0.0015422062745669399,0.0
11372,2.7586206896551726,8.620689655172415,0.7142857142857143,0,362642.6210693451,487458.7205604358,225515.57829685014,73557.80616101045,72335.7309869276,2.417617473795634e-06,0.0,0.0,0.0,2.417617473795634e-06,0.0,24.410113299484408,0.5595097161751492,0.0024237275071691744,0.0
11373,2.7586206896551726,8.620689655172415,1.0714285714285714,0,273915.6506385826,422258.09282398975,416243.20180608693,145384.53133993252,9945.564447855417,1.8261043375905507e-06,0.0,0.0,0.0,1.8261043375905507e-06,0.0,23.489903028108778,0.8681740435873838,0.0003371873288228391,0.0
11374,2.7586206896551726,8.620689655172415,1.4285714285714286,0,162854.37266386714,385526.15536780044,318641.1163446412,199878.70702047463,-47494.8038758274,1.0856958177591143e-06,0.0,0.0,0.0,1.0856958177591143e-06,0.0,23.58021060615234,1.182503167453947,-0.0016721833122353745,0.0
11375,2.7586206896551726,8.620689655172415,1.7857142857142858,0,619658.0825073179,902740.7418202973,370292.18085009174,222571.97634087314,160609.4504391789,4.131053883382119e-06,0.0,0.0,0.0,4.131053883382119e-06,0.0,24.01530836412738,1.5023287223559145,0.006343671512420052,0.0
11376,2.7586206896551726,8.620689655172415,2.142857142857143,0,867223.4678951162,904065.1490086399,650180.0323322588,-61765.54484923773,545487.0000751431,5.781489785967441e-06,0.0,0.0,0.0,5.781489785967441e-06,0.0,24.382300586233313,1.8219697420072585,0.029240882688846042,0.0
11377,2.7586206896551726,8.620689655172415,2.5,0,1078467.887866383,1588012.5634574748,583303.8200767821,448466.5087628938,693731.0457150183,7.189785919109219e-06,0.0,0.0,0.0,7.189785919109219e-06,0.0,23.851744921843434,2.1324169343612813,0.06937310457150184,0.0
11378,2.7586206896551726,8.620689655172415,2.857142857142857,0,777902.4225797314,1300698.3826697445,884794.9385087831,403253.78687213635,525588.1272016322,5.186016150531543e-06,0.0,0.0,0.0,5.186016150531543e-06,0.0,23.643861957590023,2.4291125991501157,0.028174201709731166,0.0
11379,2.7586206896551726,8.620689655172415,3.2142857142857144,0,449084.86040149065,782494.9572095609,264439.6362112551,543246.708502297,96638.03273697183,2.993899069343271e-06,0.0,0.0,0.0,2.993899069343271e-06,0.0,24.98659744416727,2.716614436641629,0.0038169605438130565,0.0
11380,2.7586206896551726,8.620689655172415,3.5714285714285716,0,407140.18262199685,664465.5430970349,475763.42264793377,197211.3310904397,-74604.6541401369,2.7142678841466455e-06,0.0,0.0,0.0,2.7142678841466455e-06,0.0,23.49534366451644,3.003931738882519,-0.0026266590761041516,0.0
11381,2.7586206896551726,8.620689655172415,3.928571428571429,0,376275.50084492395,605550.8785951565,214690.06898901679,245791.16060778845,-26147.992866434157,2.5085033389661595e-06,0.0,0.0,0.0,2.5085033389661595e-06,0.0,23.555557916135697,3.296745472158813,-0.0008865029144336565,0.0
11382,2.7586206896551726,8.620689655172415,4.285714285714286,0,246730.98018873011,392103.48331673804,352435.78504776256,127941.92009638844,-20521.485819271777,1.6448732012582008e-06,0.0,0.0,0.0,1.6448732012582008e-06,0.0,23.645999439701374,3.5952240018894353,-0.0006876060971463715,0.0
11383,2.7586206896551726,8.620689655172415,4.642857142857143,0,65148.3899291402,339531.44940605015,285499.1017974136,267186.5675980407,-14730.989384065933,4.343225995276013e-07,0.0,0.0,0.0,4.343225995276013e-07,0.0,24.120463921793743,3.8970104476969367,-0.0004918092931060703,0.0
11384,2.7586206896551726,8.620689655172415,5.0,0,199253.1782789816,253976.6180208343,305414.96336288616,85486.10626384446,-37802.41494325953,1.3283545218598773e-06,0.0,0.0,0.0,1.3283545218598773e-06,0.0,23.616070790009875,4.200110840758428,-0.0012606862678878044,0.0
11385,3.1034482758620694,8.620689655172415,0.0,0,359527.9240047074,572360.4282306432,229898.83661217536,197904.7032450308,-38107.23024364535,2.3968528266980497e-06,0.0,0.0,0.0,2.3968528266980497e-06,0.0,24.240818464123695,-0.04988585870123936,-0.001270851662453609,0.0
11386,3.1034482758620694,8.620689655172415,0.35714285714285715,0,118316.85930931049,360355.65749026835,304448.3219939966,224445.2550050182,53177.803844006725,7.887790620620699e-07,0.0,0.0,0.0,7.887790620620699e-07,0.0,23.81102510702568,0.25417063155354075,0.0017753958974231214,0.0
11387,3.1034482758620694,8.620689655172415,0.7142857142857143,0,244204.0293994347,486337.40097709897,288152.1316479175,213527.87812770964,-68829.69225601465,1.6280268626628979e-06,0.0,0.0,0.0,1.6280268626628979e-06,0.0,23.682129990994227,0.5595801948854213,-0.0023062519194150402,0.0
11388,3.1034482758620694,8.620689655172415,1.0714285714285714,0,177299.4440631705,347814.9507241151,166778.97420291672,340089.31880678836,-29304.229201422502,1.18199629375447e-06,0.0,0.0,0.0,1.18199629375447e-06,0.0,23.56539822891216,0.8683961751578172,-0.0009935097016811909,0.0
11389,3.1034482758620694,8.620689655172415,1.4285714285714286,0,442661.7313604802,620547.0624492686,240834.22969109355,134358.00883605942,35436.982254555405,2.951078209069868e-06,0.0,0.0,0.0,2.951078209069868e-06,0.0,23.83856364099007,1.183045634320888,0.0012476550175251427,0.0
11390,3.1034482758620694,8.620689655172415,1.7857142857142858,0,160568.87326820224,584599.0667823127,402308.6806136327,464127.70116429334,33709.465763176624,1.0704591551213482e-06,0.0,0.0,0.0,1.0704591551213482e-06,0.0,24.07942395385344,1.5033551934853588,0.0013314395701873234,0.0
11391,3.1034482758620694,8.620689655172415,2.142857142857143,0,187079.55321283182,767115.5612960176,552935.8155658067,635652.8219700416,420185.23682229687,1.2471970214188787e-06,0.0,0.0,0.0,1.2471970214188787e-06,0.0,23.843032922993416,1.8234747224346624,0.02252406971350967,0.0
11392,3.1034482758620694,8.620689655172415,2.5,0,645355.0025704871,1135636.0875880285,1126467.8850722986,485745.82845645613,636210.0724595822,4.302366683803247e-06,0.0,0.0,0.0,4.302366683803247e-06,0.0,23.981593758275636,2.1341266565823114,0.06362100724595822,0.0
11393,3.1034482758620694,8.620689655172415,2.857142857142857,0,170322.02717097275,900050.3144110558,706430.34180162,773356.0078920418,423921.5138108932,1.1354801811398184e-06,0.0,0.0,0.0,1.1354801811398184e-06,0.0,23.48248847239556,2.4306175795775196,0.022724353197995144,0.0
11394,3.1034482758620694,8.620689655172415,3.2142857142857144,0,461329.8532677856,760856.070339828,369983.6506108934,251988.37332464024,1047.7557888308802,3.075532355118571e-06,0.0,0.0,0.0,3.075532355118571e-06,0.0,23.516811659970948,2.7176409077710733,4.1383732597333403e-05,0.0
11395,3.1034482758620694,8.620689655172415,3.5714285714285716,0,244734.86743407339,469672.3121705207,285606.16048755794,191938.14804078543,-82231.6945943603,1.6315657828938226e-06,0.0,0.0,0.0,1.6315657828938226e-06,0.0,23.877156732088732,3.0044742057494593,-0.0028951897095317713,0.0
11396,3.1034482758620694,8.620689655172415,3.928571428571429,0,265463.78491399734,459618.7843990008,244647.8046698576,162893.68581948744,-16117.039532954657,1.7697585660933155e-06,0.0,0.0,0.0,1.7697585660933155e-06,0.0,23.944063622170507,3.2969676037292466,-0.0005464206216893927,0.0
11397,3.1034482758620694,8.620689655172415,4.285714285714286,0,276173.35489810206,373290.7285447931,254618.1397498607,57616.11384151564,-70870.74059394127,1.8411556993206803e-06,0.0,0.0,0.0,1.8411556993206803e-06,0.0,23.91289809558801,3.595294480599707,-0.0023746405972178354,0.0
11398,3.1034482758620694,8.620689655172415,4.642857142857143,0,139553.75776872758,342542.5785046536,191597.11411974736,218214.43316696706,-2641.8669458037302,9.303583851248505e-07,0.0,0.0,0.0,9.303583851248505e-07,0.0,23.598585434441,3.897027774410684,-8.820145621049956e-05,0.0
11399,3.1034482758620694,8.620689655172415,5.0,0,140002.0734272438,348917.3281776713,212210.76171327842,205837.4326974627,-44902.1402131147,9.333471561816253e-07,0.0,0.0,0.0,9.333471561816253e-07,0.0,23.93491773272907,4.20011414129876,-0.0014974575473660325,0.0
11400,3.4482758620689657,8.620689655172415,0.0,0,342562.056054894,540578.8566175139,327389.28637934406,145433.5254847285,-43150.76210574651,2.28374704036596e-06,0.0,0.0,0.0,2.28374704036596e-06,0.0,23.887223274957694,-0.04988299890030544,-0.0014390502119311808,0.0
11401,3.4482758620689657,8.620689655172415,0.35714285714285715,0,115330.92973361588,401022.08735531167,282843.18409901817,288767.4829287862,56487.87146709853,7.688728648907726e-07,0.0,0.0,0.0,7.688728648907726e-07,0.0,23.818671258530355,0.2541856445354015,0.001885905923287843,0.0
11402,3.4482758620689657,8.620689655172415,0.7142857142857143,0,126608.52316385786,232229.6371819086,257747.06470788267,120323.34459958786,10542.586647492357,8.440568210923857e-07,0.0,0.0,0.0,8.440568210923857e-07,0.0,23.557885760243597,0.5596412621838326,0.00035324668605145424,0.0
11403,3.4482758620689657,8.620689655172415,1.0714285714285714,0,302697.5998286034,355349.7152905058,277837.9671375304,21433.234737307517,-60674.46994925657,2.017983998857356e-06,0.0,0.0,0.0,2.017983998857356e-06,0.0,24.148346564634714,0.8685886442714812,-0.0020570639863826926,0.0
11404,3.4482758620689657,8.620689655172415,1.4285714285714286,0,135561.2371042401,469836.71855561866,318435.3656225013,359711.1709527982,3567.0784342129004,9.037415806949341e-07,0.0,0.0,0.0,9.037415806949341e-07,0.0,23.887535654942866,1.1835156625877772,0.0001255886653773784,0.0
11405,3.4482758620689657,8.620689655172415,1.7857142857142858,0,488888.87874983106,903924.0106456239,434553.9411625047,397612.1378148838,60109.44407541289,3.25925919166554e-06,0.0,0.0,0.0,3.25925919166554e-06,0.0,23.523064191810406,1.5042445942495117,0.0023741726714456494,0.0
11406,3.4482758620689657,8.620689655172415,2.142857142857143,0,579703.900588052,1179470.2086015567,785916.7799506208,513765.58248705737,166603.57148482712,3.864692670587014e-06,0.0,0.0,0.0,3.864692670587014e-06,0.0,23.840433944119603,1.8247787345045317,0.008930800346588493,0.0
11407,3.4482758620689657,8.620689655172415,2.5,0,541671.7190848213,938808.727983941,907703.9945067671,382254.86131879094,704132.8478966195,3.6111447938988085e-06,0.0,0.0,0.0,3.6111447938988085e-06,0.0,23.61628237893293,2.135608070142083,0.07041328478966194,0.0
11408,3.4482758620689657,8.620689655172415,2.857142857142857,0,1035992.9557123082,1451346.3054779815,377245.2788537188,458212.8581077414,462150.0762708516,6.906619704748721e-06,0.0,0.0,0.0,6.906619704748721e-06,0.0,23.913973305628392,2.431921591647389,0.024773598936391993,0.0
11409,3.4482758620689657,8.620689655172415,3.2142857142857144,0,488384.8989931196,656127.2767762155,444796.792050443,97665.85594701626,41629.55334053861,3.255899326620797e-06,0.0,0.0,0.0,3.255899326620797e-06,0.0,24.63126135301997,2.718530308535226,0.0016442632166352603,0.0
11410,3.4482758620689657,8.620689655172415,3.5714285714285716,0,402459.2909886598,575796.0053790131,183826.54432176147,163608.96889145335,-7667.796846288547,2.6830619399243987e-06,0.0,0.0,0.0,2.6830619399243987e-06,0.0,23.99580036223123,3.0049442340163486,-0.0002699655726865842,0.0
11411,3.4482758620689657,8.620689655172415,3.928571428571429,0,230425.1349408454,304995.62141331914,328045.70262841386,86961.81743087916,-21845.228860991854,1.5361675662723025e-06,0.0,0.0,0.0,1.5361675662723025e-06,0.0,24.02733746972652,3.2971600728429107,-0.0007406250701788744,0.0
11412,3.4482758620689657,8.620689655172415,4.285714285714286,0,143150.66434467307,200323.60919621526,328581.07514493656,174149.35482447143,14844.037716216852,9.543377622978205e-07,0.0,0.0,0.0,9.543377622978205e-07,0.0,24.643496690279992,3.5953555478981185,0.0004973738709677702,0.0
11413,3.4482758620689657,8.620689655172415,4.642857142857143,0,52638.87839243676,275646.15957898233,221742.31088837044,224370.7313604993,-9572.845640589509,3.509258559495784e-07,0.0,0.0,0.0,3.509258559495784e-07,0.0,24.0716054715108,3.897042787392545,-0.00031959933747589077,0.0
11414,3.4482758620689657,8.620689655172415,5.0,0,164693.1846798035,134257.05403777448,259606.02753536482,73078.51816579889,-8042.580396474632,1.0979545645320233e-06,0.0,0.0,0.0,1.0979545645320233e-06,0.0,24.157670612423708,4.200117001099695,-0.00026821489260508524,0.0
11415,3.793103448275862,8.620689655172415,0.0,0,384920.40059007064,527866.9692704234,103060.40437377857,202245.96910108815,-30037.96023750909,2.5661360039338044e-06,0.0,0.0,0.0,2.5661360039338044e-06,0.0,23.981724598539913,-0.04988063117934759,-0.0010017466885019696,0.0
11416,3.793103448275862,8.620689655172415,0.35714285714285715,0,201982.89208090192,387104.890768103,332041.01677864813,163300.01618563692,75770.06812185895,1.3465526138726795e-06,0.0,0.0,0.0,1.3465526138726795e-06,0.0,23.721926584054078,0.25419807426481716,0.0025296619711041293,0.0
11417,3.793103448275862,8.620689655172415,0.7142857142857143,0,108975.50586881483,303503.0577266458,313506.07357527444,199873.92708700267,-9661.788558336591,7.265033724587655e-07,0.0,0.0,0.0,7.265033724587655e-07,0.0,24.14307313922662,0.5596918217597012,-0.0003237340990101389,0.0
11418,3.793103448275862,8.620689655172415,1.0714285714285714,0,258269.04966129106,418359.1069430543,356783.3590970443,134867.40940265747,27122.50113671064,1.721793664408607e-06,0.0,0.0,0.0,1.721793664408607e-06,0.0,24.774846655409604,0.8687479956265896,0.0009195419482957464,0.0
11419,3.793103448275862,8.620689655172415,1.4285714285714286,0,213136.01210513955,462701.40356679686,444619.86000425916,241100.6332136442,17438.908432270888,1.420906747367597e-06,0.0,0.0,0.0,1.420906747367597e-06,0.0,23.26807676135926,1.1839048140720967,0.0006139840421340434,0.0
11420,3.793103448275862,8.620689655172415,1.7857142857142858,0,500969.67510473524,717938.1065899776,290689.91749323125,166579.1248005806,-96194.6751974364,3.3397978340315682e-06,0.0,0.0,0.0,3.3397978340315682e-06,0.0,23.70463099237025,1.5049809576810462,-0.0037994490301027687,0.0
11421,3.793103448275862,8.620689655172415,2.142857142857143,0,988742.4365028975,1175080.655218782,830385.6639885474,60130.04693785248,321791.10870884435,6.591616243352651e-06,0.0,0.0,0.0,6.591616243352651e-06,0.0,23.51146960599236,1.825858367940024,0.017249643087319827,0.0
11422,3.793103448275862,8.620689655172415,2.5,0,958545.2611588392,1048753.6364889417,1108699.8355926129,121588.36694264393,514017.04143244075,6.390301741058928e-06,0.0,0.0,0.0,6.390301741058928e-06,0.0,23.572069990962884,2.136834579963485,0.051401704143244076,0.0
11423,3.793103448275862,8.620689655172415,2.857142857142857,0,455944.75171947276,779691.8664277281,379502.50945989136,283333.83288992586,449284.1956603786,3.0396316781298184e-06,0.0,0.0,0.0,3.0396316781298184e-06,0.0,24.5591568123491,2.433001225082881,0.024083922178618267,0.0
11424,3.793103448275862,8.620689655172415,3.2142857142857144,0,602434.59886091,744357.139385948,425172.14697299956,49490.740052798676,-13603.644515220352,4.016230659072734e-06,0.0,0.0,0.0,4.016230659072734e-06,0.0,23.87305607542924,2.7192666719667606,-0.0005373099275311473,0.0
11425,3.793103448275862,8.620689655172415,3.5714285714285716,0,221556.44594900616,517358.7789050863,279671.39803797926,316565.16184584267,27663.99985260587,1.4770429729933744e-06,0.0,0.0,0.0,1.4770429729933744e-06,0.0,24.31839149842935,3.005333385500668,0.0009739861022302943,0.0
11426,3.793103448275862,8.620689655172415,3.928571428571429,0,221284.2908343425,391360.0618170411,334178.02617766924,147097.0743996323,38474.40318692689,1.4752286055622833e-06,0.0,0.0,0.0,1.4752286055622833e-06,0.0,23.62812723313814,3.297319424198019,0.0013044087448903132,0.0
11427,3.793103448275862,8.620689655172415,4.285714285714286,0,402028.0039238208,534532.3581852429,82371.27502726947,217406.3219509581,10446.554123078167,2.680186692825472e-06,0.0,0.0,0.0,2.680186692825472e-06,0.0,23.643954577075625,3.595406107473987,0.00035002895854901664,0.0
11428,3.793103448275862,8.620689655172415,4.642857142857143,0,166943.68987665768,338676.8088850115,394634.23768495035,206900.1784253848,140.24003841775422,1.1129579325110512e-06,0.0,0.0,0.0,1.1129579325110512e-06,0.0,23.462268687799327,3.8970552171219603,4.682058506810687e-06,0.0
11429,3.793103448275862,8.620689655172415,5.0,0,136845.67200223947,304316.9800747095,251421.1662932203,148918.4523671576,-14692.447077132649,9.123044800149298e-07,0.0,0.0,0.0,9.123044800149298e-07,0.0,24.698368923619977,4.200119368820652,-0.0004899836769585051,0.0
11430,4.137931034482759,8.620689655172415,0.0,0,76261.7717722015,387551.78329386964,315879.7306385495,396023.71883498784,-4416.986260894406,5.084118118146766e-07,0.0,0.0,0.0,5.084118118146766e-07,0.0,24.324154211925546,-0.049878804202624645,-0.0001473036559414724,0.0
11431,4.137931034482759,8.620689655172415,0.35714285714285715,0,92739.84783390028,309429.50490093784,246092.20707247674,352540.3277961323,-47937.535520592115,6.182656522260018e-07,0.0,0.0,0.0,6.182656522260018e-07,0.0,23.41607930067711,0.2542076652709869,-0.0016004441278826202,0.0
11432,4.137931034482759,8.620689655172415,0.7142857142857143,0,134710.26705146758,394422.9385482533,286521.8741025448,243442.1210135955,6388.265686723865,8.980684470097839e-07,0.0,0.0,0.0,8.980684470097839e-07,0.0,24.517203137276084,0.5597308344516012,0.00021404933712242076,0.0
11433,4.137931034482759,8.620689655172415,1.0714285714285714,0,224134.73069952472,308121.8095956165,87148.41814132285,80954.14837863877,39112.27997729513,1.4942315379968315e-06,0.0,0.0,0.0,1.4942315379968315e-06,0.0,23.821053935462807,0.8688709540417638,0.001326034864975306,0.0
11434,4.137931034482759,8.620689655172415,1.4285714285714286,0,116348.61293366639,395257.6391504321,267682.36823297315,294995.184715581,-32081.566791648183,7.756574195577759e-07,0.0,0.0,0.0,7.756574195577759e-07,0.0,24.18214779854682,1.1842050904628567,-0.0011295185207967993,0.0
11435,4.137931034482759,8.620689655172415,1.7857142857142858,0,714196.9979384232,848216.828170589,535180.6165187747,30953.991370407333,65962.77348794576,4.761313319589488e-06,0.0,0.0,0.0,4.761313319589488e-06,0.0,23.983779502765618,1.5055491491499695,0.002605364540576392,0.0
11436,4.137931034482759,8.620689655172415,2.142857142857143,0,192885.7998338412,837905.3690398142,690969.5366237205,619481.1572055239,334488.9391827688,1.2859053322256082e-06,0.0,0.0,0.0,1.2859053322256082e-06,0.0,23.24669763778219,1.8266914328117168,0.01793031150148869,0.0
11437,4.137931034482759,8.620689655172415,2.5,0,884119.5952170218,901507.7334955455,399807.8575980826,-119335.9606227169,652625.228269638,5.894130634780145e-06,0.0,0.0,0.0,5.894130634780145e-06,0.0,23.5558717759249,2.13778097733634,0.0652625228269638,0.0
11438,4.137931034482759,8.620689655172415,2.857142857142857,0,712206.7067309452,1125376.6888507402,649514.371416764,306580.0687338572,295007.67298890156,4.748044711539635e-06,0.0,0.0,0.0,4.748044711539635e-06,0.0,24.651450337375223,2.4338342899545737,0.01581391445990394,0.0
11439,4.137931034482759,8.620689655172415,3.2142857142857144,0,135767.62795895562,486090.58798774163,330045.06580242026,395021.9441716249,-28014.773671463612,9.051175197263708e-07,0.0,0.0,0.0,9.051175197263708e-07,0.0,24.448863043824097,2.719834863435684,-0.0011065134783825085,0.0
11440,4.137931034482759,8.620689655172415,3.5714285714285716,0,156924.78432337235,370105.817578597,222952.58238514749,204960.4718919128,-42730.32668709051,1.0461652288224824e-06,0.0,0.0,0.0,1.0461652288224824e-06,0.0,23.473118430788073,3.0056336618914283,-0.0015044369779761274,0.0
11441,4.137931034482759,8.620689655172415,3.928571428571429,0,333238.44758748903,412350.2539163137,146356.7243931454,38555.97122861964,-85477.8239363643,2.22158965058326e-06,0.0,0.0,0.0,2.22158965058326e-06,0.0,24.092674992162603,3.2974423826131933,-0.002897979222577616,0.0
11442,4.137931034482759,8.620689655172415,4.285714285714286,0,234257.0027802005,426210.2886638259,295606.5701925589,155766.17416938083,27854.55275146712,1.5617133518680034e-06,0.0,0.0,0.0,1.5617133518680034e-06,0.0,23.88609410317316,3.595445120165887,0.0009333125522133216,0.0
11443,4.137931034482759,8.620689655172415,4.642857142857143,0,238633.83923343144,445033.8206161801,330030.58181939524,170675.5653336754,14224.919253408001,1.5908922615562096e-06,0.0,0.0,0.0,1.5908922615562096e-06,0.0,24.569129670528906,3.89706480812813,0.00047491361918139885,0.0
11444,4.137931034482759,8.620689655172415,5.0,0,212963.90014552107,304197.84991237643,402004.3816451368,157706.55462620594,-519.8743956861442,1.4197593343034737e-06,0.0,0.0,0.0,1.4197593343034737e-06,0.0,23.90044911555939,4.200121195797376,-1.7337477318624472e-05,0.0
11445,4.482758620689656,8.620689655172415,0.0,0,261552.2967386891,384642.9276301515,139254.24411845734,109475.96724203495,-23956.435335171467,1.7436819782579272e-06,0.0,0.0,0.0,1.7436819782579272e-06,0.0,23.570932119898284,-0.049877559959333934,-0.0007989317375602751,0.0
11446,4.482758620689656,8.620689655172415,0.35714285714285715,0,107433.13527426541,311699.7719356216,293376.857666737,196283.51884175008,-5570.928601982834,7.16220901828436e-07,0.0,0.0,0.0,7.16220901828436e-07,0.0,24.328293757471297,0.25421419712491156,-0.00018599120440947176,0.0
11447,4.482758620689656,8.620689655172415,0.7142857142857143,0,84141.14107541888,303070.5215594834,298851.5231657285,216899.24947570649,-978.0843853603376,5.609409405027926e-07,0.0,0.0,0.0,5.609409405027926e-07,0.0,24.559036612808256,0.5597574036352913,-3.277232422741283e-05,0.0
11448,4.482758620689656,8.620689655172415,1.0714285714285714,0,279394.9078650331,440770.4192026669,207445.27431917624,131154.36243183797,-18291.69580073941,1.8626327191002205e-06,0.0,0.0,0.0,1.8626327191002205e-06,0.0,24.165989851276482,0.8689546935777942,-0.0006201486179118999,0.0
11449,4.482758620689656,8.620689655172415,1.4285714285714286,0,133584.23869708754,367489.36483318434,213239.87827073087,290630.60970031953,-14759.811621326528,8.905615913139169e-07,0.0,0.0,0.0,8.905615913139169e-07,0.0,24.260005230810616,1.1844095905420704,-0.0005196591768111602,0.0
11450,4.482758620689656,8.620689655172415,1.7857142857142858,0,377061.40246461943,624333.8393618369,285571.1139154793,218087.19189920428,139745.55822541838,2.5137426830974627e-06,0.0,0.0,0.0,2.5137426830974627e-06,0.0,23.38110113852196,1.5059361099766568,0.005519599963001756,0.0
11451,4.482758620689656,8.620689655172415,2.142857142857143,0,556858.8332325869,903521.357056807,520959.83536844765,264661.8079062854,220886.00304552072,3.712392221550579e-06,0.0,0.0,0.0,3.712392221550579e-06,0.0,23.344464941337286,1.8272587828848277,0.011840615269974208,0.0
11452,4.482758620689656,8.620689655172415,2.5,0,102941.41451335278,810226.7332998845,763495.9194687434,692208.7611733312,697265.6597148156,6.862760967556852e-07,0.0,0.0,0.0,6.862760967556852e-07,0.0,23.313159849733584,2.1384255113179376,0.06972656597148155,0.0
11453,4.482758620689656,8.620689655172415,2.857142857142857,0,403332.966546848,1045564.7798991024,851740.337897749,581908.0345144497,188963.03332110582,2.6888864436456532e-06,0.0,0.0,0.0,2.6888864436456532e-06,0.0,24.518290287395025,2.4344016400276844,0.010129381431839453,0.0
11454,4.482758620689656,8.620689655172415,3.2142857142857144,0,448791.5316188093,657699.3095148007,544743.674449009,163220.79879418912,157387.0836371364,2.9919435441253957e-06,0.0,0.0,0.0,2.9919435441253957e-06,0.0,23.804012047257533,2.7202218242623712,0.006216396084798647,0.0
11455,4.482758620689656,8.620689655172415,3.5714285714285716,0,128744.81380263063,248852.8671837241,155616.82845460967,101957.6924314549,-93469.19004207029,8.582987586842041e-07,0.0,0.0,0.0,8.582987586842041e-07,0.0,24.41551336869648,3.005838161970642,-0.0032908361976846665,0.0
11456,4.482758620689656,8.620689655172415,3.928571428571429,0,158759.29409284002,374988.1226304651,192641.73901139383,267479.05782185943,16761.8393164875,1.0583952939522667e-06,0.0,0.0,0.0,1.0583952939522667e-06,0.0,23.706970620452285,3.2975261221492236,0.0005682814540006114,0.0
11457,4.482758620689656,8.620689655172415,4.285714285714286,0,183633.8444783491,291530.89496633416,331023.1038406363,130856.20537860051,-22709.78301524025,1.2242256298556608e-06,0.0,0.0,0.0,1.2242256298556608e-06,0.0,24.00456131323761,3.595471689349577,-0.0007609285898531703,0.0
11458,4.482758620689656,8.620689655172415,4.642857142857143,0,259165.74262246522,419166.8143231962,190359.13748631047,137723.55716045114,-5741.245163395818,1.7277716174831015e-06,0.0,0.0,0.0,1.7277716174831015e-06,0.0,23.613725412290545,3.897071339982055,-0.00019167739869614884,0.0
11459,4.482758620689656,8.620689655172415,5.0,0,120544.5074273189,244326.24987439055,236661.28729588265,120132.1695080327,-4646.996863228958,8.036300495154593e-07,0.0,0.0,0.0,8.036300495154593e-07,0.0,23.857517814115006,4.2001224400406665,-0.00015497436185449444,0.0
11460,4.827586206896552,8.620689655172415,0.0,0,162801.8289653506,306152.65048943897,118327.30145164374,218997.50574007048,19964.532160059516,1.0853455264356707e-06,0.0,0.0,0.0,1.0853455264356707e-06,0.0,23.109554830576958,-0.049876929541597524,0.0006658043296114687,0.0
11461,4.827586206896552,8.620689655172415,0.35714285714285715,0,69863.08914152534,353594.2369796209,306840.4078634214,273283.933082517,-64677.117917190204,4.65753927610169e-07,0.0,0.0,0.0,4.65753927610169e-07,0.0,23.810256493413675,0.2542175066035291,-0.0021593123729623954,0.0
11462,4.827586206896552,8.620689655172415,0.7142857142857143,0,215181.30657276447,334368.32839385106,105004.15450157557,136939.32912225218,-1013.9400393753199,1.4345420438184298e-06,0.0,0.0,0.0,1.4345420438184298e-06,0.0,23.770842366535682,0.5597708653792806,-3.397372682247832e-05,0.0
11463,4.827586206896552,8.620689655172415,1.0714285714285714,0,234229.24412440098,392782.63833730516,126579.39333863968,301096.1467350683,6530.12025736916,1.5615282941626732e-06,0.0,0.0,0.0,1.5615282941626732e-06,0.0,23.131095615021597,0.8689971216858228,0.00022139254318029306,0.0
11464,4.827586206896552,8.620689655172415,1.4285714285714286,0,216419.15629178646,275758.2130357761,360447.2384378977,114490.15750398494,-21211.19874708378,1.4427943752785764e-06,0.0,0.0,0.0,1.4427943752785764e-06,0.0,24.195679034666565,1.1845132041022122,-0.0007467977480255146,0.0
11465,4.827586206896552,8.620689655172415,1.7857142857142858,0,504736.9186514791,754724.3272746984,614958.6717054258,194832.79733033673,53457.16317619837,3.364912791009861e-06,0.0,0.0,0.0,3.364912791009861e-06,0.0,24.275160810718024,1.5061321704820738,0.002111424217244669,0.0
11466,4.827586206896552,8.620689655172415,2.142857142857143,0,441320.0406836008,928785.9506153081,539503.582015124,449350.4432823511,261186.48812790232,2.942133604557339e-06,0.0,0.0,0.0,2.942133604557339e-06,0.0,23.66173416762187,1.8275462407730971,0.014000926618246813,0.0
11467,4.827586206896552,8.620689655172415,2.5,0,888963.9987542252,1257900.5610466006,683002.463450187,233989.6163460189,625494.3266120756,5.9264266583615014e-06,0.0,0.0,0.0,5.9264266583615014e-06,0.0,23.394870840479168,2.1387520757902956,0.06254943266120755,0.0
11468,4.827586206896552,8.620689655172415,2.857142857142857,0,468499.55749597366,987469.4830018206,741039.0812118597,447186.08842725505,347597.46221397334,3.123330383306491e-06,0.0,0.0,0.0,3.123330383306491e-06,0.0,24.867424559058186,2.434689097915954,0.018632995129378424,0.0
11469,4.827586206896552,8.620689655172415,3.2142857142857144,0,350279.2035022829,565981.3115279579,429949.6818290246,168091.17637258602,72066.78178310113,2.335194690015219e-06,0.0,0.0,0.0,2.335194690015219e-06,0.0,24.135040142725632,2.7204178847677882,0.002846457598473482,0.0
11470,4.827586206896552,8.620689655172415,3.5714285714285716,0,238325.4267450732,294309.89546598506,247656.5982272836,36107.51070986502,31210.220277292345,1.588836178300488e-06,0.0,0.0,0.0,1.588836178300488e-06,0.0,22.821684533910176,3.0059417755307836,0.0010988404048435328,0.0
11471,4.827586206896552,8.620689655172415,3.928571428571429,0,250824.64897782102,302372.35959190916,205460.7073724399,17550.073757202925,42720.337080062534,1.6721643265188069e-06,0.0,0.0,0.0,1.6721643265188069e-06,0.0,23.802265013138005,3.2975685502572523,0.0014483598615203485,0.0
11472,4.827586206896552,8.620689655172415,4.285714285714286,0,316883.0135904573,435930.5365743597,127890.38683298047,110889.13580350213,-32791.840556078794,2.1125534239363822e-06,0.0,0.0,0.0,2.1125534239363822e-06,0.0,23.69536605634368,3.5954851510935666,-0.0010987444915824117,0.0
11473,4.827586206896552,8.620689655172415,4.642857142857143,0,230849.19320519114,421082.3689289908,246165.7318146513,159427.38694526308,73268.37898865978,1.538994621367941e-06,0.0,0.0,0.0,1.538994621367941e-06,0.0,23.66317531508582,3.8970746494606723,0.002446140495927407,0.0
11474,4.827586206896552,8.620689655172415,5.0,0,221698.05040849565,288804.6569889527,224698.7235689365,42117.47229357953,12959.545963367622,1.4779870027233042e-06,0.0,0.0,0.0,1.4779870027233042e-06,0.0,24.576726225426306,4.200123070458402,0.00043219253739744395,0.0
11475,5.172413793103448,8.620689655172415,0.0,0,55760.20783733084,137924.97418513315,193586.7976573059,137728.72349123313,-15841.001142820009,3.7173471891553893e-07,0.0,0.0,0.0,3.7173471891553893e-07,0.0,24.09082220121247,-0.049876929541597524,-0.0005282872176373775,0.0
11476,5.172413793103448,8.620689655172415,0.35714285714285715,0,155729.02612440047,302709.6515797799,157964.43740779854,137934.95139853173,72703.96115100083,1.0381935074960031e-06,0.0,0.0,0.0,1.0381935074960031e-06,0.0,24.286733965540904,0.2542175066035291,0.002427296823549518,0.0
11477,5.172413793103448,8.620689655172415,0.7142857142857143,0,163865.86730130113,298917.70137349283,164893.5378389895,116232.95577392008,-13159.745872160634,1.0924391153420076e-06,0.0,0.0,0.0,1.0924391153420076e-06,0.0,23.90486169218937,0.5597708653792806,-0.00044093890560773966,0.0
11478,5.172413793103448,8.620689655172415,1.0714285714285714,0,222514.20185331372,310441.32020232815,269148.03521480755,70172.91538155757,-39364.67111386598,1.4834280123554248e-06,0.0,0.0,0.0,1.4834280123554248e-06,0.0,24.405225380840314,0.8689971216858228,-0.001334591754190099,0.0
11479,5.172413793103448,8.620689655172415,1.4285714285714286,0,219550.9745557735,419875.9810830209,332774.2204563032,170139.27948171712,-14586.53503945836,1.4636731637051566e-06,0.0,0.0,0.0,1.4636731637051566e-06,0.0,23.796632789404526,1.1845132041022122,-0.0005135585050543366,0.0
11480,5.172413793103448,8.620689655172415,1.7857142857142858,0,386072.7092593653,639289.4139759163,345186.80624259805,202100.42050617785,26954.240072670596,2.573818061729102e-06,0.0,0.0,0.0,2.573818061729102e-06,0.0,24.10444246346616,1.5061321704820738,0.0010646250542565869,0.0
11481,5.172413793103448,8.620689655172415,2.142857142857143,0,478177.326090755,965559.0470252475,494444.7396492603,480618.5794877962,391406.4012988381,3.1878488406050334e-06,0.0,0.0,0.0,3.1878488406050334e-06,0.0,24.23640558720477,1.8275462407730971,0.020981377489227272,0.0
11482,5.172413793103448,8.620689655172415,2.5,0,782549.8511403644,1032811.8027981615,501896.71564920933,134123.53729208017,536462.2560086541,5.21699900760243e-06,0.0,0.0,0.0,5.21699900760243e-06,0.0,23.68602507634573,2.1387520757902956,0.05364622560086541,0.0
11483,5.172413793103448,8.620689655172415,2.857142857142857,0,324484.60649819643,515674.5114294881,715158.1818926528,340743.8894175437,312033.90900916356,2.163230709987976e-06,0.0,0.0,0.0,2.163230709987976e-06,0.0,22.953923352912998,2.434689097915954,0.016726607466396308,0.0
11484,5.172413793103448,8.620689655172415,3.2142857142857144,0,381378.81985465274,506843.76245985896,384146.79283017776,79218.20428866225,60758.208841648404,2.542525465697685e-06,0.0,0.0,0.0,2.542525465697685e-06,0.0,23.160357038116263,2.7204178847677882,0.0023997972567647336,0.0
11485,5.172413793103448,8.620689655172415,3.5714285714285716,0,367942.68871991656,554723.7257122576,293755.4856966607,133888.94622559246,49055.27075159713,2.452951258132777e-06,0.0,0.0,0.0,2.452951258132777e-06,0.0,25.167646184479832,3.0059417755307836,0.0017271237784762777,0.0
11486,5.172413793103448,8.620689655172415,3.928571428571429,0,257276.34839924506,351220.8578550071,252162.36262364924,59139.182221128336,-10331.087712721242,1.715175655994967e-06,0.0,0.0,0.0,1.715175655994967e-06,0.0,24.3419904791768,3.2975685502572523,-0.00035025783483189717,0.0
11487,5.172413793103448,8.620689655172415,4.285714285714286,0,235411.44960881138,340499.81329591066,202498.79645417142,68680.8142981056,-6498.316388977909,1.5694096640587424e-06,0.0,0.0,0.0,1.5694096640587424e-06,0.0,24.37025746449239,3.5954851510935666,-0.00021773676670386254,0.0
11488,5.172413793103448,8.620689655172415,4.642857142857143,0,202816.37258137003,338889.27841199486,147623.19371795913,126220.153503121,-21773.152007099732,1.3521091505424669e-06,0.0,0.0,0.0,1.3521091505424669e-06,0.0,24.736637231659746,3.8970746494606723,-0.0007269191646343532,0.0
11489,5.172413793103448,8.620689655172415,5.0,0,225600.88217173037,342355.7602066463,158292.36299129188,90679.9029497408,-13298.272730582501,1.504005881144869e-06,0.0,0.0,0.0,1.504005881144869e-06,0.0,23.468178868687342,4.200123070458402,-0.0004434888576096523,0.0
11490,5.517241379310345,8.620689655172415,0.0,0,106149.19461806153,158866.0473515206,280949.71318719996,210456.1386227252,15940.633045737814,7.076612974537436e-07,0.0,0.0,0.0,7.076612974537436e-07,0.0,23.59286243822119,-0.049877559959333934,0.0005316098776325271,0.0
11491,5.517241379310345,8.620689655172415,0.35714285714285715,0,110380.9104573797,289056.20458859595,168456.5189837401,193038.9673206206,22122.05551365986,7.358727363825313e-07,0.0,0.0,0.0,7.358727363825313e-07,0.0,23.407353277288863,0.25421419712491156,0.0007385676685093999,0.0
11492,5.517241379310345,8.620689655172415,0.7142857142857143,0,123652.7771338854,302261.17077633983,188201.80033421607,170848.32681835606,51775.89823287038,8.243518475592361e-07,0.0,0.0,0.0,8.243518475592361e-07,0.0,25.142777548147027,0.5597574036352913,0.0017348365329725947,0.0
11493,5.517241379310345,8.620689655172415,1.0714285714285714,0,233704.8718667406,394207.9877743385,148458.62133753736,174775.53010880828,-3064.1656525076546,1.5580324791116041e-06,0.0,0.0,0.0,1.5580324791116041e-06,0.0,23.470300685257357,0.8689546935777942,-0.00010388528844760929,0.0
11494,5.517241379310345,8.620689655172415,1.4285714285714286,0,207391.10878429475,368128.2051136347,166567.91169695448,155360.74621719215,-5034.68016465426,1.3826073918952983e-06,0.0,0.0,0.0,1.3826073918952983e-06,0.0,24.601077842922482,1.1844095905420704,-0.00017725956245209649,0.0
11495,5.517241379310345,8.620689655172415,1.7857142857142858,0,62661.03875171454,350343.53052105237,285294.0583692573,345256.549583349,75769.40887278208,4.177402583447636e-07,0.0,0.0,0.0,4.177402583447636e-07,0.0,23.64923603046119,1.5059361099766568,0.0029927021060394835,0.0
11496,5.517241379310345,8.620689655172415,2.142857142857143,0,558673.8095991923,840493.7908035354,803085.1606849731,264055.7836235755,255607.39590062306,3.7244920639946155e-06,0.0,0.0,0.0,3.7244920639946155e-06,0.0,24.026073518318924,1.8272587828848277,0.013701858847052169,0.0
11497,5.517241379310345,8.620689655172415,2.5,0,12113.749286953125,764218.6479111123,757272.8608041143,750231.0050555447,467078.27719353995,8.07583285796875e-08,0.0,0.0,0.0,8.07583285796875e-08,0.0,24.623315988212223,2.1384255113179376,0.04670782771935399,0.0
11498,5.517241379310345,8.620689655172415,2.857142857142857,0,375216.1740714393,585583.0514929525,460207.0832439523,163732.3922141041,316936.9995693068,2.501441160476262e-06,0.0,0.0,0.0,2.501441160476262e-06,0.0,24.135889956357662,2.4344016400276844,0.01698943810372073,0.0
11499,5.517241379310345,8.620689655172415,3.2142857142857144,0,367922.28692831297,435211.0877405443,478779.3910292805,91012.77883527709,34556.18964338272,2.4528152461887533e-06,0.0,0.0,0.0,2.4528152461887533e-06,0.0,23.931803401924128,2.7202218242623712,0.001364883045294557,0.0
11500,5.517241379310345,8.620689655172415,3.5714285714285716,0,312487.8374156118,404216.3936721974,244148.78554100273,44124.70424527954,-5973.891293024552,2.083252249437412e-06,0.0,0.0,0.0,2.083252249437412e-06,0.0,25.136553586783318,3.005838161970642,-0.0002103270360989534,0.0
11501,5.517241379310345,8.620689655172415,3.928571428571429,0,309380.1545241485,392781.2594719222,304643.9582084997,48896.09477221213,19206.73345832033,2.0625343634943233e-06,0.0,0.0,0.0,2.0625343634943233e-06,0.0,23.090143140937315,3.2975261221492236,0.0006511714025059458,0.0
11502,5.517241379310345,8.620689655172415,4.285714285714286,0,318606.39777838823,333986.50378472824,347923.6228374181,22577.372133277346,9449.417568838911,2.1240426518559214e-06,0.0,0.0,0.0,2.1240426518559214e-06,0.0,23.539793476418037,3.595471689349577,0.00031661826010248643,0.0
11503,5.517241379310345,8.620689655172415,4.642857142857143,0,183449.00911446908,341976.59342253447,274950.09600937157,134439.99734993718,60736.15869965936,1.2229933940964605e-06,0.0,0.0,0.0,1.2229933940964605e-06,0.0,23.86176281349232,3.897071339982055,0.002027739379703016,0.0
11504,5.517241379310345,8.620689655172415,5.0,0,141969.48764215788,332257.67768390785,218218.02911552077,173249.84264758768,27980.894057611582,9.464632509477192e-07,0.0,0.0,0.0,9.464632509477192e-07,0.0,24.543441452203425,4.2001224400406665,0.0009331448521106778,0.0
11505,5.862068965517242,8.620689655172415,0.0,0,159747.22440532406,298471.9011673062,245696.06262941918,119014.68760596671,-22448.112660549763,1.0649814960354936e-06,0.0,0.0,0.0,1.0649814960354936e-06,0.0,23.68478500723263,-0.049878804202624645,-0.0007486301447574469,0.0
11506,5.862068965517242,8.620689655172415,0.35714285714285715,0,258423.72044611975,333385.85196383,205702.87550316993,35972.93476406427,-11697.026520275465,1.7228248029741317e-06,0.0,0.0,0.0,1.7228248029741317e-06,0.0,24.425192395297323,0.2542076652709869,-0.00039051730976075253,0.0
11507,5.862068965517242,8.620689655172415,0.7142857142857143,0,58169.91850884403,151536.16559058256,97688.68389507895,89840.6552219269,-40293.264257943614,3.8779945672562687e-07,0.0,0.0,0.0,3.8779945672562687e-07,0.0,23.08485599119773,0.5597308344516012,-0.00135009201681066,0.0
11508,5.862068965517242,8.620689655172415,1.0714285714285714,0,137155.9695360046,309136.33335938456,172098.11414430093,171862.9159949434,-29231.0951734293,9.143731302400306e-07,0.0,0.0,0.0,9.143731302400306e-07,0.0,24.524945813594954,0.8688709540417638,-0.0009910302177188303,0.0
11509,5.862068965517242,8.620689655172415,1.4285714285714286,0,140994.24259632934,277994.9448283978,179122.93950639333,116542.77651253706,48777.2748791072,9.399616173088622e-07,0.0,0.0,0.0,9.399616173088622e-07,0.0,24.402321879610152,1.1842050904628567,0.0017173361802357773,0.0
11510,5.862068965517242,8.620689655172415,1.7857142857142858,0,441171.7871968273,620521.5339224705,284259.2321857152,120986.86143510466,39046.49850805847,2.9411452479788487e-06,0.0,0.0,0.0,2.9411452479788487e-06,0.0,23.42289973963813,1.5055491491499695,0.0015422390125114287,0.0
11511,5.862068965517242,8.620689655172415,2.142857142857143,0,686647.0184945666,723932.7615904444,789693.9671905923,72532.1898094921,177931.14103549032,4.577646789963777e-06,0.0,0.0,0.0,4.577646789963777e-06,0.0,23.947761278785624,1.8266914328117168,0.009538015793217029,0.0
11512,5.862068965517242,8.620689655172415,2.5,0,573706.5134178407,883055.7598505762,811301.5443029501,276847.4650008558,335497.1940342634,3.824710089452271e-06,0.0,0.0,0.0,3.824710089452271e-06,0.0,23.835039158222006,2.13778097733634,0.03354971940342634,0.0
11513,5.862068965517242,8.620689655172415,2.857142857142857,0,365645.8136545996,521362.8559659939,587889.3302487916,193547.80214024067,171547.67236241704,2.4376387576973305e-06,0.0,0.0,0.0,2.4376387576973305e-06,0.0,24.19956028716255,2.4338342899545737,0.009195829345892808,0.0
11514,5.862068965517242,8.620689655172415,3.2142857142857144,0,359490.5556489003,605814.0768337799,434195.0291953382,192676.52722619066,12627.811104231827,2.3966037043260017e-06,0.0,0.0,0.0,2.3966037043260017e-06,0.0,24.559800566004874,2.719834863435684,0.0004987669489378683,0.0
11515,5.862068965517242,8.620689655172415,3.5714285714285716,0,257482.468788052,395534.54334522237,113015.38572309587,174060.1534606846,4548.287063193235,1.7165497919203467e-06,0.0,0.0,0.0,1.7165497919203467e-06,0.0,23.642430145454746,3.0056336618914283,0.00016013477487373398,0.0
11516,5.862068965517242,8.620689655172415,3.928571428571429,0,204261.09970946494,336103.4626954512,255735.20158395873,103882.08624986153,-11798.328746183131,1.3617406647297663e-06,0.0,0.0,0.0,1.3617406647297663e-06,0.0,24.17341887583112,3.2974423826131933,-0.0004000021291257174,0.0
11517,5.862068965517242,8.620689655172415,4.285714285714286,0,125616.11821211044,245805.21930704676,260637.3978540216,128263.65969763507,20507.019805835058,8.374407880807363e-07,0.0,0.0,0.0,8.374407880807363e-07,0.0,24.11623325363572,3.595445120165887,0.0006871213895999448,0.0
11518,5.862068965517242,8.620689655172415,4.642857142857143,0,151158.5066159261,247327.68771205115,73750.32003096073,144662.3797330237,-27382.476963056703,1.0077233774395073e-06,0.0,0.0,0.0,1.0077233774395073e-06,0.0,24.06064110140941,3.89706480812813,-0.0009141922709727134,0.0
11519,5.862068965517242,8.620689655172415,5.0,0,237543.24471409566,305625.8902932187,249553.35713493428,45062.85884987739,35879.08635778481,1.5836216314273044e-06,0.0,0.0,0.0,1.5836216314273044e-06,0.0,24.7305576687154,4.200121195797376,0.001196544494406309,0.0
11520,6.206896551724139,8.620689655172415,0.0,0,116425.96407094847,244254.80169714574,117769.0845487394,220458.45916605837,-3867.4744526255154,7.761730938063232e-07,0.0,0.0,0.0,7.761730938063232e-07,0.0,23.98983090307677,-0.04988063117934759,-0.00012897778994146674,0.0
11521,6.206896551724139,8.620689655172415,0.35714285714285715,0,229660.2451494608,308387.177195308,86815.0913899721,71414.02601285148,13002.47856731576,1.5310683009964053e-06,0.0,0.0,0.0,1.5310683009964053e-06,0.0,23.306796585246854,0.25419807426481716,0.0004341011744761279,0.0
11522,6.206896551724139,8.620689655172415,0.7142857142857143,0,123328.58504135578,161610.04603549675,274729.65783608274,143250.52894187535,-14801.546713469826,8.221905669423718e-07,0.0,0.0,0.0,8.221905669423718e-07,0.0,24.287948903033925,0.5596918217597012,-0.0004959501401122159,0.0
11523,6.206896551724139,8.620689655172415,1.0714285714285714,0,185652.78482054468,264635.84689813154,146200.70930501036,50670.75744583538,30007.384467540214,1.2376852321369646e-06,0.0,0.0,0.0,1.2376852321369646e-06,0.0,24.724243433516097,0.8687479956265896,0.0010173489766839353,0.0
11524,6.206896551724139,8.620689655172415,1.4285714285714286,0,299096.1029319076,463215.17521303205,189739.95827249804,143811.3189613258,-40943.594382261675,1.9939740195460506e-06,0.0,0.0,0.0,1.9939740195460506e-06,0.0,23.99849800325202,1.1839048140720967,-0.0014415302239788287,0.0
11525,6.206896551724139,8.620689655172415,1.7857142857142858,0,286578.1473034598,531041.5311248159,438307.3227730535,209579.33527532368,-8814.906082498397,1.9105209820230654e-06,0.0,0.0,0.0,1.9105209820230654e-06,0.0,24.609260199629816,1.5049809576810462,-0.00034816673892660633,0.0
11526,6.206896551724139,8.620689655172415,2.142857142857143,0,258295.39228694918,747346.5586415137,462103.6445295158,529267.3674667346,202653.20186280354,1.7219692819129946e-06,0.0,0.0,0.0,1.7219692819129946e-06,0.0,23.728302422158915,1.825858367940024,0.010863244222819202,0.0
11527,6.206896551724139,8.620689655172415,2.5,0,789796.981925003,1188824.8350366503,565006.9946580711,300792.88182672404,591068.8557478783,5.265313212833354e-06,0.0,0.0,0.0,5.265313212833354e-06,0.0,24.14983950567242,2.136834579963485,0.05910688557478784,0.0
11528,6.206896551724139,8.620689655172415,2.857142857142857,0,91797.89489969067,385338.7660354444,477023.88777240424,477249.01999869297,255624.58275267432,6.119859659979378e-07,0.0,0.0,0.0,6.119859659979378e-07,0.0,23.16607772289202,2.433001225082881,0.013702780149896327,0.0
11529,6.206896551724139,8.620689655172415,3.2142857142857144,0,170867.40855358727,408539.2743274654,375630.12518138334,223610.92662436355,5124.29172879774,1.139116057023915e-06,0.0,0.0,0.0,1.139116057023915e-06,0.0,23.647262754865718,2.7192666719667606,0.00020239670438081665,0.0
11530,6.206896551724139,8.620689655172415,3.5714285714285716,0,78423.22756833296,313421.16289188573,223108.22139041816,262530.40314870386,-2409.3722088593395,5.228215171222198e-07,0.0,0.0,0.0,5.228215171222198e-07,0.0,24.041239495595473,3.005333385500668,-8.482847957750586e-05,0.0
11531,6.206896551724139,8.620689655172415,3.928571428571429,0,288347.67758805375,343566.7696562381,211952.74422987035,12896.217731397614,5231.4428108726015,1.922317850587025e-06,0.0,0.0,0.0,1.922317850587025e-06,0.0,24.296507168249654,3.297319424198019,0.0001773631086034486,0.0
11532,6.206896551724139,8.620689655172415,4.285714285714286,0,180322.30326530332,334461.3823003253,170567.17231271387,141293.10574145036,-30650.61709123242,1.2021486884353554e-06,0.0,0.0,0.0,1.2021486884353554e-06,0.0,24.184694286243488,3.595406107473987,-0.0010269992815743435,0.0
11533,6.206896551724139,8.620689655172415,4.642857142857143,0,265110.1730774317,234571.4129636073,218560.2878558486,-38181.45698684136,4527.061181678014,1.7674011538495445e-06,0.0,0.0,0.0,1.7674011538495445e-06,0.0,24.61127327811923,3.8970552171219603,0.00015114061259301968,0.0
11534,6.206896551724139,8.620689655172415,5.0,0,199470.60183922396,340269.0982696561,216362.5895944821,110167.38622564533,-3860.4907009247718,1.3298040122614932e-06,0.0,0.0,0.0,1.3298040122614932e-06,0.0,23.21135703739919,4.200119368820652,-0.0001287448863060593,0.0
11535,6.551724137931035,8.620689655172415,0.0,0,116205.50642502887,255022.75928349295,299473.13573642983,167603.78328590625,-14032.400414155667,7.747033761668592e-07,0.0,0.0,0.0,7.747033761668592e-07,0.0,24.60938950594182,-0.04988299890030544,-0.00046797154452121953,0.0
11536,6.551724137931035,8.620689655172415,0.35714285714285715,0,163314.75390935043,344688.1767682027,173061.54071070874,191199.66246221485,-35134.96853993683,1.0887650260623362e-06,0.0,0.0,0.0,1.0887650260623362e-06,0.0,23.52240476406674,0.2541856445354015,-0.0011730172081734908,0.0
11537,6.551724137931035,8.620689655172415,0.7142857142857143,0,59273.02211677837,220854.23207744397,184585.36061636033,152453.3276718436,24735.563073353875,3.9515348077852245e-07,0.0,0.0,0.0,3.9515348077852245e-07,0.0,23.26968001314755,0.5596412621838326,0.0008288056788565575,0.0
11538,6.551724137931035,8.620689655172415,1.0714285714285714,0,159376.46551418895,279689.1191739224,214430.03868508842,98040.12694383554,-13259.529998976019,1.0625097700945931e-06,0.0,0.0,0.0,1.0625097700945931e-06,0.0,24.40721992710499,0.8685886442714812,-0.0004495416550002957,0.0
11539,6.551724137931035,8.620689655172415,1.4285714285714286,0,129459.96180033339,300577.52900069446,297551.84464516066,169631.24587747757,-93609.04963892583,8.630664120022226e-07,0.0,0.0,0.0,8.630664120022226e-07,0.0,23.337230682898948,1.1835156625877772,-0.0032957603339023723,0.0
11540,6.551724137931035,8.620689655172415,1.7857142857142858,0,302813.412344217,578193.8937987894,229941.17808680452,431196.8041778491,67279.9775733936,2.01875608229478e-06,0.0,0.0,0.0,2.01875608229478e-06,0.0,24.60498601115876,1.5042445942495117,0.0026573908068393665,0.0
11541,6.551724137931035,8.620689655172415,2.142857142857143,0,297852.1462338522,633321.2443928355,509740.9077885241,293570.95967164054,293696.4984711439,1.985680974892348e-06,0.0,0.0,0.0,1.985680974892348e-06,0.0,22.811875274100636,1.8247787345045317,0.01574362882476859,0.0
11542,6.551724137931035,8.620689655172415,2.5,0,571571.9177068921,825124.389663149,165135.33772278434,492828.64656322816,557810.4580474261,3.810479451379281e-06,0.0,0.0,0.0,3.810479451379281e-06,0.0,23.529813604363095,2.135608070142083,0.05578104580474261,0.0
11543,6.551724137931035,8.620689655172415,2.857142857142857,0,484184.6225144046,778961.4078965763,456680.25684815046,222174.66034665974,295981.69403850473,3.227897483429364e-06,0.0,0.0,0.0,3.227897483429364e-06,0.0,24.35093279759851,2.431921591647389,0.01586612695120802,0.0
11544,6.551724137931035,8.620689655172415,3.2142857142857144,0,206183.19110045512,529428.4205501277,436576.8803316896,293146.25233522296,56892.284944082196,1.3745546073363675e-06,0.0,0.0,0.0,1.3745546073363675e-06,0.0,24.253294838870815,2.718530308535226,0.0022471029337898744,0.0
11545,6.551724137931035,8.620689655172415,3.5714285714285716,0,203223.6710556033,392361.7109192663,184875.87247424154,193686.81283351794,-12035.976001381045,1.354824473704022e-06,0.0,0.0,0.0,1.354824473704022e-06,0.0,22.604779815079763,3.0049442340163486,-0.000423759160446143,0.0
11546,6.551724137931035,8.620689655172415,3.928571428571429,0,191039.57847012192,298869.80239746114,210874.96050962995,79690.1866023177,-13695.02919854792,1.2735971898008127e-06,0.0,0.0,0.0,1.2735971898008127e-06,0.0,23.594723755827545,3.2971600728429107,-0.0004643065094817122,0.0
11547,6.551724137931035,8.620689655172415,4.285714285714286,0,95513.68122925887,255056.21006378427,165394.4245174194,154606.64721082794,18815.48870789519,6.367578748617259e-07,0.0,0.0,0.0,6.367578748617259e-07,0.0,23.073453795280493,3.5953555478981185,0.0006304438611451645,0.0
11548,6.551724137931035,8.620689655172415,4.642857142857143,0,106777.02543960857,258048.4312493678,146528.5974226456,156749.21088090303,-4349.832478198953,7.118468362640571e-07,0.0,0.0,0.0,7.118468362640571e-07,0.0,24.005322641747796,3.897042787392545,-0.00014522364930537904,0.0
11549,6.551724137931035,8.620689655172415,5.0,0,114575.5018846777,278822.83780656796,248076.74218567566,152011.2247003545,-39869.92375045643,7.638366792311846e-07,0.0,0.0,0.0,7.638366792311846e-07,0.0,23.966388082338604,4.200117001099695,-0.0013296363591949998,0.0
11550,6.8965517241379315,8.620689655172415,0.0,0,168561.68615225455,287957.77726466494,134650.80473453904,107449.72360496796,-9440.090305751111,1.1237445743483637e-06,0.0,0.0,0.0,1.1237445743483637e-06,0.0,23.70834156334508,-0.04988585870123936,-0.00031482095082931345,0.0
11551,6.8965517241379315,8.620689655172415,0.35714285714285715,0,78340.4668145304,266246.6257774432,208098.0693937507,177161.61701524025,-1488.074860725257,5.222697787635361e-07,0.0,0.0,0.0,5.222697787635361e-07,0.0,23.783568722728905,0.25417063155354075,-4.968091594267399e-05,0.0
11552,6.8965517241379315,8.620689655172415,0.7142857142857143,0,193135.9052084233,276253.79660818406,209609.2757789034,58621.04066153731,-54778.23286805377,1.2875727013894886e-06,0.0,0.0,0.0,1.2875727013894886e-06,0.0,23.290897102143607,0.5595801948854213,-0.0018354346874632952,0.0
11553,6.8965517241379315,8.620689655172415,1.0714285714285714,0,72549.0013034007,197488.32708268525,150165.60559464488,113962.30553327122,21354.56952602327,4.83660008689338e-07,0.0,0.0,0.0,4.83660008689338e-07,0.0,23.47938851123932,0.8683961751578172,0.000723990105779672,0.0
11554,6.8965517241379315,8.620689655172415,1.4285714285714286,0,203516.03435937845,373461.26722217805,240898.4050062421,139134.925711643,4162.775194736096,1.3567735623958563e-06,0.0,0.0,0.0,1.3567735623958563e-06,0.0,24.38447641229607,1.183045634320888,0.00014656178455698057,0.0
11555,6.8965517241379315,8.620689655172415,1.7857142857142858,0,223884.6964120974,489077.3025677726,242131.17235212386,299365.54886956397,-14604.462991103435,1.492564642747316e-06,0.0,0.0,0.0,1.492564642747316e-06,0.0,23.611020740335483,1.5033551934853588,-0.000576839753685228,0.0
11556,6.8965517241379315,8.620689655172415,2.142857142857143,0,605881.1992124345,839404.7082292822,562476.4952772848,144545.86668427908,242943.80934292998,4.039207994749563e-06,0.0,0.0,0.0,4.039207994749563e-06,0.0,23.574847906145123,1.8234747224346624,0.013023026081280406,0.0
11557,6.8965517241379315,8.620689655172415,2.5,0,458709.15995470725,822820.6555782327,359570.0171800875,368792.0361695266,466336.74515284837,3.058061066364715e-06,0.0,0.0,0.0,3.058061066364715e-06,0.0,24.43523336840902,2.1341266565823114,0.046633674515284836,0.0
11558,6.8965517241379315,8.620689655172415,2.857142857142857,0,238538.33132119803,456158.5373092956,442003.8817395104,210858.05824859353,329891.9463562936,1.5902555421413202e-06,0.0,0.0,0.0,1.5902555421413202e-06,0.0,23.280619211888226,2.4306175795775196,0.017683889262385084,0.0
11559,6.8965517241379315,8.620689655172415,3.2142857142857144,0,207351.87155958774,438145.0335143474,306526.0100464947,199124.31216831077,93005.21113733345,1.3823458103972517e-06,0.0,0.0,0.0,1.3823458103972517e-06,0.0,24.614629165133962,2.7176409077710733,0.003673473178478615,0.0
11560,6.8965517241379315,8.620689655172415,3.5714285714285716,0,152873.3335242627,316309.8418383248,303979.5565619342,157644.76755564453,39662.808994346626,1.019155556828418e-06,0.0,0.0,0.0,1.019155556828418e-06,0.0,24.661925246841243,3.0044742057494593,0.0013964367026364553,0.0
11561,6.8965517241379315,8.620689655172415,3.928571428571429,0,247668.23245687687,325650.0247169926,206407.81382342934,40916.670104989294,10839.019059435146,1.6511215497125123e-06,0.0,0.0,0.0,1.6511215497125123e-06,0.0,23.376508831287055,3.2969676037292466,0.00036747837720752663,0.0
11562,6.8965517241379315,8.620689655172415,4.285714285714286,0,76429.93866210218,161250.29979277428,245201.13798204655,179651.83292472552,-17979.422444703287,5.095329244140145e-07,0.0,0.0,0.0,5.095329244140145e-07,0.0,24.349337012920827,3.595294480599707,-0.0006024300874227344,0.0
11563,6.8965517241379315,8.620689655172415,4.642857142857143,0,125406.57046055268,276580.36487751204,222457.4478822854,133201.06464173965,-24886.85362781024,8.360438030703513e-07,0.0,0.0,0.0,8.360438030703513e-07,0.0,22.812739183762044,3.897027774410684,-0.0008308733087247205,0.0
11564,6.8965517241379315,8.620689655172415,5.0,0,211431.5329207049,302443.6024196663,222063.01520447736,62609.841570077726,-19218.116168765973,1.4095435528046993e-06,0.0,0.0,0.0,1.4095435528046993e-06,0.0,23.94934682063651,4.20011414129876,-0.0006409118355269495,0.0
11565,7.241379310344828,8.620689655172415,0.0,0,127840.51041184977,238363.59745335908,174057.78335560745,91137.80998828214,-1809.4297277341532,8.522700694123318e-07,0.0,0.0,0.0,8.522700694123318e-07,0.0,23.27905700290711,-0.04988915924157275,-6.034331970289e-05,0.0
11566,7.241379310344828,8.620689655172415,0.35714285714285715,0,76327.24211948806,278861.9688527724,248433.72031191178,192013.78035575597,-690.7493609936652,5.088482807965871e-07,0.0,0.0,0.0,5.088482807965871e-07,0.0,24.040726230388223,0.25415330483979365,-2.306138074549329e-05,0.0
11567,7.241379310344828,8.620689655172415,0.7142857142857143,0,94451.93548028867,241071.13036779524,173311.88671002307,133180.14596418277,28366.074754896068,6.296795698685911e-07,0.0,0.0,0.0,6.296795698685911e-07,0.0,23.95024050877158,0.5595097161751492,0.0009504519373182718,0.0
11568,7.241379310344828,8.620689655172415,1.0714285714285714,0,166842.05336143041,242541.92231347854,100538.31249525672,58790.386279171325,-7040.919332390798,1.1122803557428694e-06,0.0,0.0,0.0,1.1122803557428694e-06,0.0,23.659205705916982,0.8681740435873838,-0.00023871031097263414,0.0
11569,7.241379310344828,8.620689655172415,1.4285714285714286,0,194553.1631102278,303056.21284061996,216832.57758841623,80291.82267764598,-62638.097289072655,1.2970210874015186e-06,0.0,0.0,0.0,1.2970210874015186e-06,0.0,23.25576172121404,1.182503167453947,-0.0022053440050159266,0.0
11570,7.241379310344828,8.620689655172415,1.7857142857142858,0,144147.0548937586,405543.6742499622,373791.6102980055,248167.7190915404,-6584.390426493308,9.609803659583907e-07,0.0,0.0,0.0,9.609803659583907e-07,0.0,24.265663633163417,1.5023287223559145,-0.0002600669503630141,0.0
11571,7.241379310344828,8.620689655172415,2.142857142857143,0,482494.2151655783,796169.591129668,265226.6469446083,384494.9720692198,195822.3588549706,3.216628101103855e-06,0.0,0.0,0.0,3.216628101103855e-06,0.0,23.796097372434822,1.8219697420072585,0.010497076231592182,0.0
11572,7.241379310344828,8.620689655172415,2.5,0,294954.7941312163,702976.9260886317,430994.59908068314,389453.96000412205,395021.9068816477,1.966365294208109e-06,0.0,0.0,0.0,1.966365294208109e-06,0.0,23.46277788101773,2.1324169343612813,0.039502190688164775,0.0
11573,7.241379310344828,8.620689655172415,2.857142857142857,0,303045.38801423874,573926.3767342592,317902.50057685026,239334.3371822949,67650.51752085378,2.0203025867615917e-06,0.0,0.0,0.0,2.0203025867615917e-06,0.0,23.564573520445446,2.4291125991501157,0.003626412446849347,0.0
11574,7.241379310344828,8.620689655172415,3.2142857142857144,0,327561.59910074325,639891.2490759484,405298.71066864906,265648.7658543629,123991.00489328773,2.183743994004955e-06,0.0,0.0,0.0,2.183743994004955e-06,0.0,23.778164000880572,2.716614436641629,0.004897334517907125,0.0
11575,7.241379310344828,8.620689655172415,3.5714285714285716,0,259934.7579011769,393424.3190250327,341422.36640747386,111419.58091163775,-67878.78285626479,1.7328983860078459e-06,0.0,0.0,0.0,1.7328983860078459e-06,0.0,23.781044844251166,3.003931738882519,-0.0023898565460728992,0.0
11576,7.241379310344828,8.620689655172415,3.928571428571429,0,117752.15593775795,178252.56602144227,186874.9611332435,65048.611554754505,-16111.091669238709,7.850143729183864e-07,0.0,0.0,0.0,7.850143729183864e-07,0.0,23.99037532267411,3.296745472158813,-0.0005462189695570178,0.0
11577,7.241379310344828,8.620689655172415,4.285714285714286,0,31671.977591862375,233478.30318525882,222248.72989918498,197721.57437787298,18151.76189172967,2.111465172790825e-07,0.0,0.0,0.0,2.111465172790825e-07,0.0,24.31807765904861,3.5952240018894353,0.0006082046037320209,0.0
11578,7.241379310344828,8.620689655172415,4.642857142857143,0,131272.28003213578,288084.86909863463,220112.09777187576,136764.82128557377,16201.967208593784,8.751485335475718e-07,0.0,0.0,0.0,8.751485335475718e-07,0.0,24.36864205811414,3.8970104476969367,0.0005409194068393861,0.0
11579,7.241379310344828,8.620689655172415,5.0,0,218690.56913093917,292494.1491993946,277662.2927628721,66765.1955960252,-40373.181794276905,1.4579371275395944e-06,0.0,0.0,0.0,1.4579371275395944e-06,0.0,23.736418297192238,4.200110840758428,-0.0013464196918471821,0.0
11580,7.586206896551724,8.620689655172415,0.0,0,66501.78601928819,195914.4726182744,158955.68089440436,119142.51008194347,33682.48241458454,4.4334524012858797e-07,0.0,0.0,0.0,4.4334524012858797e-07,0.0,23.94123718890284,-0.04989284972978898,0.0011232891631969848,0.0
11581,7.586206896551724,8.620689655172415,0.35714285714285715,0,204855.8541462365,343863.3693714841,183145.48614268083,113193.94081148143,29623.226700109954,1.3657056943082434e-06,0.0,0.0,0.0,1.3657056943082434e-06,0.0,23.633136805183238,0.2541339310323407,0.0009890020149400669,0.0
11582,7.586206896551724,8.620689655172415,0.7142857142857143,0,205106.57585861502,326289.64183151943,176958.75586320326,92426.45284452339,-5076.953467622534,1.3673771723907668e-06,0.0,0.0,0.0,1.3673771723907668e-06,0.0,24.34492967093217,0.5594309106392427,-0.00017011166686514063,0.0
11583,7.586206896551724,8.620689655172415,1.0714285714285714,0,163157.5295562722,316350.1301797919,206327.6519258376,128893.92074420147,971.2408696734497,1.0877168637084813e-06,0.0,0.0,0.0,1.0877168637084813e-06,0.0,23.676723232028746,0.867925667909364,3.29282582407255e-05,0.0
11584,7.586206896551724,8.620689655172415,1.4285714285714286,0,343238.48573805724,426300.6131325962,402666.86518460966,71856.03660055988,-26423.331953380635,2.2882565715870483e-06,0.0,0.0,0.0,2.2882565715870483e-06,0.0,23.80814389708513,1.181896609927627,-0.0009303050258217138,0.0
11585,7.586206896551724,8.620689655172415,1.7857142857142858,0,222963.03216647077,523782.05842908844,339192.4340712329,276060.36103580653,62721.03700562021,1.4864202144431385e-06,0.0,0.0,0.0,1.4864202144431385e-06,0.0,23.73949996378987,1.5011809770703337,0.002477324059038919,0.0
11586,7.586206896551724,8.620689655172415,2.142857142857143,0,452539.8678270541,775506.346563809,376508.8052951041,283786.6774312934,284505.34102861566,3.0169324521803607e-06,0.0,0.0,0.0,3.0169324521803607e-06,0.0,23.987661159861247,1.8202869531387795,0.015250935953050918,0.0
11587,7.586206896551724,8.620689655172415,2.5,0,914194.5221829264,1098218.0558131044,392802.6041855966,65404.89343591695,442397.0313110744,6.094630147886176e-06,0.0,0.0,0.0,6.094630147886176e-06,0.0,24.077606582701208,2.1305052141359866,0.044239703131107436,0.0
11588,7.586206896551724,8.620689655172415,2.857142857142857,0,546146.8615610594,868397.5903985138,676452.5383428204,252190.293198557,314350.80988927453,3.6409790770737293e-06,0.0,0.0,0.0,3.6409790770737293e-06,0.0,24.459129300377548,2.4274298102816365,0.016850805159150998,0.0
11589,7.586206896551724,8.620689655172415,3.2142857142857144,0,231156.0606568127,399491.5505413658,253687.00373207714,132968.77208707665,66520.18552334567,1.5410404043787514e-06,0.0,0.0,0.0,1.5410404043787514e-06,0.0,24.377050661050873,2.715466691356048,0.0026273809215550782,0.0
11590,7.586206896551724,8.620689655172415,3.5714285714285716,0,404037.9158251502,377778.37484677555,279222.19363794406,-66419.51367043178,111961.74491497368,2.6935861055010016e-06,0.0,0.0,0.0,2.6935861055010016e-06,0.0,23.797688940504464,3.0033251813561983,0.003941916718827829,0.0
11591,7.586206896551724,8.620689655172415,3.928571428571429,0,125487.76970507158,250206.86568477377,162754.65614368452,106424.45861227946,-25831.62905636843,8.365851313671439e-07,0.0,0.0,0.0,8.365851313671439e-07,0.0,23.759274653783653,3.296497096480793,-0.000875777141290104,0.0
11592,7.586206896551724,8.620689655172415,4.285714285714286,0,165366.93349788466,308305.4810903239,125094.75595145943,170099.7393372155,37334.055436469855,1.1024462233192311e-06,0.0,0.0,0.0,1.1024462233192311e-06,0.0,23.67303610878449,3.5951451963535286,0.0012509388635597474,0.0
11593,7.586206896551724,8.620689655172415,4.642857142857143,0,174908.52660461882,305786.5951842277,229213.72974720757,105650.1087491011,-23794.483800170758,1.166056844030792e-06,0.0,0.0,0.0,1.166056844030792e-06,0.0,24.294368871023824,3.8969910738894837,-0.0007944034139515365,0.0
11594,7.586206896551724,8.620689655172415,5.0,0,46864.68488760461,201889.05936950224,160173.0911863012,151179.2380058326,14722.086493143177,3.124312325840308e-07,0.0,0.0,0.0,3.124312325840308e-07,0.0,23.917667031193727,4.200107150270211,0.0004909721324529165,0.0
11595,7.931034482758621,8.620689655172415,0.0,0,145747.02797073268,280848.8498690854,225997.61880909908,115634.61724499216,-74828.1414067225,9.71646853138218e-07,0.0,0.0,0.0,9.71646853138218e-07,0.0,24.899887064136642,-0.049896882170131655,-0.0024954704736355085,0.0
11596,7.931034482758621,8.620689655172415,0.35714285714285715,0,188729.58052774458,303195.42574073747,230295.36610976965,88888.59806380147,-14751.689783453001,1.2581972035182971e-06,0.0,0.0,0.0,1.2581972035182971e-06,0.0,23.64199792542509,0.25411276209257255,-0.0004925003973166659,0.0
11597,7.931034482758621,8.620689655172415,0.7142857142857143,0,177317.50911613533,263636.39582755975,233744.65739524836,73272.84785788889,13639.220801245812,1.1821167274409021e-06,0.0,0.0,0.0,1.1821167274409021e-06,0.0,24.439255603851873,0.5593448031641346,0.00045700450083662803,0.0
11598,7.931034482758621,8.620689655172415,1.0714285714285714,0,237314.25551966383,316310.10420979944,192346.75789524894,42685.16408963117,7329.990414258397,1.5820950367977588e-06,0.0,0.0,0.0,1.5820950367977588e-06,0.0,24.448338270418287,0.8676542783138678,0.0002485107709109217,0.0
11599,7.931034482758621,8.620689655172415,1.4285714285714286,0,172959.98237206764,401558.10752805095,289532.4739222956,202357.1328224761,-64994.434019528264,1.1530665491471177e-06,0.0,0.0,0.0,1.1530665491471177e-06,0.0,24.439749973905354,1.1812338501798707,-0.0022883052268156136,0.0
11600,7.931034482758621,8.620689655172415,1.7857142857142858,0,229767.9754214332,492348.87716264307,255363.7561844955,270551.61273665313,31777.544839832975,1.5317865028095545e-06,0.0,0.0,0.0,1.5317865028095545e-06,0.0,23.527921190284054,1.4999268843537292,0.0012551335266005274,0.0
11601,7.931034482758621,8.620689655172415,2.142857142857143,0,570300.4433074145,766922.8466526115,153529.87067651606,252730.8444864847,385202.9791223913,3.8020029553827636e-06,0.0,0.0,0.0,3.8020029553827636e-06,0.0,23.655292820077772,1.8184482409349,0.02064884245153457,0.0
11602,7.931034482758621,8.620689655172415,2.5,0,974730.6666687349,1102525.9590965773,726601.8630293418,-4191.0497625591615,587146.7069686728,6.4982044444582325e-06,0.0,0.0,0.0,6.4982044444582325e-06,0.0,23.62113636041419,2.1284163583237716,0.05871467069686728,0.0
11603,7.931034482758621,8.620689655172415,2.857142857142857,0,384168.15815780073,803414.6009869965,538074.759063433,362879.0438162661,347312.1886696725,2.561121054385338e-06,0.0,0.0,0.0,2.561121054385338e-06,0.0,24.44370701061007,2.425591098077757,0.018617703013815667,0.0
11604,7.931034482758621,8.620689655172415,3.2142857142857144,0,353197.03501557646,515276.7789875218,286321.8388106031,108510.28743189883,168705.12436555716,2.354646900103843e-06,0.0,0.0,0.0,2.354646900103843e-06,0.0,23.486562904923975,2.7142125986394436,0.0066634303804080555,0.0
11605,7.931034482758621,8.620689655172415,3.5714285714285716,0,135429.11936681025,279554.69721139077,140322.83871619115,148279.10888713636,-55995.15120286993,9.02860795778735e-07,0.0,0.0,0.0,9.02860795778735e-07,0.0,23.427222419990553,3.0026624216084423,-0.0019714610813498065,0.0
11606,7.931034482758621,8.620689655172415,3.928571428571429,0,285059.3737485224,337516.5997924562,87096.95840711235,27303.133275636694,-11546.251007681583,1.9003958249901495e-06,0.0,0.0,0.0,1.9003958249901495e-06,0.0,24.068027143748314,3.296225706885297,-0.00039145586513570653,0.0
11607,7.931034482758621,8.620689655172415,4.285714285714286,0,162261.28470740307,307912.11113053956,205177.11563923938,120850.60083846643,901.5465778015196,1.0817418980493538e-06,0.0,0.0,0.0,1.0817418980493538e-06,0.0,23.06197871848651,3.59505908887842,3.0207799241106237e-05,0.0
11608,7.931034482758621,8.620689655172415,4.642857142857143,0,228674.82768619488,361843.88422303693,296488.5372045672,107606.54430454232,-21052.337834734793,1.5244988512412993e-06,0.0,0.0,0.0,1.5244988512412993e-06,0.0,24.11467786399441,3.896969904949716,-0.0007028540391136538,0.0
11609,7.931034482758621,8.620689655172415,5.0,0,278609.30288709805,290562.76644344546,193527.55330690704,-23588.55261985827,3594.481002199553,1.8573953525806537e-06,0.0,0.0,0.0,1.8573953525806537e-06,0.0,23.16471805238188,4.200103117829869,0.000119873633641085,0.0
11610,8.275862068965518,8.620689655172415,0.0,0,27621.06017138331,191826.8925424201,189111.3937548974,217989.90830412635,39193.44671753685,1.8414040114255539e-07,0.0,0.0,0.0,1.8414040114255539e-07,0.0,23.399104017961992,-0.04990121268581896,0.0013070762844689995,0.0
11611,8.275862068965518,8.620689655172415,0.35714285714285715,0,103666.14866884856,198864.27780320856,209455.87745398554,100900.53137518735,3324.323455286567,6.911076577923237e-07,0.0,0.0,0.0,6.911076577923237e-07,0.0,24.187392210195632,0.2540900283586648,0.00011098597154437388,0.0
11612,8.275862068965518,8.620689655172415,0.7142857142857143,0,239831.9457251163,346759.1995431561,343344.8791449125,105238.3220498421,-66618.0498689573,1.598879638167442e-06,0.0,0.0,0.0,1.598879638167442e-06,0.0,23.336536001692124,0.5592523306809578,-0.0022321472077269683,0.0
11613,8.275862068965518,8.620689655172415,1.0714285714285714,0,112907.83583656161,275914.1162580213,264833.3336872553,157874.42903479474,21280.48189195003,7.527189055770774e-07,0.0,0.0,0.0,7.527189055770774e-07,0.0,23.77242167197042,0.8673628277775193,0.00072147829143641,0.0
11614,8.275862068965518,8.620689655172415,1.4285714285714286,0,233325.43237865143,393527.8481315748,185764.71440842273,141097.91341011156,4006.638849714035,1.5555028825243429e-06,0.0,0.0,0.0,1.5555028825243429e-06,0.0,24.228223330196734,1.1805220996663675,0.000141064581299506,0.0
11615,8.275862068965518,8.620689655172415,1.7857142857142858,0,247927.58290796133,530279.1432582225,365818.30462842475,245113.85561244324,-58370.7173613434,1.6528505527197422e-06,0.0,0.0,0.0,1.6528505527197422e-06,0.0,23.059230747757514,1.4985800899262678,-0.0023054973158313586,0.0
11616,8.275862068965518,8.620689655172415,2.142857142857143,0,550514.2469135297,742481.3534157063,588747.8893788178,131441.940907905,242424.32771143253,3.670094979423531e-06,0.0,0.0,0.0,3.670094979423531e-06,0.0,23.719908598525066,1.8164736123312073,0.012995179218855573,0.0
11617,8.275862068965518,8.620689655172415,2.5,0,505980.9554690695,886358.2010339883,441704.45913768193,335810.3455942853,364610.3630549258,3.3732063697937964e-06,0.0,0.0,0.0,3.3732063697937964e-06,0.0,23.96151436108241,2.1261730956603233,0.03646103630549258,0.0
11618,8.275862068965518,8.620689655172415,2.857142857142857,0,631020.1079409268,635168.4995055925,654298.4933898189,13930.905198849992,267593.4378658449,4.206800719606179e-06,0.0,0.0,0.0,4.206800719606179e-06,0.0,22.932889516301024,2.423616469474064,0.014344371770293893,0.0
11619,8.275862068965518,8.620689655172415,3.2142857142857144,0,298051.652285077,516798.7693676733,278108.2035120112,182732.97563919157,28484.59682923157,1.9870110152338468e-06,0.0,0.0,0.0,1.9870110152338468e-06,0.0,23.128707784295177,2.7128658042119826,0.0011250703178067023,0.0
11620,8.275862068965518,8.620689655172415,3.5714285714285716,0,153114.5989965376,319606.2214444115,143973.08618448535,249363.26399980538,-50647.85689861822,1.0207639933102506e-06,0.0,0.0,0.0,1.0207639933102506e-06,0.0,24.46019043540539,3.001950671094939,-0.0017831950907256857,0.0
11621,8.275862068965518,8.620689655172415,3.928571428571429,0,231771.34339323046,288242.7890877681,222742.40441199424,30770.033744300934,8017.591097333491,1.545142289288203e-06,0.0,0.0,0.0,1.545142289288203e-06,0.0,23.083994701702537,3.2959342563489487,0.00027182269441596165,0.0
11622,8.275862068965518,8.620689655172415,4.285714285714286,0,159237.70205633875,282715.82412417745,206630.90348660087,99707.9907162836,-32723.495987590257,1.0615846803755916e-06,0.0,0.0,0.0,1.0615846803755916e-06,0.0,23.486977876992377,3.5949666163952436,-0.0010964544945318364,0.0
11623,8.275862068965518,8.620689655172415,4.642857142857143,0,265204.29174102395,287659.0801911357,210862.79975976868,-7468.615864517795,39895.92054934871,1.7680286116068262e-06,0.0,0.0,0.0,1.7680286116068262e-06,0.0,22.658580817412528,3.896947171215808,0.0013319665075867053,0.0
11624,8.275862068965518,8.620689655172415,5.0,0,217267.83023028896,356823.8771576737,164811.13228070593,120983.17629234384,5067.071340607375,1.4484522015352597e-06,0.0,0.0,0.0,1.4484522015352597e-06,0.0,23.278324487154638,4.2000987873141815,0.00016898357597258727,0.0
11625,8.620689655172415,8.620689655172415,0.0,0,142415.65579102727,311311.52947566065,183767.38177237113,157641.8093568891,-8335.908187883568,9.494377052735151e-07,0.0,0.0,0.0,9.494377052735151e-07,0.0,23.925103878520236,-0.04990580210851661,-0.0002779971861218924,0.0
11626,8.620689655172415,8.620689655172415,0.35714285714285715,0,203376.6494684921,385120.87011541665,295916.2497616361,152385.7256705993,40089.03235431499,1.3558443297899474e-06,0.0,0.0,0.0,1.3558443297899474e-06,0.0,24.02103959978675,0.2540659354510453,0.0013384137446197882,0.0
11627,8.620689655172415,8.620689655172415,0.7142857142857143,0,285493.4244539546,419327.27134188823,252774.75400822863,89673.88379777882,8350.23365805998,1.9032894963596975e-06,0.0,0.0,0.0,1.9032894963596975e-06,0.0,23.943377903667237,0.5591543295781226,0.00027978829732137986,0.0
11628,8.620689655172415,8.620689655172415,1.0714285714285714,0,343925.30912889296,386889.34944109374,168055.8766202907,-9526.605852033517,11663.368080409651,2.2928353941926197e-06,0.0,0.0,0.0,2.2928353941926197e-06,0.0,23.53380085393696,0.8670539523909953,0.0003954265188999826,0.0
11629,8.620689655172415,8.620689655172415,1.4285714285714286,0,340476.49624238355,424996.56406897004,118972.30825338645,58241.34122504118,2330.0324530520206,2.269843308282557e-06,0.0,0.0,0.0,2.269843308282557e-06,0.0,23.018429213053114,1.1797677959765502,8.203510841200557e-05,0.0
11630,8.620689655172415,8.620689655172415,1.7857142857142858,0,272250.17552999046,585959.891102366,284418.2478203662,358217.4116826488,40683.53786812899,1.8150011701999364e-06,0.0,0.0,0.0,1.8150011701999364e-06,0.0,23.7674448198873,1.497152775176526,0.001606897972023418,0.0
11631,8.620689655172415,8.620689655172415,2.142857142857143,0,437312.5838744375,955924.8091604697,596059.5235553304,469210.4391035122,340281.24638671766,2.9154172258295834e-06,0.0,0.0,0.0,2.9154172258295834e-06,0.0,23.344650999036716,1.8143809273053078,0.018240808681852468,0.0
11632,8.620689655172415,8.620689655172415,2.5,0,541904.6528036841,975952.8664578891,549990.3827687778,366011.1422006201,699362.9411584463,3.612697685357894e-06,0.0,0.0,0.0,3.612697685357894e-06,0.0,22.766063552587845,2.1237957158451124,0.06993629411584462,0.0
11633,8.620689655172415,8.620689655172415,2.857142857142857,0,578598.4734946511,975353.6095033911,454765.80843924184,352406.36269179307,28685.328172912472,3.857323156631007e-06,0.0,0.0,0.0,3.857323156631007e-06,0.0,23.589343931151948,2.4215237844481647,0.0015376797538339832,0.0
11634,8.620689655172415,8.620689655172415,3.2142857142857144,0,444186.2469192196,617560.4368480117,320196.91350218473,106963.45970371352,160692.97983637563,2.961241646128131e-06,0.0,0.0,0.0,2.961241646128131e-06,0.0,24.21466620603782,2.7114384894622403,0.006346970714652531,0.0
11635,8.620689655172415,8.620689655172415,3.5714285714285716,0,98803.0733232169,356321.8127277289,263184.71243754437,252690.51019313958,-33878.255964021104,6.586871554881127e-07,0.0,0.0,0.0,6.586871554881127e-07,0.0,24.13953501814424,3.001196367405122,-0.00119277583330557,0.0
11636,8.620689655172415,8.620689655172415,3.928571428571429,0,268076.50758085074,389592.39537699235,283124.2658361569,84637.41975329883,6569.269799340562,1.7871767172056716e-06,0.0,0.0,0.0,1.7871767172056716e-06,0.0,24.177861399741506,3.2956253809624245,0.00022271984134935988,0.0
11637,8.620689655172415,8.620689655172415,4.285714285714286,0,148403.98309830984,326559.15952451347,224457.36055251377,156322.86166918965,-55059.25782793643,9.893598873220655e-07,0.0,0.0,0.0,9.893598873220655e-07,0.0,23.745233154554686,3.5948686152924085,-0.0018448508904403802,0.0
11638,8.620689655172415,8.620689655172415,4.642857142857143,0,239000.127385987,312885.7626330257,227729.759601589,42970.12179794504,47677.011040498146,1.5933341825732467e-06,0.0,0.0,0.0,1.5933341825732467e-06,0.0,23.13376052394248,3.8969230783081885,0.0015917462490741246,0.0
11639,8.620689655172415,8.620689655172415,5.0,0,149719.97687909793,289168.55704361695,209352.1435342167,116451.92970667384,-44194.25787966972,9.981331791939862e-07,0.0,0.0,0.0,9.981331791939862e-07,0.0,23.896865085905688,4.200094197891484,-0.0014738501260308096,0.0
11640,8.965517241379311,8.620689655172415,0.0,0,140896.0650674101,354587.7631975732,205959.63359252614,222967.84817834964,38517.52843665635,9.393071004494006e-07,0.0,0.0,0.0,9.393071004494006e-07,0.0,23.54132129809018,-0.04991061605601807,0.0012845348437647644,0.0
11641,8.965517241379311,8.620689655172415,0.35714285714285715,0,299907.1530865039,411669.64830298093,301673.7883773622,72295.23623964796,-8278.654168407,1.9993810205766927e-06,0.0,0.0,0.0,1.9993810205766927e-06,0.0,23.34195301412616,0.25404066386460006,-0.0002763914186808055,0.0
11642,8.965517241379311,8.620689655172415,0.7142857142857143,0,187332.6499784237,405578.6857453182,292179.5524228975,189351.69457900434,-5598.262000516183,1.2488843331894913e-06,0.0,0.0,0.0,1.2488843331894913e-06,0.0,23.808625578269087,0.559051534042559,-0.0001875789657181056,0.0
11643,8.965517241379311,8.620689655172415,1.0714285714285714,0,321650.50265403255,379851.0564029327,393466.3718882837,65224.407877954836,-44446.01690673229,2.144336684360217e-06,0.0,0.0,0.0,2.144336684360217e-06,0.0,23.70839254750037,0.866729966131029,-0.0015068660804694106,0.0
11644,8.965517241379311,8.620689655172415,1.4285714285714286,0,327535.2991945479,461732.0834038799,338946.46503168,90545.56679430863,55447.14265076095,2.1835686612969857e-06,0.0,0.0,0.0,2.1835686612969857e-06,0.0,23.174837940390784,1.1789765900663196,0.0019521669548134655,0.0
11645,8.965517241379311,8.620689655172415,1.7857142857142858,0,457769.5219197628,740805.3211818547,354543.70903164527,235177.45842782847,53501.8239205811,3.0517968127984184e-06,0.0,0.0,0.0,3.0517968127984184e-06,0.0,23.15628937789691,1.495655633002889,0.002113188204924656,0.0
11646,8.965517241379311,8.620689655172415,2.142857142857143,0,366122.76798232715,848777.9315594299,454197.8109386645,520050.5190875796,392822.4260804762,2.4408184532155143e-06,0.0,0.0,0.0,2.4408184532155143e-06,0.0,22.917808648728222,1.8121858634562307,0.021057283632762634,0.0
11647,8.965517241379311,8.620689655172415,2.5,0,517991.8074229175,799889.2219604341,916923.5601429102,350427.32128412434,381323.94462923455,3.4532787161527835e-06,0.0,0.0,0.0,3.4532787161527835e-06,0.0,23.62723716592301,2.121302029302078,0.038132394462923457,0.0
11648,8.965517241379311,8.620689655172415,2.857142857142857,0,638729.6897989099,1102726.348619677,469889.4926021824,458262.57027041446,252038.81421178224,4.258197931992733e-06,0.0,0.0,0.0,4.258197931992733e-06,0.0,23.95723779640802,2.4193287205990877,0.013510564685111399,0.0
11649,8.965517241379311,8.620689655172415,3.2142857142857144,0,148070.46913325417,528017.2444297259,509060.9409854982,371381.49776552373,77017.76229570922,9.871364608883611e-07,0.0,0.0,0.0,9.871364608883611e-07,0.0,23.21270946088544,2.7099413472886034,0.003042008943369419,0.0
11650,8.965517241379311,8.620689655172415,3.5714285714285716,0,220014.4627755288,355363.5346725461,225940.38147434048,101327.8988718196,-59871.17357264787,1.4667630851701921e-06,0.0,0.0,0.0,1.4667630851701921e-06,0.0,22.980084919573056,3.000405161494891,-0.0021079269554176096,0.0
11651,8.965517241379311,8.620689655172415,3.928571428571429,0,220131.60462117274,227326.38643544284,273117.7517779109,33691.96381379439,13043.89983295465,1.4675440308078183e-06,0.0,0.0,0.0,1.4675440308078183e-06,0.0,23.76955392759154,3.295301394702458,0.0004422310835314186,0.0
11652,8.965517241379311,8.620689655172415,4.285714285714286,0,247631.97162120664,383701.2529371132,168062.99507655491,113257.71108197945,-22786.914181086955,1.6508798108080442e-06,0.0,0.0,0.0,1.6508798108080442e-06,0.0,24.3120140065022,3.594765819756845,-0.0007635129962837415,0.0
11653,8.965517241379311,8.620689655172415,4.642857142857143,0,65798.13520497974,231944.31434469257,293823.0439503245,224704.34293997858,-26695.36224981447,4.386542346998649e-07,0.0,0.0,0.0,4.386542346998649e-07,0.0,24.522417635670333,3.8968978067217432,-0.0008912522366958597,0.0
11654,8.965517241379311,8.620689655172415,5.0,0,184664.46834937632,291695.84314798866,155557.3686446886,81497.42982508455,17596.988069992512,1.2310964556625088e-06,0.0,0.0,0.0,1.2310964556625088e-06,0.0,24.289741571116753,4.200089383943982,0.00058684825425368,0.0
11655,9.310344827586208,8.620689655172415,0.0,0,170545.38573405318,416110.30245968414,280941.2831413054,224498.6556185143,6357.829008904858,1.1369692382270212e-06,0.0,0.0,0.0,1.1369692382270212e-06,0.0,23.36695872626177,-0.04991562469392928,0.00021202951549883093,0.0
11656,9.310344827586208,8.620689655172415,0.35714285714285715,0,258954.82831534694,426149.0306357926,245933.5333287022,129402.98929282503,-41856.025770149085,1.7263655221023129e-06,0.0,0.0,0.0,1.7263655221023129e-06,0.0,22.946015347985472,0.25401437021974665,-0.0013974066445606736,0.0
11657,9.310344827586208,8.620689655172415,0.7142857142857143,0,50993.57646153227,324880.0095448407,269106.55336969567,280642.8676995825,41962.605891537016,3.3995717641021515e-07,0.0,0.0,0.0,3.3995717641021515e-07,0.0,23.704958961597924,0.558944581148625,0.0014060260508074168,0.0
11658,9.310344827586208,8.620689655172415,1.0714285714285714,0,119134.12178065862,374548.8580901443,238945.69790953,326791.63342029887,19700.76870140698,7.942274785377241e-07,0.0,0.0,0.0,7.942274785377241e-07,0.0,23.37053642067499,0.8663928768993978,0.0006679208212879687,0.0
11659,9.310344827586208,8.620689655172415,1.4285714285714286,0,95907.5246792642,369209.36562854913,275581.86075360805,271173.83034165663,-84479.14735535679,6.393834978617613e-07,0.0,0.0,0.0,6.393834978617613e-07,0.0,23.310988705056875,1.1781533854268094,-0.002974317376040325,0.0
11660,9.310344827586208,8.620689655172415,1.7857142857142858,0,482267.8267416171,570428.7376318955,468323.9114429063,45284.339726679085,48064.653316609496,3.215118844944114e-06,0.0,0.0,0.0,3.215118844944114e-06,0.0,24.365610449161036,1.4940979419297968,0.0018984335676709536,0.0
11661,9.310344827586208,8.620689655172415,2.142857142857143,0,932236.2699065206,999801.6285160736,474224.08580409124,-76553.76449843249,393454.8878383307,6.214908466043471e-06,0.0,0.0,0.0,6.214908466043471e-06,0.0,24.112775512611318,1.8099020246713888,0.021091186805641288,0.0
11662,9.310344827586208,8.620689655172415,2.5,0,503257.4573868817,1004859.2850337205,556667.5160063806,460433.61413168383,632045.7568629927,3.3550497159125447e-06,0.0,0.0,0.0,3.3550497159125447e-06,0.0,23.743225865841907,2.11870749062995,0.06320457568629927,0.0
11663,9.310344827586208,8.620689655172415,2.857142857142857,0,331032.1191885833,902895.4026399894,596410.7373144019,551833.3885127838,42541.906687919574,2.206880794590555e-06,0.0,0.0,0.0,2.206880794590555e-06,0.0,23.38129297828564,2.417044881814246,0.0022804629673116505,0.0
11664,9.310344827586208,8.620689655172415,3.2142857142857144,0,115285.20266872128,453012.72567188286,397558.38678963576,320479.5918073649,71558.44760998592,7.685680177914752e-07,0.0,0.0,0.0,7.685680177914752e-07,0.0,23.438041257803555,2.7083836562155112,0.002826379670282066,0.0
11665,9.310344827586208,8.620689655172415,3.5714285714285716,0,391492.558002023,548612.1655656344,223150.1108834734,114178.6148786767,39504.76548214801,2.6099503866801537e-06,0.0,0.0,0.0,2.6099503866801537e-06,0.0,22.66694771193822,2.9995819568553808,0.0013908723523888675,0.0
11666,9.310344827586208,8.620689655172415,3.928571428571429,0,350339.21435545833,424137.7275452125,340554.20824688184,39566.28414644249,-2887.1370276694583,2.3355947623697222e-06,0.0,0.0,0.0,2.3355947623697222e-06,0.0,23.96674045744468,3.294964305470827,-9.788343611963574e-05,0.0
11667,9.310344827586208,8.620689655172415,4.285714285714286,0,205675.63561953555,432813.0413949772,236510.19642855748,218897.36760305247,2077.774462635321,1.371170904130237e-06,0.0,0.0,0.0,1.371170904130237e-06,0.0,24.09709964018156,3.5946588668629107,6.961924694855115e-05,0.0
11668,9.310344827586208,8.620689655172415,4.642857142857143,0,206389.6555196021,468489.26018407196,243786.94980284432,287375.1521227165,37979.50087384169,1.3759310367973472e-06,0.0,0.0,0.0,1.3759310367973472e-06,0.0,23.07095208550307,3.89687151307689,0.0012679848576559027,0.0
11669,9.310344827586208,8.620689655172415,5.0,0,188465.2982898874,310862.26245217957,161766.20257988822,99030.06606769642,-58982.6043882971,1.2564353219325827e-06,0.0,0.0,0.0,1.2564353219325827e-06,0.0,23.143921789899846,4.200084375306071,-0.0019670319874588818,0.0
11670,9.655172413793103,8.620689655172415,0.0,0,197073.7603980719,378083.51109346794,453839.4395524249,230128.62969298867,29992.56047189785,1.3138250693204794e-06,0.0,0.0,0.0,1.3138250693204794e-06,0.0,23.802587737103828,-0.049920802329415565,0.0010002326354670691,0.0
11671,9.655172413793103,8.620689655172415,0.35714285714285715,0,199228.68397555387,252982.3606521877,482886.80185622734,375007.73151592386,13833.65349357058,1.3281912265036924e-06,0.0,0.0,0.0,1.3281912265036924e-06,0.0,23.157547673785064,0.2539871893951252,0.00046185080773369013,0.0
11672,9.655172413793103,8.620689655172415,0.7142857142857143,0,484506.426113918,665329.3982195891,222277.24495515786,147956.96101909698,-66346.10744557857,3.2300428407594535e-06,0.0,0.0,0.0,3.2300428407594535e-06,0.0,23.89229361814669,0.55883401953311,-0.002223035330057157,0.0
11673,9.655172413793103,8.620689655172415,1.0714285714285714,0,249220.01078220326,408427.3055050884,397958.2884615753,154137.75580590763,29645.84347344927,1.6614667385480218e-06,0.0,0.0,0.0,1.6614667385480218e-06,0.0,22.938246315309872,0.8660444138644016,0.0010050915484910322,0.0
11674,9.655172413793103,8.620689655172415,1.4285714285714286,0,307449.2038963466,590917.5330796187,333506.8678264396,250481.6522628019,94522.56190198286,2.0496613593089775e-06,0.0,0.0,0.0,2.0496613593089775e-06,0.0,23.17803068926282,1.1773024048549334,0.0033279230093352483,0.0
11675,9.655172413793103,8.620689655172415,1.7857142857142858,0,414252.7700154802,527316.0365901934,715421.2757676259,240491.1539409867,97224.78554095367,2.7616851334365344e-06,0.0,0.0,0.0,2.7616851334365344e-06,0.0,23.59798728926353,1.4924876924528565,0.0038401358117519865,0.0
11676,9.655172413793103,8.620689655172415,2.142857142857143,0,508160.92176829156,1245348.2977468956,796720.6266156352,693502.124947358,449226.78523146117,3.3877394784552773e-06,0.0,0.0,0.0,3.3877394784552773e-06,0.0,23.18157753307074,1.8075411263699004,0.024080844687098105,0.0
11677,9.655172413793103,8.620689655172415,2.5,0,1123981.6445344451,1675749.5024831437,879652.89441658,390003.4006498224,574819.8031184205,7.4932109635629675e-06,0.0,0.0,0.0,7.4932109635629675e-06,0.0,23.157401120862684,2.1160254090465966,0.057481980311842054,0.0
11678,9.655172413793103,8.620689655172415,2.857142857142857,0,738349.7587840708,1025896.0100447317,207834.7643408084,408917.761564333,327413.5966287525,4.922331725227139e-06,0.0,0.0,0.0,4.922331725227139e-06,0.0,23.15089178082955,2.414683983512757,0.017551037088758617,0.0
11679,9.655172413793103,8.620689655172415,3.2142857142857144,0,419422.5054091475,559174.9778275337,367454.0993036929,78155.39405879866,2485.539979871115,2.796150036060983e-06,0.0,0.0,0.0,2.796150036060983e-06,0.0,23.705118755984074,2.706773406738571,9.81726113885214e-05,0.0
11680,9.655172413793103,8.620689655172415,3.5714285714285716,0,263221.91069458233,475691.3187943942,344499.275956836,172656.33639450758,25516.861715631738,1.7548127379638823e-06,0.0,0.0,0.0,1.7548127379638823e-06,0.0,23.843812448921483,2.998730976283505,0.0008983902839782761,0.0
11681,9.655172413793103,8.620689655172415,3.928571428571429,0,200607.63855625383,233519.48060475444,311444.77117080416,83566.37359389533,-21537.98095062831,1.3373842570416923e-06,0.0,0.0,0.0,1.3373842570416923e-06,0.0,23.613471006309116,3.2946158424358307,-0.0007302083560019106,0.0
11682,9.655172413793103,8.620689655172415,4.285714285714286,0,216345.34625450877,405561.22102814616,186770.18709322048,191747.45159375135,-23683.919705276734,1.4423023083633918e-06,0.0,0.0,0.0,1.4423023083633918e-06,0.0,23.02305186514457,3.594548305247396,-0.0007935686400630845,0.0
11683,9.655172413793103,8.620689655172415,4.642857142857143,0,387823.74740686675,474242.65965342236,225776.01441381066,27355.492015096912,28667.65163725664,2.5854916493791118e-06,0.0,0.0,0.0,2.5854916493791118e-06,0.0,24.060506300503206,3.8968443322522686,0.0009570991546556097,0.0
11684,9.655172413793103,8.620689655172415,5.0,0,140137.9932645076,404364.00139376643,330174.866155647,242727.72864880043,68004.17610399616,9.342532884300505e-07,0.0,0.0,0.0,9.342532884300505e-07,0.0,23.508970980554032,4.2000791976705845,0.002267895612013502,0.0
11685,10.0,8.620689655172415,0.0,0,287836.0122816382,422968.4962435369,189856.1640854671,101245.2021613428,-3930.959341657056,1.918906748544255e-06,0.0,0.0,0.0,1.918906748544255e-06,0.0,23.761471997277607,-0.0499261269373935,-0.00013109497023115388,0.0
11686,10.0,8.620689655172415,0.35714285714285715,0,163565.03859625483,495869.20699790865,325976.0239399646,339468.07317928044,-70641.95691999124,1.0904335906416989e-06,0.0,0.0,0.0,1.0904335906416989e-06,0.0,22.5958930356963,0.25395923701492984,-0.0023584546828898088,0.0
11687,10.0,8.620689655172415,0.7142857142857143,0,175510.45019962091,504332.9749315814,426391.0787126775,303350.5650682621,1813.7198083514213,1.1700696679974728e-06,0.0,0.0,0.0,1.1700696679974728e-06,0.0,23.829432921013755,0.5587203195127853,6.0771661941086537e-05,0.0
11688,10.0,8.620689655172415,1.0714285714285714,0,109048.94259043153,309686.456043993,360252.484480261,235099.6577248636,9177.675208201677,7.269929506028769e-07,0.0,0.0,0.0,7.269929506028769e-07,0.0,23.0642532546003,0.8656860593488953,0.0003111533593173198,0.0
11689,10.0,8.620689655172415,1.4285714285714286,0,446592.7477910637,548310.1988058456,413265.8011983141,49780.64462901105,51563.26283749969,2.977284985273758e-06,0.0,0.0,0.0,2.977284985273758e-06,0.0,23.033933037804594,1.1764272683270574,0.0018154244381490534,0.0
11690,10.0,8.620689655172415,1.7857142857142858,0,927738.417302291,1147722.433090227,228410.2712659463,211781.3190518759,56325.16503676157,6.184922782015273e-06,0.0,0.0,0.0,6.184922782015273e-06,0.0,23.462496104850363,1.4908317343936055,0.0022247031161554917,0.0
11691,10.0,8.620689655172415,2.142857142857143,0,511670.334900556,838109.3678318189,612425.6314341384,252396.83025134538,531980.9598902112,3.411135566003707e-06,0.0,0.0,0.0,3.411135566003707e-06,0.0,22.239340425007953,1.8051132115496138,0.02851689011600007,0.0
11692,10.0,8.620689655172415,2.5,0,1088021.2667933179,1322365.793186833,1494468.4528285665,330652.8710013913,874159.5800789904,7.2534751119554524e-06,0.0,0.0,0.0,7.2534751119554524e-06,0.0,23.4443149430323,2.113267193827696,0.08741595800789904,0.0
11693,10.0,8.620689655172415,2.857142857142857,0,857303.931117003,1587440.1754423145,663364.3515011761,817940.1779810351,397163.82886020205,5.71535954078002e-06,0.0,0.0,0.0,5.71535954078002e-06,0.0,23.135721409743564,2.412256068692471,0.021290004943022103,0.0
11694,10.0,8.620689655172415,3.2142857142857144,0,581879.0966651827,942161.4817180525,735382.8895924077,285133.997381705,144597.9353326265,3.879193977767885e-06,0.0,0.0,0.0,3.879193977767885e-06,0.0,23.985863501327437,2.70511744867932,0.005711256720050259,0.0
11695,10.0,8.620689655172415,3.5714285714285716,0,293430.5204236292,483422.27194027335,311300.94681646914,144612.41077568303,56884.48125350964,1.9562034694908613e-06,0.0,0.0,0.0,1.9562034694908613e-06,0.0,23.41917946920413,2.997855839755629,0.0020027723564450184,0.0
11696,10.0,8.620689655172415,3.928571428571429,0,317494.77324946737,482701.8054644671,298753.6335570132,116091.17136089892,-50286.12474566715,2.1166318216631157e-06,0.0,0.0,0.0,2.1166318216631157e-06,0.0,22.791683087993142,3.2942574879203246,-0.0017048649343878919,0.0
11697,10.0,8.620689655172415,4.285714285714286,0,283970.63727537787,449783.85243618244,361381.84878242295,132126.9361604016,43219.74772628698,1.8931375818358525e-06,0.0,0.0,0.0,1.8931375818358525e-06,0.0,22.89244360360249,3.5944346052270713,0.0014481486533404202,0.0
11698,10.0,8.620689655172415,4.642857142857143,0,134874.85926456065,381433.6102810552,323012.35425384843,227197.2037464296,-5381.385549377306,8.991657284304043e-07,0.0,0.0,0.0,8.991657284304043e-07,0.0,22.068044105449676,3.896816379872073,-0.0001796631138593609,0.0
11699,10.0,8.620689655172415,5.0,0,370505.13291076035,441793.4336967026,348135.2986564492,33446.498265726375,-11097.174701703545,2.470034219405069e-06,0.0,0.0,0.0,2.470034219405069e-06,0.0,24.516906724017737,4.200073873062607,-0.00037008365152830375,0.0
11700,0.0,8.965517241379311,0.0,0,213848.58764143023,423342.81308312016,240515.26855463002,188186.96222844743,-4840.98986395116,1.4256572509428683e-06,0.0,0.0,0.0,1.4256572509428683e-06,0.0,21.92455658922506,-0.04993014921654327,-0.000161443903878302,0.0
11701,0.0,8.965517241379311,0.35714285714285715,0,243971.28489201682,458656.44859511184,212046.3831624157,217412.47162232813,55673.42622234411,1.6264752326134454e-06,0.0,0.0,0.0,1.6264752326134454e-06,0.0,22.911086408083452,0.2539381214179671,0.0018587148277237166,0.0
11702,0.0,8.965517241379311,0.7142857142857143,0,312383.7072190621,382623.3140130368,235257.9050903339,23815.798765762796,55733.33976738231,2.0825580481270804e-06,0.0,0.0,0.0,2.0825580481270804e-06,0.0,23.556780583428477,0.5586344290166255,0.0018674371132714758,0.0
11703,0.0,8.965517241379311,1.0714285714285714,0,263273.1423927153,345224.0455002777,275157.1533785401,54005.66530659235,22379.189608049637,1.755154282618102e-06,0.0,0.0,0.0,1.755154282618102e-06,0.0,23.924641950307972,0.8654153536177088,0.0007587280947925738,0.0
11704,0.0,8.965517241379311,1.4285714285714286,0,281242.7038251825,534291.78910678,352413.19828485564,210355.51494851173,21295.80699975242,1.87495135883455e-06,0.0,0.0,0.0,1.87495135883455e-06,0.0,24.097722059708097,1.1757661786423577,0.0007497766109040684,0.0
11705,0.0,8.965517241379311,1.7857142857142858,0,445536.90716557455,1036458.7463662411,700315.1098971695,531105.5509513498,73242.9891953953,2.970246047770497e-06,0.0,0.0,0.0,2.970246047770497e-06,0.0,23.150543917067676,1.4895808018174934,0.0028929148488635735,0.0
11706,0.0,8.965517241379311,2.142857142857143,0,393268.9759837276,1162199.3894693991,820354.1083465563,732400.6389599503,739789.049675033,2.6217931732248506e-06,0.0,0.0,0.0,2.6217931732248506e-06,0.0,23.45622977365488,1.8032791326466158,0.03965646259775325,0.0
11707,0.0,8.965517241379311,2.5,0,805627.4805478822,1256127.528564194,1072135.0871545684,374418.8769441636,684138.8654544309,5.370849870319215e-06,0.0,0.0,0.0,5.370849870319215e-06,0.0,23.057078440817254,2.1111836016437184,0.0684138865454431,0.0
11708,0.0,8.965517241379311,2.857142857142857,0,511718.6248542303,1315845.7280429495,832762.196810582,779636.9004538432,380115.4966077084,3.4114574990282023e-06,0.0,0.0,0.0,3.4114574990282023e-06,0.0,22.436558592309943,2.410421989789473,0.020376127465892555,0.0
11709,0.0,8.965517241379311,3.2142857142857144,0,443692.92177315324,747299.1273705981,368050.7094461465,259360.67644539155,104632.38440768444,2.9579528118210217e-06,0.0,0.0,0.0,2.9579528118210217e-06,0.0,22.696590293265025,2.703866516103208,0.004132717436169598,0.0
11710,0.0,8.965517241379311,3.5714285714285716,0,491608.8034999652,740016.4097677866,378978.55110178306,180132.26835535935,-42074.72821811239,3.2773920233331013e-06,0.0,0.0,0.0,3.2773920233331013e-06,0.0,22.365732288498442,2.9971947500709293,-0.0014813548567778076,0.0
11711,0.0,8.965517241379311,3.928571428571429,0,233160.40392986004,463226.6117129909,336638.3991275671,194152.66606142404,48916.28360203946,1.5544026928657337e-06,0.0,0.0,0.0,1.5544026928657337e-06,0.0,23.386796563213952,3.293986782189138,0.001658422816541977,0.0
11712,0.0,8.965517241379311,4.285714285714286,0,222984.2867818035,513014.97066277725,383370.84682424983,255537.0159782129,-66200.50044125623,1.48656191187869e-06,0.0,0.0,0.0,1.48656191187869e-06,0.0,23.06237082902418,3.5943487147309114,-0.0022181565281594287,0.0
11713,0.0,8.965517241379311,4.642857142857143,0,224455.2733840627,380847.58325434575,218118.03680479745,124784.5250232283,-32019.80949206414,1.4963684892270846e-06,0.0,0.0,0.0,1.4963684892270846e-06,0.0,23.144479091062742,3.8967952642751102,-0.001069014406372246,0.0
11714,0.0,8.965517241379311,5.0,0,356451.3850080914,493575.54430859716,130911.46963762304,143679.96826597696,-18016.28158942862,2.3763425667206095e-06,0.0,0.0,0.0,2.3763425667206095e-06,0.0,23.579056969420414,4.200069850783457,-0.0006008314239257992,0.0
11715,0.3448275862068966,8.965517241379311,0.0,0,355055.4402118694,471427.29626118235,328542.2558488485,67190.14787748808,-44892.927326496414,2.3670362680791296e-06,0.0,0.0,0.0,2.3670362680791296e-06,0.0,23.376520294433494,-0.049925006169381975,-0.0014971503035123078,0.0
11716,0.3448275862068966,8.965517241379311,0.35714285714285715,0,201532.59716461782,441880.1836978133,344481.0471274823,210149.35068874434,46524.49737739594,1.3435506477641187e-06,0.0,0.0,0.0,1.3435506477641187e-06,0.0,23.58870203204449,0.2539651206656509,0.001553268390244188,0.0
11717,0.3448275862068966,8.965517241379311,0.7142857142857143,0,126588.02840759161,403364.4694066723,297764.7966891084,263037.147207277,-58952.325542711886,8.439201893839441e-07,0.0,0.0,0.0,8.439201893839441e-07,0.0,24.16803152670537,0.5587442520438219,-0.001975294520149171,0.0
11718,0.3448275862068966,8.965517241379311,1.0714285714285714,0,110275.49941129003,402980.1113161554,325935.8292910426,276658.0857601921,-44195.816250874486,7.351699960752669e-07,0.0,0.0,0.0,7.351699960752669e-07,0.0,22.8699228458208,0.8657614888038767,-0.0014983834557515537,0.0
11719,0.3448275862068966,8.965517241379311,1.4285714285714286,0,458374.214811076,567118.5630767862,470109.297381014,68004.53997993315,-29587.82874379622,3.055828098740507e-06,0.0,0.0,0.0,3.055828098740507e-06,0.0,22.335002425457464,1.1766114743813294,-0.0010417197131713026,0.0
11720,0.3448275862068966,8.965517241379311,1.7857142857142858,0,541770.631980761,865689.9933857984,467713.63644805725,248698.78602149524,145823.38259028128,3.611804213205073e-06,0.0,0.0,0.0,3.611804213205073e-06,0.0,22.986305649042546,1.491180294293025,0.0057596588211539035,0.0
11721,0.3448275862068966,8.965517241379311,2.142857142857143,0,373587.6797509454,1110319.6657765459,734015.5794165535,739508.9781165429,595176.8373714627,2.4905845316729696e-06,0.0,0.0,0.0,2.4905845316729696e-06,0.0,23.177858383264912,1.8056242593631924,0.03190451115846929,0.0
11722,0.3448275862068966,8.965517241379311,2.5,0,710998.6817017124,1417535.3617724641,959552.4171131133,598452.5048400006,843506.4635894023,4.739991211344749e-06,0.0,0.0,0.0,4.739991211344749e-06,0.0,23.5037418785141,2.113847766031144,0.08435064635894023,0.0
11723,0.3448275862068966,8.965517241379311,2.857142857142857,0,640972.8610638746,1130655.650047218,519560.67840884515,463489.013256832,280029.20012131793,4.273152407092497e-06,0.0,0.0,0.0,4.273152407092497e-06,0.0,23.652720180917616,2.4127671165060494,0.01501099199260638,0.0
11724,0.3448275862068966,8.965517241379311,3.2142857142857144,0,412508.34590577206,784116.3094435505,514913.91408205713,309205.4172334799,33309.83903052192,2.750055639371814e-06,0.0,0.0,0.0,2.750055639371814e-06,0.0,22.763104738540623,2.7054660085787394,0.0013156553139520206,0.0
11725,0.3448275862068966,8.965517241379311,3.5714285714285716,0,211452.70147407922,515284.9341909362,368919.8878229111,272853.4823191755,91137.73247290839,1.4096846764938614e-06,0.0,0.0,0.0,1.4096846764938614e-06,0.0,22.693857127951024,2.998040045809901,0.0032087509141970217,0.0
11726,0.3448275862068966,8.965517241379311,3.928571428571429,0,258076.76277504218,463584.8539557099,474585.08930110023,211184.0960944028,1629.2649123006215,1.7205117518336145e-06,0.0,0.0,0.0,1.7205117518336145e-06,0.0,23.987127856793887,3.2943329173753058,5.523743640733082e-05,0.0
11727,0.3448275862068966,8.965517241379311,4.285714285714286,0,502200.8060043782,690295.4175146226,287118.01416859124,127747.38901265405,-64817.556901075404,3.348005373362521e-06,0.0,0.0,0.0,3.348005373362521e-06,0.0,23.468946671423346,3.5944585377581078,-0.002171818732806204,0.0
11728,0.3448275862068966,8.965517241379311,4.642857142857143,0,191458.7587614076,474786.86104993446,330729.9832100884,257526.99210628815,98058.26259638942,1.2763917250760508e-06,0.0,0.0,0.0,1.2763917250760508e-06,0.0,23.491003548073724,3.896822263522794,0.003273776360391941,0.0
11729,0.3448275862068966,8.965517241379311,5.0,0,390187.9752774767,504511.8334559893,394885.31530777965,71236.98327895372,-25460.48801050085,2.6012531685165113e-06,0.0,0.0,0.0,2.6012531685165113e-06,0.0,23.451247889332382,4.2000749938306186,-0.0008490909286281928,0.0
11730,0.6896551724137931,8.965517241379311,0.0,0,224036.98448865773,485090.2401396697,237505.43721605965,296344.8215059968,-3190.44511032224,1.4935798965910517e-06,0.0,0.0,0.0,1.4935798965910517e-06,0.0,23.400518137640297,-0.049920021203600784,-0.00010639929605212221,0.0
11731,0.6896551724137931,8.965517241379311,0.35714285714285715,0,330506.9457324121,422656.53366478253,435018.7556818837,98504.1423193219,-30546.721720857095,2.2033796382160806e-06,0.0,0.0,0.0,2.2033796382160806e-06,0.0,23.219014549849778,0.25399129003987614,-0.001019833849890128,0.0
11732,0.6896551724137931,8.965517241379311,0.7142857142857143,0,300018.08867358655,563349.1957553137,471147.46487449773,228051.19314323828,-42758.420562162006,2.0001205911572436e-06,0.0,0.0,0.0,2.0001205911572436e-06,0.0,22.981533224999403,0.5588506994504645,-0.0014326911287915064,0.0
11733,0.6896551724137931,8.965517241379311,1.0714285714285714,0,230218.21032614165,434221.6007772423,320085.0777045363,169234.92990341186,60049.48595282652,1.5347880688409443e-06,0.0,0.0,0.0,1.5347880688409443e-06,0.0,23.071035973103534,0.8660969848638191,0.0020358749743946687,0.0
11734,0.6896551724137931,8.965517241379311,1.4285714285714286,0,429817.7950819628,648875.5554330355,317262.8823148427,163275.35833300397,17249.294796444086,2.865451967213085e-06,0.0,0.0,0.0,2.865451967213085e-06,0.0,24.428574556700255,1.1774307883408572,0.0006073081801085719,0.0
11735,0.6896551724137931,8.965517241379311,1.7857142857142858,0,244063.453460415,716239.3829159461,787056.9592649989,515416.0342524489,105051.68403845675,1.6270896897361e-06,0.0,0.0,0.0,1.6270896897361e-06,0.0,24.252455692739737,1.4927306233115494,0.004149278722666908,0.0
11736,0.6896551724137931,8.965517241379311,2.142857142857143,0,327968.86262437765,918855.7389406201,976989.6612132089,623841.0588782324,283397.89975762344,2.1864590841625176e-06,0.0,0.0,0.0,2.1864590841625176e-06,0.0,23.818551571944944,1.8078973041298565,0.015191571458048453,0.0
11737,0.6896551724137931,8.965517241379311,2.5,0,793840.5022533691,1435824.1847066872,958564.440224562,519440.5996461937,732005.4399784969,5.29227001502246e-06,0.0,0.0,0.0,5.29227001502246e-06,0.0,23.326116646661735,2.1164300422363347,0.07320054399784968,0.0
11738,0.6896551724137931,8.965517241379311,2.857142857142857,0,253413.04138569158,885946.4082937984,1120551.466535784,851794.2592770654,358167.4891302452,1.6894202759046105e-06,0.0,0.0,0.0,1.6894202759046105e-06,0.0,23.647077045260065,2.4150401612727133,0.019199602430806456,0.0
11739,0.6896551724137931,8.965517241379311,3.2142857142857144,0,350616.42260971654,849768.4181804707,740063.7938155868,457417.1469650339,17477.93004204658,2.33744281739811e-06,0.0,0.0,0.0,2.33744281739811e-06,0.0,22.65704149286044,2.707016337597264,0.0006903345139443607,0.0
11740,0.6896551724137931,8.965517241379311,3.5714285714285716,0,252561.91793300788,407843.9584578195,339035.017711983,128008.19495976533,31774.378770226063,1.6837461195533859e-06,0.0,0.0,0.0,1.6837461195533859e-06,0.0,23.872166275207324,2.998859359769429,0.0011187031338234447,0.0
11741,0.6896551724137931,8.965517241379311,3.928571428571429,0,419339.80605563655,431653.9644058772,345686.1522509083,-24007.811683732907,-15282.42829809791,2.795598707037577e-06,0.0,0.0,0.0,2.795598707037577e-06,0.0,23.258509743292713,3.2946684134352484,-0.000518124557211367,0.0
11742,0.6896551724137931,8.965517241379311,4.285714285714286,0,158541.02612959925,319381.26005288446,364896.99799362576,188576.45398140585,31003.653862504507,1.0569401741973284e-06,0.0,0.0,0.0,1.0569401741973284e-06,0.0,23.39106827094409,3.5945649851647503,0.0010388283586003156,0.0
11743,0.6896551724137931,8.965517241379311,4.642857142857143,0,389883.8698595671,698080.5224656984,314837.0554902756,301879.30383305525,32152.5171398629,2.5992257990637804e-06,0.0,0.0,0.0,2.5992257990637804e-06,0.0,23.437126697795314,3.8968484328970194,0.0010734449882396308,0.0
11744,0.6896551724137931,8.965517241379311,5.0,0,96122.01399397256,298478.2116709547,188141.53188696087,232878.93725990527,-19402.31497944968,6.408134266264837e-07,0.0,0.0,0.0,6.408134266264837e-07,0.0,23.30332597734808,4.200079978796399,-0.000647054747601185,0.0
11745,1.0344827586206897,8.965517241379311,0.0,0,189674.90606552892,445984.4370979688,228051.67066826083,318161.9679109948,20206.16908789326,1.2644993737701927e-06,0.0,0.0,0.0,1.2644993737701927e-06,0.0,23.79954092672955,-0.04991521615824417,0.000673862766015382,0.0
11746,1.0344827586206897,8.965517241379311,0.35714285714285715,0,393406.4618041359,546998.4691360082,190699.81321617676,124805.91748090314,-20576.920873972223,2.622709745360906e-06,0.0,0.0,0.0,2.622709745360906e-06,0.0,24.199824838721547,0.25401651489308985,-0.0006869817529211061,0.0
11747,1.0344827586206897,8.965517241379311,0.7142857142857143,0,321324.1542528399,539194.3801255639,356664.132655045,168177.14527214653,-35183.42131876869,2.1421610283522663e-06,0.0,0.0,0.0,2.1421610283522663e-06,0.0,23.835646717510066,0.5589533048923997,-0.0011788783341670076,0.0
11748,1.0344827586206897,8.965517241379311,1.0714285714285714,0,345716.4048552111,538480.5306223169,213101.7409295571,175500.55936364454,-48491.5099870574,2.3047760323680737e-06,0.0,0.0,0.0,2.3047760323680737e-06,0.0,23.4448550915919,0.8664203719953956,-0.0016440215946363558,0.0
11749,1.0344827586206897,8.965517241379311,1.4285714285714286,0,227467.78798637196,500798.48521461076,394885.2367673151,239687.15308379324,11318.63225651789,1.5164519199091465e-06,0.0,0.0,0.0,1.5164519199091465e-06,0.0,22.883615546486602,1.178220531121377,0.00039850312944046277,0.0
11750,1.0344827586206897,8.965517241379311,1.7857142857142858,0,489962.6875772852,972965.8582763101,816830.0627517737,423963.09746513097,23850.806916948342,3.2664179171819014e-06,0.0,0.0,0.0,3.2664179171819014e-06,0.0,23.441140217898496,1.4942249969098156,0.0009420472081409223,0.0
11751,1.0344827586206897,8.965517241379311,2.142857142857143,0,449749.4013515623,1342197.0860141667,1118484.9236547528,824460.2645603676,584435.1498330149,2.9983293423437485e-06,0.0,0.0,0.0,2.9983293423437485e-06,0.0,23.387480066011644,1.8100883087788011,0.03132870197300983,0.0
11752,1.0344827586206897,8.965517241379311,2.5,0,828097.7716955693,1392020.1262356215,444016.9711600335,1026247.1630390226,987602.4284138441,5.520651811303795e-06,0.0,0.0,0.0,5.520651811303795e-06,0.0,23.843071910445012,2.1189191173541704,0.0987602428413844,0.0
11753,1.0344827586206897,8.965517241379311,2.857142857142857,0,593670.6598894221,1189485.3754867008,504181.1656489414,832223.0892710312,481930.35958354373,3.957804399262814e-06,0.0,0.0,0.0,3.957804399262814e-06,0.0,23.11328782581664,2.417231165921658,0.02583392291078349,0.0
11754,1.0344827586206897,8.965517241379311,3.2142857142857144,0,306447.0033008924,719423.5461511047,417228.6921564191,408894.4143505919,99338.74579667646,2.0429800220059495e-06,0.0,0.0,0.0,2.0429800220059495e-06,0.0,22.996267578966258,2.7085107111955304,0.003923631953578928,0.0
11755,1.0344827586206897,8.965517241379311,3.5714285714285716,0,232663.32093722207,437441.80568427616,249286.00031952467,177290.82995815523,7714.783086600612,1.551088806248147e-06,0.0,0.0,0.0,1.551088806248147e-06,0.0,23.59423514336883,2.9996491025499488,0.0002716198506400195,0.0
11756,1.0344827586206897,8.965517241379311,3.928571428571429,0,387797.3596824618,573985.3005894537,169898.63059961906,204842.4008761219,109518.36639285405,2.5853157312164123e-06,0.0,0.0,0.0,2.5853157312164123e-06,0.0,23.909960454326527,3.294991800566825,0.0037130326402952784,0.0
11757,1.0344827586206897,8.965517241379311,4.285714285714286,0,296513.46245793265,563831.9232526153,311665.8392407765,237176.11895232915,87652.29810605964,1.9767564163862175e-06,0.0,0.0,0.0,1.9767564163862175e-06,0.0,23.530967347395045,3.5946675906066856,0.0029369342521006945,0.0
11758,1.0344827586206897,8.965517241379311,4.642857142857143,0,180474.7830062108,366478.0219978699,374421.233326377,190105.99360069647,-9108.012914219385,1.2031652200414053e-06,0.0,0.0,0.0,1.2031652200414053e-06,0.0,23.942415561781175,3.896873657750233,-0.00030408041687874894,0.0
11759,1.0344827586206897,8.965517241379311,5.0,0,318705.1894077264,431420.5092597085,396507.72793358227,96696.37515197949,-8853.059524020719,2.124701262718176e-06,0.0,0.0,0.0,2.124701262718176e-06,0.0,22.826021071681176,4.200084783841756,-0.0002952438511528572,0.0
11760,1.3793103448275863,8.965517241379311,0.0,0,255358.6872813948,430702.46060425584,268316.6798255217,136363.60421802112,14496.876786219325,1.7023912485426322e-06,0.0,0.0,0.0,1.7023912485426322e-06,0.0,23.702532248495434,-0.04991061605601807,0.00048346153331949894,0.0
11761,1.3793103448275863,8.965517241379311,0.35714285714285715,0,172475.54556130295,440612.9923695513,286338.3616472266,254400.85152933147,-52316.195799578985,1.1498369704086862e-06,0.0,0.0,0.0,1.1498369704086862e-06,0.0,22.82956706345382,0.25404066386460006,-0.0017466302230874338,0.0
11762,1.3793103448275863,8.965517241379311,0.7142857142857143,0,258219.9651892711,450646.8241865293,343097.85414555774,156035.3305799605,-80075.78374093481,1.7214664345951408e-06,0.0,0.0,0.0,1.7214664345951408e-06,0.0,24.808899494741276,0.559051534042559,-0.002683070690833386,0.0
11763,1.3793103448275863,8.965517241379311,1.0714285714285714,0,316167.6590944578,545194.2969198065,310926.0811827685,185571.4450263168,-61036.65818806457,2.107784393963052e-06,0.0,0.0,0.0,2.107784393963052e-06,0.0,24.150360313604498,0.866729966131029,-0.002069343358299191,0.0
11764,1.3793103448275863,8.965517241379311,1.4285714285714286,0,251501.22669988105,453087.61437815154,459248.1399534152,204723.24513912355,-9375.39946315733,1.6766748446658738e-06,0.0,0.0,0.0,1.6766748446658738e-06,0.0,23.67721120467082,1.1789765900663196,-0.00033008635152636606,0.0
11765,1.3793103448275863,8.965517241379311,1.7857142857142858,0,448776.79014487803,633911.4382604542,599834.2273648718,169067.44523238455,8272.092223806641,2.99184526763252e-06,0.0,0.0,0.0,2.99184526763252e-06,0.0,22.687485324094663,1.495655633002889,0.00032672694940915394,0.0
11766,1.3793103448275863,8.965517241379311,2.142857142857143,0,887290.8110708465,1410190.9496595587,706313.2616032322,413502.4382385994,590890.3252936923,5.915272073805643e-06,0.0,0.0,0.0,5.915272073805643e-06,0.0,22.806642006605102,1.8121858634562307,0.03167473226952576,0.0
11767,1.3793103448275863,8.965517241379311,2.5,0,783756.1820389156,1207168.5031817274,437218.7697436445,410299.4645347662,572108.8768446629,5.225041213592771e-06,0.0,0.0,0.0,5.225041213592771e-06,0.0,24.446628736742262,2.121302029302078,0.0572108876844663,0.0
11768,1.3793103448275863,8.965517241379311,2.857142857142857,0,734681.8252193802,844982.3688901991,1130354.1691785879,295801.528969659,275424.06540737196,4.897878834795868e-06,0.0,0.0,0.0,4.897878834795868e-06,0.0,22.924842620701423,2.4193287205990877,0.01476413330684801,0.0
11769,1.3793103448275863,8.965517241379311,3.2142857142857144,0,472443.6613408959,689038.7247356542,429447.19248335116,143716.5570074296,-59600.651647557985,3.149624408939306e-06,0.0,0.0,0.0,3.149624408939306e-06,0.0,23.758455648442784,2.7099413472886034,-0.002354076643338383,0.0
11770,1.3793103448275863,8.965517241379311,3.5714285714285716,0,262811.9189225365,497531.9500059327,410980.80266495276,202360.01094241868,-27679.404616029904,1.7520794594835765e-06,0.0,0.0,0.0,1.7520794594835765e-06,0.0,24.424787349592002,3.000405161494891,-0.0009745284686835582,0.0
11771,1.3793103448275863,8.965517241379311,3.928571428571429,0,416530.53585002274,600943.5933099277,145163.15832766864,240027.68803240068,-17964.859646925062,2.776870239000152e-06,0.0,0.0,0.0,2.776870239000152e-06,0.0,23.570819779195585,3.295301394702458,-0.0006090677978895478,0.0
11772,1.3793103448275863,8.965517241379311,4.285714285714286,0,234877.60349547552,527221.2974315068,310440.8688634399,277685.15523539454,-3533.620510212699,1.5658506899698367e-06,0.0,0.0,0.0,1.5658506899698367e-06,0.0,22.925097530327474,3.594765819756845,-0.00011839976058370736,0.0
11773,1.3793103448275863,8.965517241379311,4.642857142857143,0,426162.2361025259,545296.9236794813,319350.17287894967,53740.26704255426,-1543.2967547459384,2.8410815740168395e-06,0.0,0.0,0.0,2.8410815740168395e-06,0.0,22.639668971614725,3.8968978067217432,-5.152455590155322e-05,0.0
11774,1.3793103448275863,8.965517241379311,5.0,0,194464.8960088142,516140.7057139089,323573.9823444667,319831.65449001756,-27571.498832964124,1.2964326400587612e-06,0.0,0.0,0.0,1.2964326400587612e-06,0.0,23.72347915460762,4.200089383943982,-0.0009194917842147094,0.0
11775,1.7241379310344829,8.965517241379311,0.0,0,349467.6963842806,523742.7423878456,573732.2830417228,201961.71311935902,-46349.98628892019,2.329784642561871e-06,0.0,0.0,0.0,2.329784642561871e-06,0.0,22.97841994393719,-0.049906249384656744,-0.0015457422844264274,0.0
11776,1.7241379310344829,8.965517241379311,0.35714285714285715,0,263499.7199267412,379867.1657358113,252739.95566950433,76906.17820435467,18450.07569849064,1.756664799511608e-06,0.0,0.0,0.0,1.756664799511608e-06,0.0,23.536278962855988,0.25406358740349455,0.0006159748303697205,0.0
11777,1.7241379310344829,8.965517241379311,0.7142857142857143,0,264588.48439753085,424339.2894417777,381852.87853776873,141078.44194604704,-39750.8659208522,1.7639232293168723e-06,0.0,0.0,0.0,1.7639232293168723e-06,0.0,23.007200219402915,0.5591447785827378,-0.0013319180694195865,0.0
11778,1.7241379310344829,8.965517241379311,1.0714285714285714,0,354563.84942950483,365128.09348835575,366325.22991510545,11164.328013350229,35855.35961636405,2.363758996196699e-06,0.0,0.0,0.0,2.363758996196699e-06,0.0,23.2438838684628,0.8670238500012687,0.0012156145582698505,0.0
11779,1.7241379310344829,8.965517241379311,1.4285714285714286,0,405013.08465414424,506790.52172567544,298535.4303317034,40022.711548266234,-71778.41968503341,2.7000872310276282e-06,0.0,0.0,0.0,2.7000872310276282e-06,0.0,23.264636964289235,1.179694283017494,-0.0025271538311800014,0.0
11780,1.7241379310344829,8.965517241379311,1.7857142857142858,0,264573.52933074976,861566.2704097424,652630.3675305432,564073.7252299421,23130.585125494923,1.763823528871665e-06,0.0,0.0,0.0,1.763823528871665e-06,0.0,23.423458733680828,1.497013671878776,0.0009136002490823247,0.0
11781,1.7241379310344829,8.965517241379311,2.142857142857143,0,746106.424591805,1153087.0184782697,749102.3150431761,292101.4449746325,652815.7715463258,4.974042830612033e-06,0.0,0.0,0.0,4.974042830612033e-06,0.0,23.188610498130057,1.8141769783246733,0.034994251724761644,0.0
11782,1.7241379310344829,8.965517241379311,2.5,0,863857.7695168811,1667725.6186228695,1156100.3528266523,670340.3753190815,1050156.117871342,5.759051796779207e-06,0.0,0.0,0.0,5.759051796779207e-06,0.0,23.705935381699938,2.1235640210683577,0.1050156117871342,0.0
11783,1.7241379310344829,8.965517241379311,2.857142857142857,0,695956.3147199334,866532.5135242688,1226382.8942240777,424174.8344078806,270671.5427379145,4.639708764799557e-06,0.0,0.0,0.0,4.639708764799557e-06,0.0,24.066938986315876,2.4213198354675303,0.014509373875670833,0.0
11784,1.7241379310344829,8.965517241379311,3.2142857142857144,0,457423.9539746232,833696.747286229,553368.5935140316,305848.8194058161,171341.49009568346,3.049493026497488e-06,0.0,0.0,0.0,3.049493026497488e-06,0.0,23.39290344784674,2.7112993861644905,0.006767560231626593,0.0
11785,1.7241379310344829,8.965517241379311,3.5714285714285716,0,127905.98996709337,396976.6841632076,340597.37921751663,250567.01329312628,92016.84807617789,8.527065997806224e-07,0.0,0.0,0.0,8.527065997806224e-07,0.0,23.708176967586024,3.0011228544460655,0.003239702561984774,0.0
11786,1.7241379310344829,8.965517241379311,3.928571428571429,0,448828.3187781056,463837.32197063655,414430.407716123,-7650.285899533339,48691.51141910368,2.9921887918540375e-06,0.0,0.0,0.0,2.9921887918540375e-06,0.0,23.114866033866164,3.295595278572698,0.0016508023006471615,0.0
11787,1.7241379310344829,8.965517241379311,4.285714285714286,0,188178.34208716513,507320.80208734167,432757.79102374776,293287.0505541942,-2946.671532512243,1.254522280581101e-06,0.0,0.0,0.0,1.254522280581101e-06,0.0,22.803478721120356,3.5948590642970237,-9.87330707867312e-05,0.0
11788,1.7241379310344829,8.965517241379311,4.642857142857143,0,229171.03718116853,421588.11924096005,230527.2435959837,167498.0061191585,-85010.72119203133,1.5278069145411235e-06,0.0,0.0,0.0,1.5278069145411235e-06,0.0,23.792796395551374,3.896920730260638,-0.002838170716565294,0.0
11789,1.7241379310344829,8.965517241379311,5.0,0,312175.7976149342,488940.9905694021,268382.30961114465,131742.37217340933,3730.477219610733,2.0811719840995616e-06,0.0,0.0,0.0,2.0811719840995616e-06,0.0,24.036505594941634,4.200093750615343,0.00012440902017742927,0.0
11790,2.0689655172413794,8.965517241379311,0.0,0,143236.18165591155,352012.55220067303,363788.1259973776,215027.6488055894,17926.19122642115,9.54907877706077e-07,0.0,0.0,0.0,9.54907877706077e-07,0.0,22.63429042653757,-0.04990214827301091,0.0005978269681606576,0.0
11791,2.0689655172413794,8.965517241379311,0.35714285714285715,0,180686.3107754232,290737.04528962343,293495.82488521363,111445.92074434696,10388.215440976332,1.204575405169488e-06,0.0,0.0,0.0,1.204575405169488e-06,0.0,23.55017196010017,0.25408511684423896,0.0003468213002845829,0.0
11792,2.0689655172413794,8.965517241379311,0.7142857142857143,0,279179.6711581672,485803.8586621907,222546.11095813796,193045.2001850853,20854.21849496648,1.8611978077211146e-06,0.0,0.0,0.0,1.8611978077211146e-06,0.0,23.816686334058506,0.5592323524434646,0.0006987548520924022,0.0
11793,2.0689655172413794,8.965517241379311,1.0714285714285714,0,383588.40889323177,607410.9576551231,363932.17534024327,165236.50387330574,-36282.95042509152,2.557256059288212e-06,0.0,0.0,0.0,2.557256059288212e-06,0.0,23.749975785504304,0.8672998612837834,-0.0012301112923043982,0.0
11794,2.0689655172413794,8.965517241379311,1.4285714285714286,0,144894.3972091742,419082.10030125175,436617.4558207063,283753.38732646167,-18741.66745530531,9.659626480611613e-07,0.0,0.0,0.0,9.659626480611613e-07,0.0,23.314991136287468,1.180368329373777,-0.0006598512048636266,0.0
11795,2.0689655172413794,8.965517241379311,1.7857142857142858,0,589577.1297668532,932916.6712564752,474632.2949117586,267789.6613954811,-100510.86370905225,3.9305141984456875e-06,0.0,0.0,0.0,3.9305141984456875e-06,0.0,23.638561871768392,1.4982891214348637,-0.003969927678952519,0.0
11796,2.0689655172413794,8.965517241379311,2.142857142857143,0,793276.3991229886,1120353.3228547166,791123.1319798625,215472.6963624419,517792.9929626108,5.288509327486591e-06,0.0,0.0,0.0,5.288509327486591e-06,0.0,24.082699748895962,1.8160470032703258,0.027756342795044592,0.0
11797,2.0689655172413794,8.965517241379311,2.5,0,295646.34268197836,957763.0042694387,764114.2051288362,617459.9261977505,636756.2381345121,1.9709756178798557e-06,0.0,0.0,0.0,1.9709756178798557e-06,0.0,23.19432574766907,2.125688449496293,0.06367562381345121,0.0
11798,2.0689655172413794,8.965517241379311,2.857142857142857,0,420734.77385704155,859352.970940245,534197.4135755644,384168.17447250074,391249.01321551,2.804898492380277e-06,0.0,0.0,0.0,2.804898492380277e-06,0.0,24.40640955568224,2.4231898604131827,0.020972940686002656,0.0
11799,2.0689655172413794,8.965517241379311,3.2142857142857144,0,630975.3104336258,752035.2305080609,450241.25093032717,26838.547357978438,97946.67608745609,4.206502069557505e-06,0.0,0.0,0.0,4.206502069557505e-06,0.0,22.939752564079104,2.7125748357205786,0.003868648682460468,0.0
11800,2.0689655172413794,8.965517241379311,3.5714285714285716,0,218145.39160862428,481001.30186578416,374072.8987377444,230022.16584503616,-22758.496121440523,1.4543026107241619e-06,0.0,0.0,0.0,1.4543026107241619e-06,0.0,24.087335221913175,3.001796900802349,-0.0008012745462712655,0.0
11801,2.0689655172413794,8.965517241379311,3.928571428571429,0,180444.0346857107,332083.8762119686,182377.09500185543,131727.65935013624,-48010.39097539738,1.2029602312380713e-06,0.0,0.0,0.0,1.2029602312380713e-06,0.0,23.670180026149325,3.2958712898552127,-0.0016277100785592057,0.0
11802,2.0689655172413794,8.965517241379311,4.285714285714286,0,75913.78738260866,289012.0411212281,268907.3999435896,205069.56105828998,11189.510871402526,5.060919158840577e-07,0.0,0.0,0.0,5.060919158840577e-07,0.0,23.39053009810297,3.5949466381577504,0.000374922945006085,0.0
11803,2.0689655172413794,8.965517241379311,4.642857142857143,0,241321.4798834348,361930.5589006279,312655.3360906509,99774.48302202976,-77708.4959152717,1.6088098658895653e-06,0.0,0.0,0.0,1.6088098658895653e-06,0.0,22.731744027466956,3.8969422597013823,-0.0025943783847787384,0.0
11804,2.0689655172413794,8.965517241379311,5.0,0,363582.8765474608,452516.0499706357,409027.16196871136,69144.66341174794,33406.31039601455,2.4238858436497384e-06,0.0,0.0,0.0,2.4238858436497384e-06,0.0,24.252483414951037,4.200097851726989,0.0011140790036897514,0.0
11805,2.413793103448276,8.965517241379311,0.0,0,155230.68750191169,428301.95853055135,273384.56080268015,272759.8667252573,28323.137946537852,1.0348712500127446e-06,0.0,0.0,0.0,1.0348712500127446e-06,0.0,23.180293643810252,-0.04989834847740244,0.0009445584660738461,0.0
11806,2.413793103448276,8.965517241379311,0.35714285714285715,0,172926.12708384398,385936.0582770021,193372.65535540177,243905.61563507435,-23579.479579951458,1.1528408472256265e-06,0.0,0.0,0.0,1.1528408472256265e-06,0.0,23.63708171342103,0.2541050644783095,-0.0007872252760271923,0.0
11807,2.413793103448276,8.965517241379311,0.7142857142857143,0,240588.5103180323,447679.8429731993,283170.09458805656,171555.84201789997,-21252.260687740403,1.6039234021202153e-06,0.0,0.0,0.0,1.6039234021202153e-06,0.0,23.892322460913732,0.5593134920953795,-0.0007120919097052497,0.0
11808,2.413793103448276,8.965517241379311,1.0714285714285714,0,299846.05625527253,535539.6417860456,260092.95934497082,216144.89031889208,-43505.89173399947,1.9989737083684836e-06,0.0,0.0,0.0,1.9989737083684836e-06,0.0,24.851160817856137,0.8675555935217135,-0.0014749927466415607,0.0
11809,2.413793103448276,8.965517241379311,1.4285714285714286,0,230611.93964382051,555801.1072371731,417529.2001896969,289580.0794501218,-13214.326875619248,1.5374129309588034e-06,0.0,0.0,0.0,1.5374129309588034e-06,0.0,23.488438386625138,1.1809928523338182,-0.00046524619707041543,0.0
11810,2.413793103448276,8.965517241379311,1.7857142857142858,0,371451.8161568838,720096.9931019588,466726.56928242935,293696.8783655554,62917.336385600356,2.4763454410458917e-06,0.0,0.0,0.0,2.4763454410458917e-06,0.0,23.696537821370047,1.4994708614216261,0.0024850773934864292,0.0
11811,2.413793103448276,8.965517241379311,2.142857142857143,0,1123515.2422178073,1296377.2744625371,172636.81857051287,173087.38143573428,377574.12736214994,7.490101614785382e-06,0.0,0.0,0.0,7.490101614785382e-06,0.0,23.8827802941833,1.8177796341250487,0.020239897124989508,0.0
11812,2.413793103448276,8.965517241379311,2.5,0,1105154.0560225775,1039565.4789984744,1850467.2174563338,591673.3541929594,928712.5476282721,7.367693706817183e-06,0.0,0.0,0.0,7.367693706817183e-06,0.0,23.73869041792338,2.1276567923526004,0.0928712547628272,0.0
11813,2.413793103448276,8.965517241379311,2.857142857142857,0,340047.5877094439,1044235.9312935503,796528.2795569313,656539.2518923862,221150.5962088579,2.266983918062959e-06,0.0,0.0,0.0,2.266983918062959e-06,0.0,23.30458161239141,2.424922491267906,0.011854798811742109,0.0
11814,2.413793103448276,8.965517241379311,3.2142857142857144,0,282389.9233909949,708321.5384973242,529766.2508557264,382754.71639239043,10726.475661354008,1.8825994892732993e-06,0.0,0.0,0.0,1.8825994892732993e-06,0.0,24.43260749409011,2.713756575707341,0.00042366895531696283,0.0
11815,2.413793103448276,8.965517241379311,3.5714285714285716,0,180962.591922648,387737.5774366788,201809.59865921276,212186.96863440264,44158.217059718634,1.20641727948432e-06,0.0,0.0,0.0,1.20641727948432e-06,0.0,23.46421761159938,3.00242142376239,0.0015547097290554413,0.0
11816,2.413793103448276,8.965517241379311,3.928571428571429,0,206189.609477534,406097.3674833361,180471.69271661883,227451.81618777703,91383.27880352213,1.3745973965168932e-06,0.0,0.0,0.0,1.3745973965168932e-06,0.0,23.933483362804292,3.2961270220931427,0.0030981935555680538,0.0
11817,2.413793103448276,8.965517241379311,4.285714285714286,0,124906.93884036456,251732.02375170385,293300.43087975756,152909.39633564893,-37173.00176738957,8.327129256024303e-07,0.0,0.0,0.0,8.327129256024303e-07,0.0,23.59571021257434,3.5950277778096655,-0.0012455424957819622,0.0
11818,2.413793103448276,8.965517241379311,4.642857142857143,0,303609.75326637225,592976.1842530062,329094.2772436303,261151.1727464638,43413.94996062432,2.024065021775815e-06,0.0,0.0,0.0,2.024065021775815e-06,0.0,23.405967007920115,3.8969622073354526,0.0014494195525096298,0.0
11819,2.413793103448276,8.965517241379311,5.0,0,68136.97105386511,348448.7931263207,360416.1300521938,287088.31589289976,-49323.05447132327,4.542464736924341e-07,0.0,0.0,0.0,4.542464736924341e-07,0.0,24.237746465886396,4.200101651522598,-0.001644892199496021,0.0
11820,2.7586206896551726,8.965517241379311,0.0,0,427916.82568519795,553145.6725973955,313894.874199819,59111.27069689904,-16349.915110119142,2.8527788379013195e-06,0.0,0.0,0.0,2.8527788379013195e-06,0.0,23.83001055056344,-0.04989488906761649,-0.000545259171706273,0.0
11821,2.7586206896551726,8.965517241379311,0.35714285714285715,0,203679.69977584927,423215.6069371259,194388.43748293287,261748.70149335088,426.8831360884206,1.3578646651723284e-06,0.0,0.0,0.0,1.3578646651723284e-06,0.0,22.61109464597501,0.2541232252026275,1.4251934335492753e-05,0.0
11822,2.7586206896551726,8.965517241379311,0.7142857142857143,0,343090.4166652624,468959.208495336,83895.0493577682,357082.1288850281,-29089.5016967103,2.287269444435083e-06,0.0,0.0,0.0,2.287269444435083e-06,0.0,23.856882229480142,0.5593873632544591,-0.0009746915455226777,0.0
11823,2.7586206896551726,8.965517241379311,1.0714285714285714,0,149651.96485223089,391668.6014115983,295173.3680634894,219275.05028959727,-17921.06996201086,9.976797656815392e-07,0.0,0.0,0.0,9.976797656815392e-07,0.0,23.399197337337462,0.8677884172568919,-0.0006075831836211844,0.0
11824,2.7586206896551726,8.965517241379311,1.4285714285714286,0,225309.04592955398,525457.1241255834,299258.86712159426,301047.9440830662,-62449.23134652089,1.5020603061970264e-06,0.0,0.0,0.0,1.5020603061970264e-06,0.0,22.92305866101839,1.1815614305054185,-0.0021986944675589375,0.0
11825,2.7586206896551726,8.965517241379311,1.7857142857142858,0,568106.9986066701,816671.9349836803,323378.1487758217,195536.7346758868,124850.46472428217,3.7873799907111337e-06,0.0,0.0,0.0,3.7873799907111337e-06,0.0,24.200483231321286,1.5005467410993498,0.004931281031210297,0.0
11826,2.7586206896551726,8.965517241379311,2.142857142857143,0,789400.7364278147,1212990.5878037375,926797.654121125,320411.8154972648,307668.2182084225,5.2626715761854314e-06,0.0,0.0,0.0,5.2626715761854314e-06,0.0,23.345169075432,1.8193570558476566,0.01649258419445278,0.0
11827,2.7586206896551726,8.965517241379311,2.5,0,987432.1130999782,1455000.7968399513,484873.98106618895,451128.51377013396,643268.180667399,6.582880753999855e-06,0.0,0.0,0.0,6.582880753999855e-06,0.0,23.8628627887847,2.1294488109875074,0.0643268180667399,0.0
11828,2.7586206896551726,8.965517241379311,2.857142857142857,0,602221.1376397331,991811.606206451,881595.5943583933,342094.80311463214,320099.1751724328,4.014807584264888e-06,0.0,0.0,0.0,4.014807584264888e-06,0.0,24.19632665623555,2.4264999129905136,0.017158946828657897,0.0
11829,2.7586206896551726,8.965517241379311,3.2142857142857144,0,485296.2776190121,653228.9495011467,302050.22441115,99462.90291283948,23457.036896424368,3.235308517460081e-06,0.0,0.0,0.0,3.235308517460081e-06,0.0,23.619918072984543,2.7148324553850642,0.0009264942773836568,0.0
11830,2.7586206896551726,8.965517241379311,3.5714285714285716,0,171938.42243471602,343632.5794040464,366663.51170049375,184370.4029069103,13632.283032165542,1.1462561495647734e-06,0.0,0.0,0.0,1.1462561495647734e-06,0.0,23.871489848796454,3.00299000193399,0.00047996147649445484,0.0
11831,2.7586206896551726,8.965517241379311,3.928571428571429,0,203223.591760332,479533.4653085974,384963.74440778344,246258.67458096633,3001.801882816456,1.35482394506888e-06,0.0,0.0,0.0,1.35482394506888e-06,0.0,23.41022126150211,3.296359845828321,0.00010177095164674201,0.0
11832,2.7586206896551726,8.965517241379311,4.285714285714286,0,393182.2956609222,512570.91610717215,266471.9666659905,59114.422795642684,106129.01548540381,2.621215304406148e-06,0.0,0.0,0.0,2.621215304406148e-06,0.0,24.307317446125026,3.595101648968745,0.003556027023314968,0.0
11833,2.7586206896551726,8.965517241379311,4.642857142857143,0,329567.736403341,555764.1399172014,435970.27207906183,183054.2190565632,-10293.753948853036,2.19711824268894e-06,0.0,0.0,0.0,2.19711824268894e-06,0.0,23.669217621942916,3.8969803680597708,-0.00034366760582077763,0.0
11834,2.7586206896551726,8.965517241379311,5.0,0,269980.2367906229,445563.68545150704,455030.13094307104,180441.17254426042,-4217.198198077921,1.7998682452708191e-06,0.0,0.0,0.0,1.7998682452708191e-06,0.0,24.0335631958984,4.200105110932384,-0.00014064085231745263,0.0
11835,3.1034482758620694,8.965517241379311,0.0,0,190273.97623573052,346208.73265999946,305618.6225840596,138914.96571316998,54668.35840363792,1.26849317490487e-06,0.0,0.0,0.0,1.26849317490487e-06,0.0,24.4967812186516,-0.049891811683883444,0.0018231546537670104,0.0
11836,3.1034482758620694,8.965517241379311,0.35714285714285715,0,109466.65561716915,270158.27303165477,330561.7540625086,204201.22142943717,9197.181827424549,7.297777041144609e-07,0.0,0.0,0.0,7.297777041144609e-07,0.0,22.823074269223106,0.25413938042015144,0.0003070574131297886,0.0
11837,3.1034482758620694,8.965517241379311,0.7142857142857143,0,260082.8632384544,495750.75049689686,374230.31477282144,197150.9154000811,-4044.6536584935347,1.7338857549230292e-06,0.0,0.0,0.0,1.7338857549230292e-06,0.0,23.410960977957146,0.5594530767481931,-0.0001355227657937793,0.0
11838,3.1034482758620694,8.965517241379311,1.0714285714285714,0,179653.61099101897,270836.8701501281,341908.3460568313,137591.5252581426,-5374.495332692534,1.1976907399401265e-06,0.0,0.0,0.0,1.1976907399401265e-06,0.0,23.671898504046702,0.8679955300361334,-0.00018221305934950556,0.0
11839,3.1034482758620694,8.965517241379311,1.4285714285714286,0,136212.04395192073,457749.5221366727,386803.6182078448,300708.77034701256,15703.222893894417,9.080802930128048e-07,0.0,0.0,0.0,9.080802930128048e-07,0.0,23.82683060797095,1.1820672200257434,0.0005528745279196141,0.0
11840,3.1034482758620694,8.965517241379311,1.7857142857142858,0,287004.07690023223,672084.8057308549,418803.6511655817,360355.51265518006,142710.51325045573,1.913360512668215e-06,0.0,0.0,0.0,1.913360512668215e-06,0.0,24.075451662864587,1.5015038103174514,0.005636708269371677,0.0
11841,3.1034482758620694,8.965517241379311,2.142857142857143,0,564574.6227986837,1028046.7354160366,377946.5796744401,745089.950797726,533457.4072082738,3.7638308186578914e-06,0.0,0.0,0.0,3.7638308186578914e-06,0.0,24.3828987385174,1.8207602813253114,0.028596035215365925,0.0
11842,3.1034482758620694,8.965517241379311,2.5,0,740395.3012894326,1235444.085497078,517627.34755439736,474367.1570653215,834317.7378815211,4.935968675262884e-06,0.0,0.0,0.0,4.935968675262884e-06,0.0,23.404522940598053,2.1310429352276485,0.08343177378815211,0.0
11843,3.1034482758620694,8.965517241379311,2.857142857142857,0,810220.8111670454,1071333.0816560702,1226507.156666838,349921.6725537029,441874.66349435394,5.401472074446969e-06,0.0,0.0,0.0,5.401472074446969e-06,0.0,23.681108219144978,2.4279031384681686,0.02368673349984845,0.0
11844,3.1034482758620694,8.965517241379311,3.2142857142857144,0,249491.31905885015,363736.7429831782,537935.8542341932,252123.13720450914,88950.57986810146,1.6632754603923344e-06,0.0,0.0,0.0,1.6632754603923344e-06,0.0,24.34758911791521,2.715789524603166,0.0035133253863925272,0.0
11845,3.1034482758620694,8.965517241379311,3.5714285714285716,0,176791.17054057974,492651.06136577384,319711.36519200425,312244.9897194892,106291.16148079663,1.1786078036038649e-06,0.0,0.0,0.0,1.1786078036038649e-06,0.0,23.960441350559424,3.003495791454315,0.0037422684580610288,0.0
11846,3.1034482758620694,8.965517241379311,3.928571428571429,0,217973.4945287637,234206.57123960363,402682.90108383395,156505.7382991145,-19784.29098686894,1.453156630191758e-06,0.0,0.0,0.0,1.453156630191758e-06,0.0,22.945859106404363,3.2965669586075625,-0.0006707525013278249,0.0
11847,3.1034482758620694,8.965517241379311,4.285714285714286,0,285337.1423136669,470358.8491873757,225696.5394599153,156918.9545108154,28652.650039969354,1.9022476154244459e-06,0.0,0.0,0.0,1.9022476154244459e-06,0.0,22.90923118345282,3.595167362462479,0.0009600541130595039,0.0
11848,3.1034482758620694,8.965517241379311,4.642857142857143,0,35651.042812040156,363564.839863632,333974.4436958007,323984.50117977185,48021.94961633187,2.3767361874693438e-07,0.0,0.0,0.0,2.3767361874693438e-07,0.0,23.56112826214082,3.8969965232772945,0.0016032623796423335,0.0
11849,3.1034482758620694,8.965517241379311,5.0,0,215280.8483522834,232491.7939592707,292535.53874505206,53607.215515061056,42700.64622020374,1.4352056556818894e-06,0.0,0.0,0.0,1.4352056556818894e-06,0.0,24.086374284047317,4.200108188316117,0.0014240391361384395,0.0
11850,3.4482758620689657,8.965517241379311,0.0,0,136748.6637927466,331405.7712203417,313530.85062870116,186598.6584649543,-30180.832777100048,9.116577586183107e-07,0.0,0.0,0.0,9.116577586183107e-07,0.0,24.050008704260364,-0.04988915924157275,-0.0010065113959681704,0.0
11851,3.4482758620689657,8.965517241379311,0.35714285714285715,0,170867.1574732306,350803.87283912563,250523.37339820297,153512.50495474713,111464.30581462351,1.1391143831548707e-06,0.0,0.0,0.0,1.1391143831548707e-06,0.0,23.341496492178194,0.25415330483979365,0.003721350957495433,0.0
11852,3.4482758620689657,8.965517241379311,0.7142857142857143,0,326124.2697309347,491803.9885847837,201410.74983197896,138975.80977550542,66361.40684014212,2.1741617982062313e-06,0.0,0.0,0.0,2.1741617982062313e-06,0.0,24.124602398941896,0.5595097161751492,0.002223547961407401,0.0
11853,3.4482758620689657,8.965517241379311,1.0714285714285714,0,296396.9710797129,425325.000661167,219112.80315710633,85663.28124955928,43640.016970907,1.975979807198086e-06,0.0,0.0,0.0,1.975979807198086e-06,0.0,23.923511240261647,0.8681740435873838,0.0014795400330824358,0.0
11854,3.4482758620689657,8.965517241379311,1.4285714285714286,0,335467.6511129026,508330.9954222354,258340.36303555805,127079.83493965911,-41884.84980820611,2.2364510074193507e-06,0.0,0.0,0.0,2.2364510074193507e-06,0.0,23.261615293208056,1.182503167453947,-0.0014746696726631583,0.0
11855,3.4482758620689657,8.965517241379311,1.7857142857142858,0,544111.0524949773,842185.3378261435,476466.8383026482,216896.0689914308,138506.5314389714,3.6274070166331815e-06,0.0,0.0,0.0,3.6274070166331815e-06,0.0,23.506297970697222,1.5023287223559145,0.005470661504481312,0.0
11856,3.4482758620689657,8.965517241379311,2.142857142857143,0,550342.4663037111,989922.798805167,392400.6364840011,503805.6946068123,147380.39589518032,3.668949775358074e-06,0.0,0.0,0.0,3.668949775358074e-06,0.0,22.839445864178717,1.8219697420072585,0.007900340184849499,0.0
11857,3.4482758620689657,8.965517241379311,2.5,0,770409.0097271319,1366734.447479669,535030.6469140652,677511.6757378038,657667.6148361196,5.136060064847546e-06,0.0,0.0,0.0,5.136060064847546e-06,0.0,23.221016054562778,2.1324169343612813,0.06576676148361196,0.0
11858,3.4482758620689657,8.965517241379311,2.857142857142857,0,964892.313791733,1147379.5381189983,733889.5348964296,44650.8926053186,391446.7323201361,6.43261542527822e-06,0.0,0.0,0.0,6.43261542527822e-06,0.0,22.87934293948352,2.4291125991501157,0.020983539437472297,0.0
11859,3.4482758620689657,8.965517241379311,3.2142857142857144,0,376095.54903940315,505964.8608571988,459475.94181969744,108785.98554833443,41158.28459606839,2.5073036602626876e-06,0.0,0.0,0.0,2.5073036602626876e-06,0.0,23.05257802091991,2.716614436641629,0.0016256492801526008,0.0
11860,3.4482758620689657,8.965517241379311,3.5714285714285716,0,332592.94684643624,615670.7047467175,350992.3085895258,242339.64322095268,81274.95310324102,2.217286312309575e-06,0.0,0.0,0.0,2.217286312309575e-06,0.0,24.670348469270856,3.003931738882519,0.0028615050319456595,0.0
11861,3.4482758620689657,8.965517241379311,3.928571428571429,0,72977.06702605066,292984.66112540977,282775.02378858294,215440.38642085163,4508.26258179025,4.86513780173671e-07,0.0,0.0,0.0,4.86513780173671e-07,0.0,23.635389042255635,3.296745472158813,0.00015284492152816922,0.0
11862,3.4482758620689657,8.965517241379311,4.285714285714286,0,431573.2273151456,470089.76366408664,478159.8044987896,42608.14898389635,-38175.22969277332,2.8771548487676374e-06,0.0,0.0,0.0,2.8771548487676374e-06,0.0,22.95318745187043,3.5952240018894353,-0.0012791237889833078,0.0
11863,3.4482758620689657,8.965517241379311,4.642857142857143,0,54787.025050386386,275811.52299877635,287199.8929625897,227613.71519838602,29820.095021688674,3.6524683366924255e-07,0.0,0.0,0.0,3.6524683366924255e-07,0.0,24.054262461918682,3.8970104476969367,0.0009955746671595665,0.0
11864,3.4482758620689657,8.965517241379311,5.0,0,253540.01611120382,443471.8027267618,247095.45879870362,157241.644949042,15772.103653437687,1.6902667740746921e-06,0.0,0.0,0.0,1.6902667740746921e-06,0.0,23.994576966246278,4.200110840758428,0.0005259895306010703,0.0
11865,3.793103448275862,8.965517241379311,0.0,0,286719.85031711496,523082.83704375726,274513.78577333095,209408.9172261904,-66823.77134144852,1.9114656687807664e-06,0.0,0.0,0.0,1.9114656687807664e-06,0.0,23.912139350094552,-0.049886974009061495,-0.0022285298710435987,0.0
11866,3.793103448275862,8.965517241379311,0.35714285714285715,0,267836.8961903084,364986.2202005751,344623.7624780456,87549.25108761492,51006.21872589876,1.7855793079353892e-06,0.0,0.0,0.0,1.7855793079353892e-06,0.0,23.38381152722734,0.25416477656695613,0.0017028952856847428,0.0
11867,3.793103448275862,8.965517241379311,0.7142857142857143,0,280137.5907158238,362833.60314219526,263913.28468281234,46656.0884985992,3879.046220550799,1.8675839381054921e-06,0.0,0.0,0.0,1.8675839381054921e-06,0.0,24.13651748254782,0.5595563789495683,0.00012997381650886562,0.0
11868,3.793103448275862,8.965517241379311,1.0714285714285714,0,270747.48831821367,442118.26374928345,329768.2243118057,133282.79221938527,39072.97619972003,1.8049832554547578e-06,0.0,0.0,0.0,1.8049832554547578e-06,0.0,23.28098594331313,0.8683211131821946,0.0013247023377122552,0.0
11869,3.793103448275862,8.965517241379311,1.4285714285714286,0,241253.56291244933,427720.48833160975,356788.72478566103,158952.6663434984,24553.011613188763,1.6083570860829956e-06,0.0,0.0,0.0,1.6083570860829956e-06,0.0,24.231446301796712,1.182862325686897,0.000864455328461557,0.0
11870,3.793103448275862,8.965517241379311,1.7857142857142858,0,599481.6650098133,894439.9222391216,421041.81518612267,220363.52492134174,46996.6467100287,3.9965444333987555e-06,0.0,0.0,0.0,3.9965444333987555e-06,0.0,24.28166091261832,1.5030083317099465,0.001856249978431859,0.0
11871,3.793103448275862,8.965517241379311,2.142857142857143,0,604368.2566700196,1009154.063450331,701809.526686165,312881.1210350564,407753.25520553195,4.029121711133464e-06,0.0,0.0,0.0,4.029121711133464e-06,0.0,23.811971487642502,1.822966164358321,0.021857652152695868,0.0
11872,3.793103448275862,8.965517241379311,2.5,0,285933.9161111862,1070220.5472768797,1166061.724919033,844519.0319400452,648243.6195111825,1.906226107407908e-06,0.0,0.0,0.0,1.906226107407908e-06,0.0,23.116668104631874,2.1335489128269955,0.06482436195111825,0.0
11873,3.793103448275862,8.965517241379311,2.857142857142857,0,748583.9598605155,866789.7421983009,727504.3930902404,58345.579690074526,394784.3378723471,4.990559732403437e-06,0.0,0.0,0.0,4.990559732403437e-06,0.0,24.254810003887663,2.430109021501178,0.021162452101569515,0.0
11874,3.793103448275862,8.965517241379311,3.2142857142857144,0,331061.81547992345,533526.6292479432,329790.44379879435,151532.49217398054,108529.18107867282,2.2070787698661564e-06,0.0,0.0,0.0,2.2070787698661564e-06,0.0,23.566515615825328,2.717294045995661,0.0042866311564634324,0.0
11875,3.793103448275862,8.965517241379311,3.5714285714285716,0,222119.78021379875,400397.66906718514,291260.1209702267,144821.57311533764,12482.521440045493,1.4807985347586582e-06,0.0,0.0,0.0,1.4807985347586582e-06,0.0,24.00021157179012,3.0042908971154687,0.0004394810030426876,0.0
11876,3.793103448275862,8.965517241379311,3.928571428571429,0,236084.18965056585,366379.8573818277,109201.1678243644,159495.647949699,18578.512754429765,1.573894597670439e-06,0.0,0.0,0.0,1.573894597670439e-06,0.0,24.213152777171135,3.296892541753624,0.0006298726554949865,0.0
11877,3.793103448275862,8.965517241379311,4.285714285714286,0,119338.99513138538,345143.11157704674,278218.68156020605,207361.02186030647,-14224.646389321379,7.955933008759026e-07,0.0,0.0,0.0,7.955933008759026e-07,0.0,23.46767250909178,3.5952706646638544,-0.00047662014696144375,0.0
11878,3.793103448275862,8.965517241379311,4.642857142857143,0,134142.46673614523,331042.22475099115,366895.4701089963,218469.38390607023,-21784.42805203345,8.942831115743016e-07,0.0,0.0,0.0,8.942831115743016e-07,0.0,24.950086005403758,3.897021919424099,-0.000727295627039104,0.0
11879,3.793103448275862,8.965517241379311,5.0,0,346940.83569025766,541143.7006191736,164549.34444410092,234522.9760910988,29532.833112691118,2.312938904601718e-06,0.0,0.0,0.0,2.312938904601718e-06,0.0,23.860032656357497,4.200113025990938,0.000984901023198536,0.0
11880,4.137931034482759,8.965517241379311,0.0,0,99094.05615962551,289900.8642809486,266520.40653727564,181207.29725552455,52949.64201869999,6.606270410641701e-07,0.0,0.0,0.0,6.606270410641701e-07,0.0,23.505161058934604,-0.049885295093204184,0.0017658365658052419,0.0
11881,4.137931034482759,8.965517241379311,0.35714285714285715,0,334663.23748970847,375905.3701754446,327611.86555831996,19719.03350089157,-18898.80102786508,2.23108824993139e-06,0.0,0.0,0.0,2.23108824993139e-06,0.0,24.344982587096123,0.25417359030395875,-0.0006309559888842424,0.0
11882,4.137931034482759,8.965517241379311,0.7142857142857143,0,354243.1293958573,409776.7036567184,336403.1448176375,24592.5277309257,11551.614800438678,2.3616208626390487e-06,0.0,0.0,0.0,2.3616208626390487e-06,0.0,24.624930154956427,0.5595922299958596,0.00038705583204938536,0.0
11883,4.137931034482759,8.965517241379311,1.0714285714285714,0,164979.24646470865,425013.2985331625,360824.1732050475,237586.9332455864,-52943.162219586855,1.0998616430980575e-06,0.0,0.0,0.0,1.0998616430980575e-06,0.0,22.821363724337136,0.868434106867573,-0.0017949472392294599,0.0
11884,4.137931034482759,8.965517241379311,1.4285714285714286,0,252081.04468042144,433491.61218562355,143147.54729604122,270428.3507523551,84674.40188503679,1.6805402978694764e-06,0.0,0.0,0.0,1.6805402978694764e-06,0.0,23.168902243261698,1.1831382672397874,0.002981191841024387,0.0
11885,4.137931034482759,8.965517241379311,1.7857142857142858,0,234281.63792223277,598085.8564067475,503287.0073784449,331260.43175882444,138195.33896979588,1.5618775861482185e-06,0.0,0.0,0.0,1.5618775861482185e-06,0.0,23.476404557689442,1.5035304761112318,0.005458370180426654,0.0
11886,4.137931034482759,8.965517241379311,2.142857142857143,0,731409.5643523342,1015011.0461035805,371339.21535410633,219651.23317900856,296765.0692118977,4.876063762348895e-06,0.0,0.0,0.0,4.876063762348895e-06,0.0,24.92565770173142,1.8237317164344309,0.015908119852126618,0.0
11887,4.137931034482759,8.965517241379311,2.5,0,713330.6679752407,1153748.8892852415,548046.0749272798,367489.0446714796,593368.3319931966,4.7555377865016045e-06,0.0,0.0,0.0,4.7555377865016045e-06,0.0,23.634116891444325,2.1344186127726217,0.059336833199319663,0.0
11888,4.137931034482759,8.965517241379311,2.857142857142857,0,549705.8294918146,882723.5129980722,804539.7810648925,298111.73261677055,463688.63652740966,3.6647055299454305e-06,0.0,0.0,0.0,3.6647055299454305e-06,0.0,24.63883368854328,2.430874573577288,0.024856073605752652,0.0
11889,4.137931034482759,8.965517241379311,3.2142857142857144,0,324202.31116468774,432057.846752126,459695.21314368886,122558.92982578467,77240.52225161338,2.1613487410979183e-06,0.0,0.0,0.0,2.1613487410979183e-06,0.0,23.993200906341375,2.717816190396946,0.003050807404372262,0.0
11890,4.137931034482759,8.965517241379311,3.5714285714285716,0,187439.04508597066,397583.65349282115,370762.1042401513,198178.66122920188,33269.941408534556,1.2495936339064711e-06,0.0,0.0,0.0,1.2495936339064711e-06,0.0,23.16272903238118,3.004566838668359,0.001171358470451858,0.0
11891,4.137931034482759,8.965517241379311,3.928571428571429,0,110006.24943803159,290894.4956188115,194074.36461155803,313693.78054914204,-36982.105629518286,7.333749962535439e-07,0.0,0.0,0.0,7.333749962535439e-07,0.0,24.332927445704843,3.2970055354390024,-0.0012538149520664222,0.0
11892,4.137931034482759,8.965517241379311,4.285714285714286,0,234278.63816755178,317477.05085872015,364427.18484601466,110228.81172449922,21140.944272577584,1.5618575877836785e-06,0.0,0.0,0.0,1.5618575877836785e-06,0.0,24.055824802392877,3.5953065157101456,0.0007083620703333583,0.0
11893,4.137931034482759,8.965517241379311,4.642857142857143,0,109850.0588014433,367622.05431021174,305912.10680126667,240793.4008174225,-5426.238214580576,7.323337253429554e-07,0.0,0.0,0.0,7.323337253429554e-07,0.0,23.470952795956144,3.897030733161102,-0.0001811605664059905,0.0
11894,4.137931034482759,8.965517241379311,5.0,0,281288.2220393337,391319.7594224612,320526.89998547954,81397.662146998,10911.671193578917,1.8752548135955581e-06,0.0,0.0,0.0,1.8752548135955581e-06,0.0,23.57644131860599,4.200114704906796,0.0003638972286320747,0.0
11895,4.482758620689656,8.965517241379311,0.0,0,390169.7856725561,472307.1272418751,168558.72613516243,32274.735289063563,-13844.76721107503,2.601131904483707e-06,0.0,0.0,0.0,2.601131904483707e-06,0.0,23.33259617253596,-0.04988415553420404,-0.00046171409766554607,0.0
11896,4.482758620689656,8.965517241379311,0.35714285714285715,0,110764.24348040661,310913.16073220095,325460.987031587,208141.68235522,-7349.3394361694845,7.384282898693775e-07,0.0,0.0,0.0,7.384282898693775e-07,0.0,23.549763502804492,0.2541795726009765,-0.00024536528665269056,0.0
11897,4.482758620689656,8.965517241379311,0.7142857142857143,0,245260.90610538973,403608.1020509565,222529.22777180996,124493.10172520427,3635.0477468335753,1.6350727073692649e-06,0.0,0.0,0.0,1.6350727073692649e-06,0.0,24.196095016476036,0.5596165637838144,0.00012179824678160865,0.0
11898,4.482758620689656,8.965517241379311,1.0714285714285714,0,162051.55325270636,382072.84156620904,208015.51133516227,235556.8647258735,-20836.46300483118,1.0803436883513757e-06,0.0,0.0,0.0,1.0803436883513757e-06,0.0,23.419754529987724,0.8685108009857277,-0.0007064245915403948,0.0
11899,4.482758620689656,8.965517241379311,1.4285714285714286,0,214335.6588607464,526856.4111113707,345223.5894265185,290448.4029002459,100166.50968045414,1.428904392404976e-06,0.0,0.0,0.0,1.428904392404976e-06,0.0,23.918530711657876,1.1833255617243443,0.003526633489642989,0.0
11900,4.482758620689656,8.965517241379311,1.7857142857142858,0,403530.01528344996,668432.6661841837,489462.0128519549,206370.36469402336,-84.88411628820904,2.6902001018896666e-06,0.0,0.0,0.0,2.6902001018896666e-06,0.0,24.037997905521113,1.5038848800256792,-3.352710247635011e-06,0.0
11901,4.482758620689656,8.965517241379311,2.142857142857143,0,205879.28438570828,708900.8941984648,471209.7556436076,593725.7102609018,379309.8914768912,1.3725285625713886e-06,0.0,0.0,0.0,1.3725285625713886e-06,0.0,23.85853696748805,1.824251332563262,0.020332942925985073,0.0
11902,4.482758620689656,8.965517241379311,2.5,0,802246.5891355728,684784.882589453,1161099.9021977086,234870.74543277864,634509.3359900888,5.348310594237152e-06,0.0,0.0,0.0,5.348310594237152e-06,0.0,23.08270928511176,2.1350089189491617,0.06345093359900889,0.0
11903,4.482758620689656,8.965517241379311,2.857142857142857,0,746745.6268799681,943289.6527039238,943838.2427782516,196818.47199245336,402492.6827758751,4.978304179199787e-06,0.0,0.0,0.0,4.978304179199787e-06,0.0,24.269714518785623,2.4313941897061193,0.02157565866564561,0.0
11904,4.482758620689656,8.965517241379311,3.2142857142857144,0,150650.224193849,536012.7017285287,492078.01938073273,368279.11681176117,-86738.59804866367,1.0043348279589932e-06,0.0,0.0,0.0,1.0043348279589932e-06,0.0,23.317302752842174,2.718170594311394,-0.0034259576380091753,0.0
11905,4.482758620689656,8.965517241379311,3.5714285714285716,0,294867.3658503366,336372.0230517445,328900.73183744313,37840.00993100047,-65323.185273886855,1.965782439002244e-06,0.0,0.0,0.0,1.965782439002244e-06,0.0,23.61721669857093,3.004754133152916,-0.0022998798058548723,0.0
11906,4.482758620689656,8.965517241379311,3.928571428571429,0,128509.94926938253,268765.1595161064,275776.1647880923,143904.22800739622,-19515.70778226634,8.567329951292169e-07,0.0,0.0,0.0,8.567329951292169e-07,0.0,23.679408776133513,3.297082229557157,-0.0006616466477785922,0.0
11907,4.482758620689656,8.965517241379311,4.285714285714286,0,195530.30097315388,360718.0199852715,136292.32619995886,227129.26199184702,32164.38468319992,1.303535339821026e-06,0.0,0.0,0.0,1.303535339821026e-06,0.0,23.898290629596964,3.5953308494981,0.00107772055171366,0.0
11908,4.482758620689656,8.965517241379311,4.642857142857143,0,212753.39142383373,453398.21227499295,251707.74205951343,231083.96370893504,-9197.701200556718,1.4183559428255582e-06,0.0,0.0,0.0,1.4183559428255582e-06,0.0,23.967066592382736,3.89703671545812,-0.0003070747529381565,0.0
11909,4.482758620689656,8.965517241379311,5.0,0,185986.35084382023,319818.8755481588,250733.86782450558,109175.92029262427,-10615.926762761563,1.2399090056254681e-06,0.0,0.0,0.0,1.2399090056254681e-06,0.0,24.266613027919128,4.200115844465796,-0.0003540343417425636,0.0
11910,4.827586206896552,8.965517241379311,0.0,0,173866.86708723952,370313.96866071847,193692.55090248847,199339.21945851974,522.8997111717367,1.1591124472482634e-06,0.0,0.0,0.0,1.1591124472482634e-06,0.0,23.710026865006306,-0.04988357939967609,1.7438369647710842e-05,0.0
11911,4.827586206896552,8.965517241379311,0.35714285714285715,0,231575.46271236864,324502.7711958945,211398.80394475104,58110.81431811606,-27860.72084085829,1.5438364180824575e-06,0.0,0.0,0.0,1.5438364180824575e-06,0.0,23.262270030783753,0.2541825971112195,-0.0009301589367099325,0.0
11912,4.827586206896552,8.965517241379311,0.7142857142857143,0,165626.03945309093,246634.46125657397,74357.38579354616,88576.23291569702,15626.406664736991,1.1041735963539396e-06,0.0,0.0,0.0,1.1041735963539396e-06,0.0,24.418929484900133,0.5596288663810778,0.0005235884279427452,0.0
11913,4.827586206896552,8.965517241379311,1.0714285714285714,0,234298.81631554232,392710.76947669906,164534.93235150134,152734.90136758614,6793.106640737013,1.5619921087702822e-06,0.0,0.0,0.0,1.5619921087702822e-06,0.0,23.679614897309,0.8685495757482053,0.00023030864609124518,0.0
11914,4.827586206896552,8.965517241379311,1.4285714285714286,0,146504.1255137041,310781.0127932969,351885.0929973357,189219.36694118267,24992.017503235555,9.766941700913605e-07,0.0,0.0,0.0,9.766941700913605e-07,0.0,23.792394402022627,1.183420253459862,0.00087991172081194,0.0
11915,4.827586206896552,8.965517241379311,1.7857142857142858,0,476283.54683126614,572443.9720623347,596334.0872000776,108555.06301974205,146458.618325472,3.1752236455417744e-06,0.0,0.0,0.0,3.1752236455417744e-06,0.0,23.389198799089055,1.5040640584025158,0.005784749043590886,0.0
11916,4.827586206896552,8.965517241379311,2.142857142857143,0,310430.6829589658,786797.6377552476,431802.26525582554,652322.3067451946,299066.50145311654,2.0695378863931053e-06,0.0,0.0,0.0,2.0695378863931053e-06,0.0,23.4615171835434,1.8245140383933798,0.01603148834701749,0.0
11917,4.827586206896552,8.965517241379311,2.5,0,1002140.8330682795,1171109.3592106225,731878.8148108621,24351.354766939967,584272.6936677651,6.6809388871218635e-06,0.0,0.0,0.0,6.6809388871218635e-06,0.0,24.62028757238592,2.135307364023375,0.058427269366776516,0.0
11918,4.827586206896552,8.965517241379311,2.857142857142857,0,386381.84325494233,665761.742844573,776647.4636744388,346946.4083136669,235286.27939486632,2.575878955032949e-06,0.0,0.0,0.0,2.575878955032949e-06,0.0,23.216262879744203,2.4316568955362365,0.012612543457740688,0.0
11919,4.827586206896552,8.965517241379311,3.2142857142857144,0,328770.2667931005,614536.1274158882,339682.750620359,250324.06851271028,-11360.070090033616,2.19180177862067e-06,0.0,0.0,0.0,2.19180177862067e-06,0.0,23.29491477565309,2.71834977268823,-0.0004486943502526423,0.0
11920,4.827586206896552,8.965517241379311,3.5714285714285716,0,311568.985767707,331065.30643560126,332342.2001105385,20136.7299069492,4706.476971644148,2.0771265717847133e-06,0.0,0.0,0.0,2.0771265717847133e-06,0.0,23.682140725008313,3.0048488248884335,0.00016570427939821287,0.0
11921,4.827586206896552,8.965517241379311,3.928571428571429,0,75369.02270394855,307392.3832143413,237360.57461718406,227631.1001397744,3743.345620007821,5.02460151359657e-07,0.0,0.0,0.0,5.02460151359657e-07,0.0,24.0770828699852,3.2971210043196346,0.0001269117220132523,0.0
11922,4.827586206896552,8.965517241379311,4.285714285714286,0,224624.00301649483,90714.44829047525,311757.9862089667,83717.03375395466,22915.929419626056,1.497493353443299e-06,0.0,0.0,0.0,1.497493353443299e-06,0.0,23.439026228629555,3.5953431520953636,0.0007678358638102718,0.0
11923,4.827586206896552,8.965517241379311,4.642857142857143,0,326983.4205586572,469891.95506511495,146925.27844443065,139034.61737859217,19060.228387961706,2.1798894703910482e-06,0.0,0.0,0.0,2.1798894703910482e-06,0.0,23.138404406078084,3.8970397399683625,0.0006363454080051996,0.0
11924,4.827586206896552,8.965517241379311,5.0,0,211271.46043666464,367683.2517382811,158679.04159594324,154215.279983438,8424.553574146206,1.4084764029110975e-06,0.0,0.0,0.0,1.4084764029110975e-06,0.0,23.32195108443991,4.200116420600324,0.00028095345284031924,0.0
11925,5.172413793103448,8.965517241379311,0.0,0,219078.0690947956,266266.38972564944,237762.07614438285,34331.370865560515,52995.75463318484,1.4605204606319706e-06,0.0,0.0,0.0,1.4605204606319706e-06,0.0,23.658004651788723,-0.04988357939967609,0.0017673743918924037,0.0
11926,5.172413793103448,8.965517241379311,0.35714285714285715,0,177327.85732898506,243837.21441516443,226273.79849129976,58381.19083066379,-9818.058645352537,1.182185715526567e-06,0.0,0.0,0.0,1.182185715526567e-06,0.0,23.37034218422345,0.2541825971112195,-0.00032778602686848297,0.0
11927,5.172413793103448,8.965517241379311,0.7142857142857143,0,63520.041009948894,284319.2200430152,217368.3290031308,224901.93087945864,-5980.628582489634,4.2346694006632595e-07,0.0,0.0,0.0,4.2346694006632595e-07,0.0,24.98705811118396,0.5596288663810778,-0.00020039078623760502,0.0
11928,5.172413793103448,8.965517241379311,1.0714285714285714,0,213657.4451945712,371774.12851282896,265055.3826862638,125780.81296747821,9418.369749862302,1.4243829679638079e-06,0.0,0.0,0.0,1.4243829679638079e-06,0.0,24.87122987322643,0.8685495757482053,0.00031931369551445576,0.0
11929,5.172413793103448,8.965517241379311,1.4285714285714286,0,269516.93010591087,234873.91239989296,194173.0628570248,-52678.60115188927,-39985.748624786036,1.7967795340394059e-06,0.0,0.0,0.0,1.7967795340394059e-06,0.0,24.467659718786226,1.183420253459862,-0.0014078066677023619,0.0
11930,5.172413793103448,8.965517241379311,1.7857142857142858,0,321286.9041872322,525956.3178534529,230647.9925495644,183828.45631943532,94254.58376869425,2.141912694581548e-06,0.0,0.0,0.0,2.141912694581548e-06,0.0,24.077814421894313,1.5040640584025158,0.003722820271992034,0.0
11931,5.172413793103448,8.965517241379311,2.142857142857143,0,702433.7344378895,1085963.281446059,481161.535989439,315508.68552368134,308199.50269697525,4.682891562919264e-06,0.0,0.0,0.0,4.682891562919264e-06,0.0,24.08351783492835,1.8245140383933798,0.016521063750156283,0.0
11932,5.172413793103448,8.965517241379311,2.5,0,269445.10101861286,729608.0713997423,587249.2409103299,418843.31645497103,552975.4286415026,1.796300673457419e-06,0.0,0.0,0.0,1.796300673457419e-06,0.0,24.560111521089855,2.135307364023375,0.05529754286415026,0.0
11933,5.172413793103448,8.965517241379311,2.857142857142857,0,713802.4021315104,814857.9871199883,515864.3051885541,180.00322211637155,346000.46606990724,4.758682680876736e-06,0.0,0.0,0.0,4.758682680876736e-06,0.0,23.969181699142485,2.4316568955362365,0.018547387998692006,0.0
11934,5.172413793103448,8.965517241379311,3.2142857142857144,0,490969.9040364197,779806.9646072404,516281.42557005485,213340.65889886484,77364.29838928873,3.2731326935761314e-06,0.0,0.0,0.0,3.2731326935761314e-06,0.0,23.496793984220314,2.71834977268823,0.003055696252172571,0.0
11935,5.172413793103448,8.965517241379311,3.5714285714285716,0,299528.9105689714,425637.5920258604,322727.4820321405,88219.77684431267,20281.461092988648,1.9968594037931427e-06,0.0,0.0,0.0,1.9968594037931427e-06,0.0,24.97488017203921,3.0048488248884335,0.0007140638137197871,0.0
11936,5.172413793103448,8.965517241379311,3.928571428571429,0,165263.26952677825,333343.71479708207,262285.4353158608,144435.99460092987,-12462.273569428491,1.1017551301785218e-06,0.0,0.0,0.0,1.1017551301785218e-06,0.0,24.20562213942533,3.2971210043196346,-0.00042251204121865343,0.0
11937,5.172413793103448,8.965517241379311,4.285714285714286,0,164989.74397599348,347584.4791013969,234936.390100991,158202.4711015171,49537.80988421525,1.0999316265066231e-06,0.0,0.0,0.0,1.0999316265066231e-06,0.0,24.649267517284503,3.5953431520953636,0.0016598457058930895,0.0
11938,5.172413793103448,8.965517241379311,4.642857142857143,0,122900.70490853286,289378.20622938644,192901.297732331,151007.97144728462,-45999.46158525204,8.193380327235524e-07,0.0,0.0,0.0,8.193380327235524e-07,0.0,24.833542493938214,3.8970397399683625,-0.0015357395281251926,0.0
11939,5.172413793103448,8.965517241379311,5.0,0,210096.12727214952,396295.2482793853,166457.19623301172,214136.0923604169,-21564.138704224588,1.4006408484809967e-06,0.0,0.0,0.0,1.4006408484809967e-06,0.0,23.04609397969036,4.200116420600324,-0.0007191501808561377,0.0
11940,5.517241379310345,8.965517241379311,0.0,0,126907.86982076158,275055.97194458084,137677.90496596685,250537.71451091897,-16515.942997620063,8.460524654717439e-07,0.0,0.0,0.0,8.460524654717439e-07,0.0,23.42541144668229,-0.04988415553420404,-0.0005507960951587295,0.0
11941,5.517241379310345,8.965517241379311,0.35714285714285715,0,123592.1877633933,181834.5647508152,167762.6086522065,51808.69315406936,-21547.427076067655,8.23947918422622e-07,0.0,0.0,0.0,8.23947918422622e-07,0.0,23.760469695430587,0.2541795726009765,-0.0007193831047083728,0.0
11942,5.517241379310345,8.965517241379311,0.7142857142857143,0,156733.38783091787,276470.2340929964,207385.9897301522,97063.0704192666,-52384.025118722384,1.044889252206119e-06,0.0,0.0,0.0,1.044889252206119e-06,0.0,24.117337466806077,0.5596165637838144,-0.001755212823375397,0.0
11943,5.517241379310345,8.965517241379311,1.0714285714285714,0,94473.72608561853,249271.82628019337,144931.29088735773,169532.11125611246,51002.62600761808,6.298248405707902e-07,0.0,0.0,0.0,6.298248405707902e-07,0.0,24.32987156771765,0.8685108009857277,0.0017291566825216565,0.0
11944,5.517241379310345,8.965517241379311,1.4285714285714286,0,179018.8086566126,338917.5239611408,263554.9233499468,134538.61517038548,27587.173475275114,1.1934587243774172e-06,0.0,0.0,0.0,1.1934587243774172e-06,0.0,23.84474899094348,1.1833255617243443,0.0009712812213669505,0.0
11945,5.517241379310345,8.965517241379311,1.7857142857142858,0,504764.4116833508,487768.2576464126,340092.12044962175,-74363.70829150028,21709.6422109679,3.3650960778890054e-06,0.0,0.0,0.0,3.3650960778890054e-06,0.0,24.527471744446853,1.5038848800256792,0.0008574765585833418,0.0
11946,5.517241379310345,8.965517241379311,2.142857142857143,0,595534.9400013783,944697.3909020356,472956.9049689891,275517.1547306648,340597.2179613614,3.970232933342522e-06,0.0,0.0,0.0,3.970232933342522e-06,0.0,24.19051299719158,1.824251332563262,0.01825774636826093,0.0
11947,5.517241379310345,8.965517241379311,2.5,0,383910.1907447838,1021489.875522944,836077.9492002716,580066.4798454182,503048.92395394424,2.5594012716318917e-06,0.0,0.0,0.0,2.5594012716318917e-06,0.0,24.189094570385482,2.1350089189491617,0.050304892395394415,0.0
11948,5.517241379310345,8.965517241379311,2.857142857142857,0,679372.1587512726,802300.0872191092,158436.95743890112,92261.92270901601,265281.60658524255,4.529147725008484e-06,0.0,0.0,0.0,4.529147725008484e-06,0.0,23.756883292160563,2.4313941897061193,0.014220445833904598,0.0
11949,5.517241379310345,8.965517241379311,3.2142857142857144,0,252529.0525848416,514121.0349335245,320616.90799702256,228456.1951813379,4798.618159061596,1.6835270172322773e-06,0.0,0.0,0.0,1.6835270172322773e-06,0.0,24.057898057333766,2.718170594311394,0.00018953341307987491,0.0
11950,5.517241379310345,8.965517241379311,3.5714285714285716,0,247386.9737757954,283063.57342721365,82421.07442499317,6653.552309188423,5133.191886727117,1.6492464918386359e-06,0.0,0.0,0.0,1.6492464918386359e-06,0.0,24.059199153808688,3.004754133152916,0.00018072793465846412,0.0
11951,5.517241379310345,8.965517241379311,3.928571428571429,0,55329.04402121446,174214.5667513992,231058.02284707892,177379.23169551723,-19341.484592270175,3.6886029347476307e-07,0.0,0.0,0.0,3.6886029347476307e-07,0.0,24.390878760688793,3.297082229557157,-0.0006557399089140656,0.0
11952,5.517241379310345,8.965517241379311,4.285714285714286,0,153254.20914439688,306732.3751564955,255683.1934556978,134468.7697045472,-29155.91672941743,1.0216947276293126e-06,0.0,0.0,0.0,1.0216947276293126e-06,0.0,23.255589910905098,3.5953308494981,-0.0009769168903068606,0.0
11953,5.517241379310345,8.965517241379311,4.642857142857143,0,242306.61056065446,346507.3955636537,128499.3438526542,85625.58804383913,28571.29447617387,1.6153774037376964e-06,0.0,0.0,0.0,1.6153774037376964e-06,0.0,24.270024506286223,3.89703671545812,0.0009538821713259574,0.0
11954,5.517241379310345,8.965517241379311,5.0,0,180714.2624548145,292453.48718116706,136129.4360260546,94584.57822830981,-24580.200516243127,1.2047617496987634e-06,0.0,0.0,0.0,1.2047617496987634e-06,0.0,23.10049124851853,4.200115844465796,-0.0008197339058699959,0.0
11955,5.862068965517242,8.965517241379311,0.0,0,199550.15387659328,254572.45277028915,102720.77646621464,28559.75571680113,40038.66441195919,1.3303343591772885e-06,0.0,0.0,0.0,1.3303343591772885e-06,0.0,23.413873798412407,-0.049885295093204184,0.0013352637519187221,0.0
11956,5.862068965517242,8.965517241379311,0.35714285714285715,0,127246.68367913243,311610.6821589253,203215.01918116832,171508.8129707245,-20376.310782494493,8.483112245275495e-07,0.0,0.0,0.0,8.483112245275495e-07,0.0,24.149108859638165,0.25417359030395875,-0.0006802841778494462,0.0
11957,5.862068965517242,8.965517241379311,0.7142857142857143,0,184190.15508801403,281265.7662782967,180727.70880344804,68685.03900766534,-42985.66384296831,1.227934367253427e-06,0.0,0.0,0.0,1.227934367253427e-06,0.0,23.4309255489771,0.5595922299958596,-0.0014403052882531583,0.0
11958,5.862068965517242,8.965517241379311,1.0714285714285714,0,228416.02086436911,394041.4600652213,189858.23521852662,147361.5126839148,15661.594684689833,1.5227734724291274e-06,0.0,0.0,0.0,1.5227734724291274e-06,0.0,23.868375516713286,0.868434106867573,0.0005309795441499823,0.0
11959,5.862068965517242,8.965517241379311,1.4285714285714286,0,310045.5967522239,426889.89826733305,214517.81544301833,71100.47968834039,-10995.499203956566,2.066970645014826e-06,0.0,0.0,0.0,2.066970645014826e-06,0.0,23.398839736845893,1.1831382672397874,-0.0003871263544244546,0.0
11960,5.862068965517242,8.965517241379311,1.7857142857142858,0,291738.533185216,584705.888016094,247873.06073234355,411918.36546597315,-25874.94699683525,1.9449235545681066e-06,0.0,0.0,0.0,1.9449235545681066e-06,0.0,24.163845585172847,1.5035304761112318,-0.0010219956777161219,0.0
11961,5.862068965517242,8.965517241379311,2.142857142857143,0,276740.349031861,836968.1751871125,673308.4704118596,517447.6697292948,292641.4129989679,1.8449356602124067e-06,0.0,0.0,0.0,1.8449356602124067e-06,0.0,23.892634148604348,1.8237317164344309,0.015687070867357412,0.0
11962,5.862068965517242,8.965517241379311,2.5,0,57645.743431969015,634524.0737487419,645215.3623453311,696767.0290285998,381765.6126917049,3.843049562131268e-07,0.0,0.0,0.0,3.843049562131268e-07,0.0,23.861304167324896,2.1344186127726217,0.03817656126917049,0.0
11963,5.862068965517242,8.965517241379311,2.857142857142857,0,422448.7100755945,823196.3148846236,336566.9369457071,609152.7557126466,129550.34867075033,2.8163247338372966e-06,0.0,0.0,0.0,2.8163247338372966e-06,0.0,24.42826826696276,2.430874573577288,0.006944558802058852,0.0
11964,5.862068965517242,8.965517241379311,3.2142857142857144,0,345376.6028959665,527488.07674234,274663.0668749728,133971.40932305902,84887.64034781855,2.30251068597311e-06,0.0,0.0,0.0,2.30251068597311e-06,0.0,24.091563876620054,2.717816190396946,0.0033528494391738134,0.0
11965,5.862068965517242,8.965517241379311,3.5714285714285716,0,271052.436261976,383993.3253295228,179991.36685441568,76427.6995515364,55296.561551924926,1.8070162417465068e-06,0.0,0.0,0.0,1.8070162417465068e-06,0.0,24.13474703143867,3.004566838668359,0.0019468653390562981,0.0
11966,5.862068965517242,8.965517241379311,3.928571428571429,0,75347.7079088991,323721.00989895756,289143.42794926424,237290.5512626424,-11442.567196299045,5.02318052725994e-07,0.0,0.0,0.0,5.02318052725994e-07,0.0,24.44705646328747,3.2970055354390024,-0.0003879406430901858,0.0
11967,5.862068965517242,8.965517241379311,4.285714285714286,0,180859.40199287314,311933.91747953143,240909.46633561217,106342.97838351422,34660.84327945986,1.2057293466191543e-06,0.0,0.0,0.0,1.2057293466191543e-06,0.0,24.50322810786327,3.5953065157101456,0.0011613684984159286,0.0
11968,5.862068965517242,8.965517241379311,4.642857142857143,0,263524.6971623789,439138.3114580713,192372.8621228355,161562.92880925146,22868.09132609621,1.7568313144158594e-06,0.0,0.0,0.0,1.7568313144158594e-06,0.0,23.42701124639975,3.897030733161102,0.0007634748445299738,0.0
11969,5.862068965517242,8.965517241379311,5.0,0,210627.51373520307,280722.64190227445,296880.58688343456,78639.43855533013,19020.67476561763,1.4041834249013539e-06,0.0,0.0,0.0,1.4041834249013539e-06,0.0,24.275298894808778,4.200114704906796,0.0006343272914962248,0.0
11970,6.206896551724139,8.965517241379311,0.0,0,226395.75039136404,324848.71282684215,270986.1122377997,76379.26460152377,-4643.278418790432,1.5093050026090936e-06,0.0,0.0,0.0,1.5093050026090936e-06,0.0,24.032389979690603,-0.049886974009061495,-0.00015485035411984068,0.0
11971,6.206896551724139,8.965517241379311,0.35714285714285715,0,83606.07306558316,247885.9049279254,178937.70482417825,154891.85331858846,-16314.007499300971,5.57373820437221e-07,0.0,0.0,0.0,5.57373820437221e-07,0.0,24.476400426247665,0.25416477656695613,-0.0005446599876473326,0.0
11972,6.206896551724139,8.965517241379311,0.7142857142857143,0,274097.024931682,317950.48786652344,169633.580119288,1654.1595626079559,9451.297062873764,1.8273134995445465e-06,0.0,0.0,0.0,1.8273134995445465e-06,0.0,23.181731052063224,0.5595563789495683,0.00031668123563794695,0.0
11973,6.206896551724139,8.965517241379311,1.0714285714285714,0,169406.74890789101,335981.74494051246,177493.12254076893,157441.59292686405,18510.07632213188,1.1293783260526068e-06,0.0,0.0,0.0,1.1293783260526068e-06,0.0,23.484576263127167,0.8683211131821946,0.000627552435469097,0.0
11974,6.206896551724139,8.965517241379311,1.4285714285714286,0,185951.98479805692,352653.1319531663,167454.42623185876,165956.9130463939,-37304.5956410515,1.2396798986537128e-06,0.0,0.0,0.0,1.2396798986537128e-06,0.0,23.73607191161824,1.182862325686897,-0.001313409409242836,0.0
11975,6.206896551724139,8.965517241379311,1.7857142857142858,0,437980.12414374406,628044.8443560482,492884.83336317295,138415.7685890153,34328.63419964338,2.919867494291627e-06,0.0,0.0,0.0,2.919867494291627e-06,0.0,24.54071265213648,1.5030083317099465,0.0013558951745185966,0.0
11976,6.206896551724139,8.965517241379311,2.142857142857143,0,265206.65630498365,574235.9512857834,347911.47342983336,282419.03542240494,249903.9973832663,1.7680443753665577e-06,0.0,0.0,0.0,1.7680443753665577e-06,0.0,23.700640646964686,1.822966164358321,0.013396127625316738,0.0
11977,6.206896551724139,8.965517241379311,2.5,0,371529.77822588745,740840.411223722,717122.7138666841,358020.002228454,450452.94218007853,2.476865188172583e-06,0.0,0.0,0.0,2.476865188172583e-06,0.0,23.828084215912465,2.1335489128269955,0.045045294218007854,0.0
11978,6.206896551724139,8.965517241379311,2.857142857142857,0,365339.7215038128,727244.1163702114,584674.905907335,312115.6115571788,216015.90313167428,2.435598143358752e-06,0.0,0.0,0.0,2.435598143358752e-06,0.0,23.51154501538331,2.430109021501178,0.011579553099392459,0.0
11979,6.206896551724139,8.965517241379311,3.2142857142857144,0,279736.3749427061,553797.2213199199,300886.66182875464,253331.52194526576,-13149.151698743779,1.8649091662847072e-06,0.0,0.0,0.0,1.8649091662847072e-06,0.0,24.25034488968737,2.717294045995661,-0.0005193585982376459,0.0
11980,6.206896551724139,8.965517241379311,3.5714285714285716,0,266986.3498222249,340491.6045353983,349078.1697228329,77902.11480181293,-5869.260490483989,1.7799089988148325e-06,0.0,0.0,0.0,1.7799089988148325e-06,0.0,24.201219324813895,3.0042908971154687,-0.00020664322507803513,0.0
11981,6.206896551724139,8.965517241379311,3.928571428571429,0,215407.39576372353,355579.4818924559,109795.09722601685,265745.9244420376,-7673.96066726183,1.4360493050914903e-06,0.0,0.0,0.0,1.4360493050914903e-06,0.0,23.595883806891955,3.296892541753624,-0.0002601724932206849,0.0
11982,6.206896551724139,8.965517241379311,4.285714285714286,0,122517.4902028711,238206.38906068687,187801.09315240447,98526.60359031722,-12975.257856159616,8.167832680191407e-07,0.0,0.0,0.0,8.167832680191407e-07,0.0,23.35006177997324,3.5952706646638544,-0.00043475733153606073,0.0
11983,6.206896551724139,8.965517241379311,4.642857142857143,0,94672.28559141306,211237.36833261524,164798.59221930063,102312.54454446446,17769.95868905983,6.311485706094204e-07,0.0,0.0,0.0,6.311485706094204e-07,0.0,24.26331341043022,3.897021919424099,0.0005932684216610572,0.0
11984,6.206896551724139,8.965517241379311,5.0,0,65248.34788159749,290471.80896626756,244092.92301834802,215861.59095973588,-37446.87550534881,4.349889858773166e-07,0.0,0.0,0.0,4.349889858773166e-07,0.0,24.1363637518099,4.200113025990938,-0.0012488292559022114,0.0
11985,6.551724137931035,8.965517241379311,0.0,0,229005.72007286001,261100.156938273,204388.27915599823,9067.124863914505,7435.8514703245655,1.5267048004857333e-06,0.0,0.0,0.0,1.5267048004857333e-06,0.0,23.451498868084325,-0.04988915924157275,0.0002479808724591292,0.0
11986,6.551724137931035,8.965517241379311,0.35714285714285715,0,173828.44570752096,294044.7041809052,94040.64236228206,208709.30134800734,-47577.97888477027,1.1588563047168064e-06,0.0,0.0,0.0,1.1588563047168064e-06,0.0,24.135198501838442,0.25415330483979365,-0.0015884399582858102,0.0
11987,6.551724137931035,8.965517241379311,0.7142857142857143,0,147412.6168516057,264634.6831301177,252228.45566087548,111411.01387000429,-1759.0503669734549,9.827507790107048e-07,0.0,0.0,0.0,9.827507790107048e-07,0.0,24.112493563528066,0.5595097161751492,-5.893987249123228e-05,0.0
11988,6.551724137931035,8.965517241379311,1.0714285714285714,0,159666.58940398745,255501.62263615508,218518.51111139165,80588.81873797278,-61660.37821835588,1.0644439293599163e-06,0.0,0.0,0.0,1.0644439293599163e-06,0.0,24.41253648549942,0.8681740435873838,-0.0020904895176800773,0.0
11989,6.551724137931035,8.965517241379311,1.4285714285714286,0,224929.06420960245,313810.04846529005,157030.9878307862,56093.08428436688,-24344.906649780143,1.499527094730683e-06,0.0,0.0,0.0,1.499527094730683e-06,0.0,24.225707281262785,1.182503167453947,-0.0008571284291250518,0.0
11990,6.551724137931035,8.965517241379311,1.7857142857142858,0,340627.6654340813,459000.4049228275,287540.6672165197,66711.60989342358,47070.59103096242,2.270851102893875e-06,0.0,0.0,0.0,2.270851102893875e-06,0.0,23.637566658516484,1.5023287223559145,0.0018591705941299382,0.0
11991,6.551724137931035,8.965517241379311,2.142857142857143,0,379377.11809922406,634909.8894670465,297522.7394525035,224236.08594704964,158665.87829461225,2.52918078732816e-06,0.0,0.0,0.0,2.52918078732816e-06,0.0,23.43082023759755,1.8219697420072585,0.008505299545720367,0.0
11992,6.551724137931035,8.965517241379311,2.5,0,348674.6963964588,763253.8123543438,529719.7240849175,362461.38886192517,346191.6690124875,2.3244979759763917e-06,0.0,0.0,0.0,2.3244979759763917e-06,0.0,24.824087454266408,2.1324169343612813,0.034619166901248756,0.0
11993,6.551724137931035,8.965517241379311,2.857142857142857,0,231236.09392546333,621574.5309523395,493607.4046144354,354641.6094042099,321409.486900038,1.541573959503089e-06,0.0,0.0,0.0,1.541573959503089e-06,0.0,23.56428865543128,2.4291125991501157,0.017229186213844797,0.0
11994,6.551724137931035,8.965517241379311,3.2142857142857144,0,295370.315502584,534558.0505114802,288912.6848521845,206827.12229458793,-24744.65848094321,1.9691354366838933e-06,0.0,0.0,0.0,1.9691354366838933e-06,0.0,22.908725560539132,2.716614436641629,-0.0009773521088633963,0.0
11995,6.551724137931035,8.965517241379311,3.5714285714285716,0,205248.40992431843,330947.2736418004,194307.1579351439,94925.042692192,218.70728062054195,1.3683227328287895e-06,0.0,0.0,0.0,1.3683227328287895e-06,0.0,23.226661163766174,3.003931738882519,7.700182653121405e-06,0.0
11996,6.551724137931035,8.965517241379311,3.928571428571429,0,263764.26124776254,397879.8081539727,103476.38324147472,183101.8198205988,40640.55881019481,1.758428408318417e-06,0.0,0.0,0.0,1.758428408318417e-06,0.0,22.821752898180378,3.296745472158813,0.0013778485413195427,0.0
11997,6.551724137931035,8.965517241379311,4.285714285714286,0,61702.17414959048,274645.4657185034,204212.614343098,248733.25306221447,3793.4635377966047,4.1134782766393655e-07,0.0,0.0,0.0,4.1134782766393655e-07,0.0,24.450804077089337,3.5952240018894353,0.0001271062281193025,0.0
11998,6.551724137931035,8.965517241379311,4.642857142857143,0,134475.0118257232,236023.62695493884,83581.48519644236,185387.197319809,767.7480908003198,8.965000788381546e-07,0.0,0.0,0.0,8.965000788381546e-07,0.0,24.755635564273295,3.8970104476969367,2.5632062855768758e-05,0.0
11999,6.551724137931035,8.965517241379311,5.0,0,283323.82240728324,406842.9592254451,187284.00958900602,87021.1337505509,-18922.804949165627,1.8888254827152216e-06,0.0,0.0,0.0,1.8888254827152216e-06,0.0,23.97455782288606,4.200110840758428,-0.0006310633959533888,0.0
12000,6.8965517241379315,8.965517241379311,0.0,0,176240.90421582278,281939.4553320868,88579.2714752329,130307.24066992411,-18491.590021511398,1.1749393614388185e-06,0.0,0.0,0.0,1.1749393614388185e-06,0.0,22.94223687475601,-0.049891811683883444,-0.0006166826549711556,0.0
12001,6.8965517241379315,8.965517241379311,0.35714285714285715,0,159040.98859733585,312025.01075520547,184945.45039604302,133671.79469719838,-4369.650797304223,1.0602732573155724e-06,0.0,0.0,0.0,1.0602732573155724e-06,0.0,24.349672432062142,0.25413938042015144,-0.0001458853043548529,0.0
12002,6.8965517241379315,8.965517241379311,0.7142857142857143,0,106891.90798641538,292222.04354734876,182576.9388470582,188314.42977905885,-52162.468365973546,7.126127199094358e-07,0.0,0.0,0.0,7.126127199094358e-07,0.0,23.986433309334632,0.5594530767481931,-0.001747789200378714,0.0
12003,6.8965517241379315,8.965517241379311,1.0714285714285714,0,185222.24152159807,302728.2160499049,210145.89025984416,89468.00372426149,27433.68230237764,1.2348149434773206e-06,0.0,0.0,0.0,1.2348149434773206e-06,0.0,24.373786492336926,0.8679955300361334,0.0009300920127572822,0.0
12004,6.8965517241379315,8.965517241379311,1.4285714285714286,0,252989.84402675834,346336.6272498524,272925.1698610292,64759.64743820519,10425.473831892712,1.6865989601783889e-06,0.0,0.0,0.0,1.6865989601783889e-06,0.0,24.058022478365068,1.1820672200257434,0.0003670570660617109,0.0
12005,6.8965517241379315,8.965517241379311,1.7857142857142858,0,109847.84254805204,349342.3772567387,407567.93640473,280864.7540808253,-31118.03841218642,7.323189503203469e-07,0.0,0.0,0.0,7.323189503203469e-07,0.0,23.075377932444948,1.5015038103174514,-0.0012290846725270014,0.0
12006,6.8965517241379315,8.965517241379311,2.142857142857143,0,431588.2929409269,712727.5471498399,250958.06476845502,319530.8733738191,318527.0368691584,2.877255286272846e-06,0.0,0.0,0.0,2.877255286272846e-06,0.0,24.103224420109562,1.8207602813253114,0.017074672204899027,0.0
12007,6.8965517241379315,8.965517241379311,2.5,0,417915.6266050683,574194.8966324466,537737.6700427252,139245.0048638965,503807.20513194485,2.786104177367122e-06,0.0,0.0,0.0,2.786104177367122e-06,0.0,22.999727756842745,2.1310429352276485,0.050380720513194484,0.0
12008,6.8965517241379315,8.965517241379311,2.857142857142857,0,336373.56373982126,640772.4128854757,731770.4933380366,359259.7004200684,279558.9173993147,2.2424904249321417e-06,0.0,0.0,0.0,2.2424904249321417e-06,0.0,23.396079436013665,2.4279031384681686,0.014985782442419496,0.0
12009,6.8965517241379315,8.965517241379311,3.2142857142857144,0,51781.16725416499,383082.4408182935,324354.18806297646,343995.4790293721,147413.05061810248,3.4520778169443324e-07,0.0,0.0,0.0,3.4520778169443324e-07,0.0,24.303248696218475,2.715789524603166,0.00582244673154597,0.0
12010,6.8965517241379315,8.965517241379311,3.5714285714285716,0,223393.58768218628,335188.60419125226,166963.4474658465,81724.56436141841,6945.811393535069,1.4892905845479086e-06,0.0,0.0,0.0,1.4892905845479086e-06,0.0,24.283381931851117,3.003495791454315,0.00024454611777258,0.0
12011,6.8965517241379315,8.965517241379311,3.928571428571429,0,197285.0069214849,287175.41449377994,184139.95116773428,59705.57591270776,41362.46254199868,1.315233379476566e-06,0.0,0.0,0.0,1.315233379476566e-06,0.0,23.324234757873267,3.2965669586075625,0.0014023234509408537,0.0
12012,6.8965517241379315,8.965517241379311,4.285714285714286,0,159712.10156349294,286423.84769947245,162847.7712290112,106083.41438530418,670.2125253221475,1.0647473437566196e-06,0.0,0.0,0.0,1.0647473437566196e-06,0.0,23.231046938179226,3.595167362462479,2.245657175381509e-05,0.0
12013,6.8965517241379315,8.965517241379311,4.642857142857143,0,145979.80888635098,275414.75823473773,121033.06597174938,139616.53694441624,11783.449262345011,9.731987259090065e-07,0.0,0.0,0.0,9.731987259090065e-07,0.0,23.818842341068713,3.8969965232772945,0.00039340262225249096,0.0
12014,6.8965517241379315,8.965517241379311,5.0,0,127914.83351649511,228794.74568365343,227541.1654160563,100257.72907856297,-14408.929014351921,8.527655567766341e-07,0.0,0.0,0.0,8.527655567766341e-07,0.0,24.81197151405823,4.200108188316117,-0.0004805285315932604,0.0
12015,7.241379310344828,8.965517241379311,0.0,0,72594.72557738159,246186.52334345394,212178.3702881844,162830.5189916605,-48970.386333237824,4.839648371825439e-07,0.0,0.0,0.0,4.839648371825439e-07,0.0,23.978966216128857,-0.04989488906761649,-0.0016331309435161261,0.0
12016,7.241379310344828,8.965517241379311,0.35714285714285715,0,192676.44975225368,307620.0333585408,112517.53655169808,117464.91843792328,-47454.05749642577,1.2845096650150246e-06,0.0,0.0,0.0,1.2845096650150246e-06,0.0,24.879629900675383,0.2541232252026275,-0.0015843027147637726,0.0
12017,7.241379310344828,8.965517241379311,0.7142857142857143,0,150072.1881948685,316288.52540935896,177576.40228898544,156983.19012128277,-2197.2737806986306,1.0004812546324566e-06,0.0,0.0,0.0,1.0004812546324566e-06,0.0,23.62572862331536,0.5593873632544591,-7.36232679258237e-05,0.0
12018,7.241379310344828,8.965517241379311,1.0714285714285714,0,121327.26159393502,206927.27200217705,157538.15316692754,68694.87478854993,-6198.543549730044,8.088484106262335e-07,0.0,0.0,0.0,8.088484106262335e-07,0.0,24.154383878787534,0.8677884172568919,-0.00021015100279966504,0.0
12019,7.241379310344828,8.965517241379311,1.4285714285714286,0,146411.80559183276,216497.63235750914,118475.68523132439,48196.29779297535,-32897.41659606098,9.760787039455518e-07,0.0,0.0,0.0,9.760787039455518e-07,0.0,23.559499769511916,1.1815614305054185,-0.0011582427246443685,0.0
12020,7.241379310344828,8.965517241379311,1.7857142857142858,0,217114.25181161205,382008.743498482,186411.55599535524,148398.13437137794,34695.50773697463,1.447428345410747e-06,0.0,0.0,0.0,1.447428345410747e-06,0.0,23.32215272011191,1.5005467410993498,0.0013703857614738792,0.0
12021,7.241379310344828,8.965517241379311,2.142857142857143,0,635859.7488235409,800701.5499810134,295903.723326169,86564.63104072653,279589.9369406118,4.239064992156939e-06,0.0,0.0,0.0,4.239064992156939e-06,0.0,23.251175615734216,1.8193570558476564,0.01498744524789058,0.0
12022,7.241379310344828,8.965517241379311,2.5,0,531239.5634230739,968565.3610259334,536355.258145439,375483.7931128926,550208.3103572713,3.541597089487159e-06,0.0,0.0,0.0,3.541597089487159e-06,0.0,23.908443649683583,2.1294488109875074,0.055020831035727136,0.0
12023,7.241379310344828,8.965517241379311,2.857142857142857,0,488171.9617642376,539781.2183787774,402926.072396908,-2212.4703937398126,203941.29495316316,3.2544797450949173e-06,0.0,0.0,0.0,3.2544797450949173e-06,0.0,24.383808721880268,2.4264999129905136,0.010932292575836468,0.0
12024,7.241379310344828,8.965517241379311,3.2142857142857144,0,301701.0044201535,474464.332753239,227144.22843410706,138323.52718807696,64647.64485260872,2.01134002946769e-06,0.0,0.0,0.0,2.01134002946769e-06,0.0,23.577833780892238,2.7148324553850642,0.002553420249400856,0.0
12025,7.241379310344828,8.965517241379311,3.5714285714285716,0,286149.8734096599,426522.7257875004,193971.15248553868,106969.85147425707,58193.17383354611,1.907665822731066e-06,0.0,0.0,0.0,1.907665822731066e-06,0.0,24.45656103914318,3.00299000193399,0.0020488484261326546,0.0
12026,7.241379310344828,8.965517241379311,3.928571428571429,0,215226.50674025132,290815.6119184468,228103.1270636594,51197.97751905314,20310.59285989527,1.4348433782683422e-06,0.0,0.0,0.0,1.4348433782683422e-06,0.0,24.666014224850347,3.296359845828321,0.0006885958649348521,0.0
12027,7.241379310344828,8.965517241379311,4.285714285714286,0,213680.6181577258,334722.44204412465,201031.23498660457,88281.73155836732,-20050.636734954034,1.4245374543848388e-06,0.0,0.0,0.0,1.4245374543848388e-06,0.0,24.189197351770986,3.595101648968745,-0.000671829525017826,0.0
12028,7.241379310344828,8.965517241379311,4.642857142857143,0,181613.57913246306,311690.0317709005,233914.25084685246,104140.68142089764,2634.316205407687,1.2107571942164204e-06,0.0,0.0,0.0,1.2107571942164204e-06,0.0,23.923499123244618,3.8969803680597708,8.79493669448171e-05,0.0
12029,7.241379310344828,8.965517241379311,5.0,0,42564.173988942726,212461.4271010652,169961.14673063628,169833.64594012123,4799.402957450196,2.8376115992628486e-07,0.0,0.0,0.0,2.8376115992628486e-07,0.0,23.42961090891875,4.200105110932384,0.00016005700724674041,0.0
12030,7.586206896551724,8.965517241379311,0.0,0,211221.5488124328,253674.96036934273,269103.11728349817,50590.50547431888,16809.477618310706,1.408143658749552e-06,0.0,0.0,0.0,1.408143658749552e-06,0.0,24.298751872177252,-0.04989834847740244,0.0005605852862992901,0.0
12031,7.586206896551724,8.965517241379311,0.35714285714285715,0,122573.06492290724,265579.8398411495,202983.5702247236,124347.92261289964,1030.292505807211,8.171537661527149e-07,0.0,0.0,0.0,8.171537661527149e-07,0.0,23.08163305709107,0.2541050644783095,3.4397379277295276e-05,0.0
12032,7.586206896551724,8.965517241379311,0.7142857142857143,0,124566.96712196831,270099.07628453133,159339.60983085036,135244.91483617123,12800.002299584134,8.304464474797887e-07,0.0,0.0,0.0,8.304464474797887e-07,0.0,23.960441450051217,0.5593134920953795,0.00042888510618545214,0.0
12033,7.586206896551724,8.965517241379311,1.0714285714285714,0,186910.6720166577,322551.85967947653,195883.8491022053,107883.75170405114,27970.79959166426,1.246071146777718e-06,0.0,0.0,0.0,1.246071146777718e-06,0.0,23.016999237324065,0.8675555935217135,0.0009483020545290363,0.0
12034,7.586206896551724,8.965517241379311,1.4285714285714286,0,227511.97209523097,342676.5790932881,142674.54341705618,95159.16643519423,-29337.99978865299,1.516746480634873e-06,0.0,0.0,0.0,1.516746480634873e-06,0.0,23.13757622843166,1.1809928523338182,-0.001032923807606645,0.0
12035,7.586206896551724,8.965517241379311,1.7857142857142858,0,183384.21566578044,187305.07237218812,289862.3886831381,78142.87473128161,-12126.89702146285,1.2225614377718697e-06,0.0,0.0,0.0,1.2225614377718697e-06,0.0,23.640326890061612,1.4994708614216261,-0.000478982095753062,0.0
12036,7.586206896551724,8.965517241379311,2.142857142857143,0,30756.83673628603,495797.53544976993,528447.8248957777,524224.41374038666,294509.84874553414,2.0504557824190687e-07,0.0,0.0,0.0,2.0504557824190687e-07,0.0,24.027738645100026,1.8177796341250487,0.015787228543836344,0.0
12037,7.586206896551724,8.965517241379311,2.5,0,282863.8019155081,444999.76814140746,650529.6033580682,327923.7306004412,444326.19942211796,1.8857586794367208e-06,0.0,0.0,0.0,1.8857586794367208e-06,0.0,24.182886659949506,2.1276567923526004,0.044432619942211794,0.0
12038,7.586206896551724,8.965517241379311,2.857142857142857,0,409084.83553397213,695910.5440006475,415478.0558272282,226500.40971166542,311606.1535032036,2.7272322368931475e-06,0.0,0.0,0.0,2.7272322368931475e-06,0.0,23.687231909100834,2.424922491267906,0.016703677591683324,0.0
12039,7.586206896551724,8.965517241379311,3.2142857142857144,0,166123.9103261665,475613.124974501,565771.7955472701,374061.2419870494,97157.68877989675,1.1074927355077766e-06,0.0,0.0,0.0,1.1074927355077766e-06,0.0,23.48118263869566,2.713756575707341,0.0038374856575392135,0.0
12040,7.586206896551724,8.965517241379311,3.5714285714285716,0,170093.66726122797,334727.8562108982,210838.0348698554,140796.8107820746,-54635.67117637809,1.1339577817415199e-06,0.0,0.0,0.0,1.1339577817415199e-06,0.0,23.2996416793202,3.00242142376239,-0.0019235969019427205,0.0
12041,7.586206896551724,8.965517241379311,3.928571428571429,0,136771.633332569,220314.86291668183,99311.9878786403,247706.58701365246,-22642.420846553803,9.118108888837933e-07,0.0,0.0,0.0,9.118108888837933e-07,0.0,24.0494297225592,3.2961270220931427,-0.0007676524990975589,0.0
12042,7.586206896551724,8.965517241379311,4.285714285714286,0,247894.4387352223,300262.7357045694,249415.33029511792,30887.07301961306,-3307.448786765021,1.6526295915681486e-06,0.0,0.0,0.0,1.6526295915681486e-06,0.0,24.03487207152296,3.5950277778096655,-0.00011082150541181917,0.0
12043,7.586206896551724,8.965517241379311,4.642857142857143,0,181638.03818395745,301528.91960228,216648.143671482,92989.71368998522,-26999.97055015949,1.2109202545597163e-06,0.0,0.0,0.0,1.2109202545597163e-06,0.0,23.797646584810227,3.8969622073354526,-0.000901421899368278,0.0
12044,7.586206896551724,8.965517241379311,5.0,0,163928.76861460428,197499.2189440769,196805.0639951551,33224.47513113415,-12471.81306960186,1.0928584574306952e-06,0.0,0.0,0.0,1.0928584574306952e-06,0.0,23.864456984210303,4.200101651522598,-0.0004159269585318981,0.0
12045,7.931034482758621,8.965517241379311,0.0,0,80238.19384086192,192700.57000918387,165497.39574133622,102397.23430876018,-34862.01911303007,5.349212922724128e-07,0.0,0.0,0.0,5.349212922724128e-07,0.0,24.39191555829687,-0.04990214827301091,-0.0011626259547864106,0.0
12046,7.931034482758621,8.965517241379311,0.35714285714285715,0,149771.60060086937,272687.7792314619,212339.19547625657,102156.5542311878,-11960.214471775536,9.98477337339129e-07,0.0,0.0,0.0,9.98477337339129e-07,0.0,24.104156696260624,0.25408511684423896,-0.0003993041113126764,0.0
12047,7.931034482758621,8.965517241379311,0.7142857142857143,0,254148.036453872,371599.5161550934,280077.28804751014,84365.86586782809,-26423.47757542202,1.6943202430258132e-06,0.0,0.0,0.0,1.6943202430258132e-06,0.0,22.892929386543756,0.5592323524434646,-0.0008853620273249467,0.0
12048,7.931034482758621,8.965517241379311,1.0714285714285714,0,229966.37169356167,377655.37056430784,208656.00552678536,115774.90252302436,9893.625215202395,1.5331091446237444e-06,0.0,0.0,0.0,1.5331091446237444e-06,0.0,24.049088072096005,0.8672998612837834,0.00033542641809613253,0.0
12049,7.931034482758621,8.965517241379311,1.4285714285714286,0,247109.40074397452,364438.0217784996,132975.58400731496,104201.0560805,33674.16716679607,1.6473960049598302e-06,0.0,0.0,0.0,1.6473960049598302e-06,0.0,24.300675214328734,1.180368329373777,0.0011855903339859785,0.0
12050,7.931034482758621,8.965517241379311,1.7857142857142858,0,344135.6691812631,400682.74816191616,4377.095918043178,177316.2094512997,68599.85947671362,2.294237794541754e-06,0.0,0.0,0.0,2.294237794541754e-06,0.0,23.20497105436939,1.4982891214348637,0.002709522840209475,0.0
12051,7.931034482758621,8.965517241379311,2.142857142857143,0,560739.0615879175,818436.7867316309,540063.0912993881,172979.8930330853,442759.8218331253,3.7382604105861168e-06,0.0,0.0,0.0,3.7382604105861168e-06,0.0,24.09366284457887,1.8160470032703258,0.023734182497059202,0.0
12052,7.931034482758621,8.965517241379311,2.5,0,288438.578158824,743907.7909001621,411262.75021226675,563188.359443223,548729.294475312,1.92292385439216e-06,0.0,0.0,0.0,1.92292385439216e-06,0.0,25.127114833463107,2.125688449496293,0.0548729294475312,0.0
12053,7.931034482758621,8.965517241379311,2.857142857142857,0,418838.6497175658,588435.6251963867,472735.6171229437,123908.9122174298,324836.4662603427,2.792257664783772e-06,0.0,0.0,0.0,2.792257664783772e-06,0.0,23.870167825353168,2.4231898604131827,0.017412889769452832,0.0
12054,7.931034482758621,8.965517241379311,3.2142857142857144,0,54335.7984980772,268000.5449013889,252507.10366550626,207600.77159486798,45570.09779825046,3.62238656653848e-07,0.0,0.0,0.0,3.62238656653848e-07,0.0,23.515861167977157,2.7125748357205786,0.001799904865065392,0.0
12055,7.931034482758621,8.965517241379311,3.5714285714285716,0,244648.1891569592,334238.16682163544,171566.95555747123,52886.82624060852,-5933.486255690402,1.6309879277130614e-06,0.0,0.0,0.0,1.6309879277130614e-06,0.0,23.588054602030905,3.001796900802349,-0.00020890446723569294,0.0
12056,7.931034482758621,8.965517241379311,3.928571428571429,0,156472.1962431623,246338.42360566446,154152.77128187843,65672.56029892869,36062.303315948484,1.0431479749544153e-06,0.0,0.0,0.0,1.0431479749544153e-06,0.0,23.708770486586225,3.2958712898552127,0.001222630629971506,0.0
12057,7.931034482758621,8.965517241379311,4.285714285714286,0,182286.3903376742,278841.5450990829,154571.3491746423,69580.59316817777,-6918.208101210699,1.2152426022511613e-06,0.0,0.0,0.0,1.2152426022511613e-06,0.0,22.859327287494036,3.5949466381577504,-0.000231805928362779,0.0
12058,7.931034482758621,8.965517241379311,4.642857142857143,0,115527.21796390018,147290.3096833603,233221.60144835492,101890.81587730155,952.3200385252368,7.701814530926678e-07,0.0,0.0,0.0,7.701814530926678e-07,0.0,22.84093579547105,3.8969422597013823,3.179418793583906e-05,0.0
12059,7.931034482758621,8.965517241379311,5.0,0,143084.96398544862,281901.33437888266,222128.4568705948,118621.83263231194,-4694.435159857096,9.538997599029909e-07,0.0,0.0,0.0,9.538997599029909e-07,0.0,23.792616940826644,4.200097851726989,-0.00015655639859000052,0.0
12060,8.275862068965518,8.965517241379311,0.0,0,89277.93982888985,147416.16900091115,131528.0044779479,51260.83342581133,15492.855706401451,5.951862655259324e-07,0.0,0.0,0.0,5.951862655259324e-07,0.0,23.506021731887373,-0.049906249384656744,0.0005166767908543411,0.0
12061,8.275862068965518,8.965517241379311,0.35714285714285715,0,237919.21528559242,349428.112115288,139374.58565319137,91059.60630336242,25585.450795849523,1.5861281019039495e-06,0.0,0.0,0.0,1.5861281019039495e-06,0.0,23.866653470327428,0.25406358740349455,0.0008541966966127695,0.0
12062,8.275862068965518,8.965517241379311,0.7142857142857143,0,227803.8151469364,317950.5524333303,223359.8780174917,58089.857204243315,30646.015215672356,1.518692100979576e-06,0.0,0.0,0.0,1.518692100979576e-06,0.0,23.398628759071748,0.5591447785827378,0.0010268450881732772,0.0
12063,8.275862068965518,8.965517241379311,1.0714285714285714,0,218017.60704307808,280080.4058568409,270064.8542086557,57227.63118109483,-8819.540942548028,1.4534507136205206e-06,0.0,0.0,0.0,1.4534507136205206e-06,0.0,23.585890475621685,0.8670238500012687,-0.0002990114304173746,0.0
12064,8.275862068965518,8.965517241379311,1.4285714285714286,0,145611.56844340893,383486.95436549146,312784.8544243425,216023.68443596162,10611.730955842446,9.707437896227261e-07,0.0,0.0,0.0,9.707437896227261e-07,0.0,24.024635677841538,1.179694283017494,0.0003736147529882215,0.0
12065,8.275862068965518,8.965517241379311,1.7857142857142858,0,292521.65550343785,397179.5036796568,246596.6534525298,60043.61547478032,68373.66122192798,1.950144370022919e-06,0.0,0.0,0.0,1.950144370022919e-06,0.0,22.416099411677575,1.497013671878776,0.002700588575002047,0.0
12066,8.275862068965518,8.965517241379311,2.142857142857143,0,402780.1386409312,742154.7339092981,656844.8493060736,303553.44704147294,383033.8699556774,2.6852009242728747e-06,0.0,0.0,0.0,2.6852009242728747e-06,0.0,23.10062467751241,1.8141769783246733,0.02053256714767867,0.0
12067,8.275862068965518,8.965517241379311,2.5,0,607045.5598087186,997599.0421637509,296748.71709216473,636641.6401334525,342919.6640356853,4.046970398724791e-06,0.0,0.0,0.0,4.046970398724791e-06,0.0,23.301782794281166,2.1235640210683577,0.03429196640356853,0.0
12068,8.275862068965518,8.965517241379311,2.857142857142857,0,197263.5489116312,278830.3529371519,482411.0381081445,469102.8191307162,276755.20419344195,1.3150903260775414e-06,0.0,0.0,0.0,1.3150903260775414e-06,0.0,23.48896578141165,2.4213198354675303,0.014835489128491208,0.0
12069,8.275862068965518,8.965517241379311,3.2142857142857144,0,188471.66789348688,449602.8239411633,393733.0739183913,239512.80112207044,20259.21750627233,1.2564777859565792e-06,0.0,0.0,0.0,1.2564777859565792e-06,0.0,22.86439674230083,2.7112993861644905,0.0008001884111242238,0.0
12070,8.275862068965518,8.965517241379311,3.5714285714285716,0,228251.00558694365,343132.6925204963,97975.40606334245,136756.9716330014,-14023.131495471385,1.5216733705796244e-06,0.0,0.0,0.0,1.5216733705796244e-06,0.0,23.123459279507806,3.0011228544460655,-0.0004937223560984973,0.0
12071,8.275862068965518,8.965517241379311,3.928571428571429,0,151553.50773169898,284966.8511178399,331781.06644838897,162343.86723339008,-25036.399379001243,1.0103567182113265e-06,0.0,0.0,0.0,1.0103567182113265e-06,0.0,23.93211033134124,3.295595278572698,-0.0008488162410699147,0.0
12072,8.275862068965518,8.965517241379311,4.285714285714286,0,205222.1005043689,371799.9876701383,277921.15686159243,136429.72452606296,15525.32415987306,1.3681473366957925e-06,0.0,0.0,0.0,1.3681473366957925e-06,0.0,23.819696853782904,3.5948590642970237,0.0005202014925487206,0.0
12073,8.275862068965518,8.965517241379311,4.642857142857143,0,36385.91501110212,222475.55921121515,238024.63702211346,196447.66557671063,-70332.15571772063,2.425727667406808e-07,0.0,0.0,0.0,2.425727667406808e-07,0.0,22.19564961544891,3.896920730260638,-0.002348111649823956,0.0
12074,8.275862068965518,8.965517241379311,5.0,0,129339.86980678284,251281.5785404471,145470.39935285793,107097.30747702098,-3972.6641904981134,8.622657987118856e-07,0.0,0.0,0.0,8.622657987118856e-07,0.0,23.484080209840695,4.200093750615343,-0.00013248580016403448,0.0
12075,8.620689655172415,8.965517241379311,0.0,0,24294.467935949706,189274.78234708207,210617.33273875798,184179.23067842476,-55894.54778133551,1.6196311957299803e-07,0.0,0.0,0.0,1.6196311957299803e-07,0.0,23.39464370888668,-0.04991061605601807,-0.001864047282256844,0.0
12076,8.620689655172415,8.965517241379311,0.35714285714285715,0,257364.97006893446,399618.8944044078,263357.5227345447,102771.44757114214,-21253.917657656195,1.7157664671262297e-06,0.0,0.0,0.0,1.7157664671262297e-06,0.0,23.01395718015581,0.25404066386460006,-0.0007095839896709908,0.0
12077,8.620689655172415,8.965517241379311,0.7142857142857143,0,128327.92546249225,292727.0455613911,146393.29632406347,239756.25544238096,-6576.712297225523,8.555195030832817e-07,0.0,0.0,0.0,8.555195030832817e-07,0.0,23.404231189201756,0.559051534042559,-0.0002203635504064229,0.0
12078,8.620689655172415,8.965517241379311,1.0714285714285714,0,149824.39411945324,289396.1077210732,210597.09504433363,116615.99644278146,-12664.045638763018,9.988292941296882e-07,0.0,0.0,0.0,9.988292941296882e-07,0.0,23.67629057338203,0.866729966131029,-0.0004293527776541442,0.0
12079,8.620689655172415,8.965517241379311,1.4285714285714286,0,318717.2950828787,364761.64934178983,325160.8400713593,28094.48072872849,29742.914284484566,2.1247819672191917e-06,0.0,0.0,0.0,2.1247819672191917e-06,0.0,23.84222919790734,1.1789765900663196,0.001047179920013846,0.0
12080,8.620689655172415,8.965517241379311,1.7857142857142858,0,379697.22616359906,595251.3381018423,211793.83634186262,219429.56232865434,121613.34716651351,2.5313148410906602e-06,0.0,0.0,0.0,2.5313148410906602e-06,0.0,23.540062349485325,1.495655633002889,0.00480342298563814,0.0
12081,8.620689655172415,8.965517241379311,2.142857142857143,0,351734.4607645264,836722.035495205,599673.8884397924,432587.6279939031,448279.2897982531,2.3448964050968427e-06,0.0,0.0,0.0,2.3448964050968427e-06,0.0,23.817607298505813,1.8121858634562307,0.024030054103991928,0.0
12082,8.620689655172415,8.965517241379311,2.5,0,961460.1473139218,1408053.8504875586,321314.79431182175,668077.3980312701,530466.2850147887,6.4097343154261455e-06,0.0,0.0,0.0,6.4097343154261455e-06,0.0,23.504373087792462,2.121302029302078,0.05304662850147887,0.0
12083,8.620689655172415,8.965517241379311,2.857142857142857,0,612151.1686565058,853397.8324728974,399970.89861211856,157075.9488539487,385918.6423877923,4.081007791043372e-06,0.0,0.0,0.0,4.081007791043372e-06,0.0,22.3612670596773,2.4193287205990877,0.020687205649164257,0.0
12084,8.620689655172415,8.965517241379311,3.2142857142857144,0,396483.7204852853,478922.2467652319,316349.47754271363,26991.94727023266,132928.6575047031,2.6432248032352353e-06,0.0,0.0,0.0,2.6432248032352353e-06,0.0,23.441478048742834,2.7099413472886034,0.005250349437663749,0.0
12085,8.620689655172415,8.965517241379311,3.5714285714285716,0,130357.87566663403,327244.2991703879,295904.2022523024,184073.17427592294,-12922.910315699839,8.690525044442269e-07,0.0,0.0,0.0,8.690525044442269e-07,0.0,22.89864493062868,3.000405161494891,-0.00045498608715017444,0.0
12086,8.620689655172415,8.965517241379311,3.928571428571429,0,126614.35642470271,292292.22737797734,177587.31954308387,156433.19194163434,39318.20674782658,8.440957094980181e-07,0.0,0.0,0.0,8.440957094980181e-07,0.0,23.574576215731206,3.295301394702458,0.001333016459439116,0.0
12087,8.620689655172415,8.965517241379311,4.285714285714286,0,183194.87693127024,215412.16705788282,223256.38311381248,36265.39695601869,-66983.60545830328,1.2212991795418016e-06,0.0,0.0,0.0,1.2212991795418016e-06,0.0,23.41259107321746,3.594765819756845,-0.002244395748319686,0.0
12088,8.620689655172415,8.965517241379311,4.642857142857143,0,182184.71704213714,309360.4122872644,172655.4976747584,102533.78459420551,9137.02787082897,1.2145647802809144e-06,0.0,0.0,0.0,1.2145647802809144e-06,0.0,23.412611888589034,3.8968978067217432,0.0003050491111685635,0.0
12089,8.620689655172415,8.965517241379311,5.0,0,221454.8011728772,354934.55898979696,182232.65125808175,105265.61082481698,49264.01753230224,1.4763653411525145e-06,0.0,0.0,0.0,1.4763653411525145e-06,0.0,23.11315423166965,4.200089383943982,0.0016429233554834453,0.0
12090,8.965517241379311,8.965517241379311,0.0,0,118024.07483145516,291880.5453477562,316102.25817946094,187846.3902028672,3304.186161076405,7.868271655430344e-07,0.0,0.0,0.0,7.868271655430344e-07,0.0,23.198257584645965,-0.04991521615824417,0.00011019248706904886,0.0
12091,8.965517241379311,8.965517241379311,0.35714285714285715,0,154451.110152853,279026.1888061559,156381.42373765222,105570.66385443056,-6335.3332302527715,1.0296740676856868e-06,0.0,0.0,0.0,1.0296740676856868e-06,0.0,23.555921539100606,0.25401651489308985,-0.0002115116423159094,0.0
12092,8.965517241379311,8.965517241379311,0.7142857142857143,0,286663.65478242445,435031.9626403993,284359.0716118394,104451.88663744522,-6519.063219371012,1.91109103188283e-06,0.0,0.0,0.0,1.91109103188283e-06,0.0,22.950450367284354,0.5589533048923997,-0.00021843192334117394,0.0
12093,8.965517241379311,8.965517241379311,1.0714285714285714,0,97884.76791029725,245802.18204666954,240672.1919852359,145453.2916633439,50724.12954552844,6.525651194019816e-07,0.0,0.0,0.0,6.525651194019816e-07,0.0,23.101279586619906,0.8664203719953956,0.0017197147369557753,0.0
12094,8.965517241379311,8.965517241379311,1.4285714285714286,0,184364.21445889657,234383.09453335174,233764.7745595334,49710.49773384274,-58591.320622181855,1.2290947630593105e-06,0.0,0.0,0.0,1.2290947630593105e-06,0.0,22.54032709993768,1.178220531121377,-0.002062866263063141,0.0
12095,8.965517241379311,8.965517241379311,1.7857142857142858,0,182308.33653019098,440512.30928048096,261355.2535565607,446659.38722311973,37922.02513630828,1.2153889102012733e-06,0.0,0.0,0.0,1.2153889102012733e-06,0.0,23.56093050104119,1.4942249969098156,0.0014978251273051663,0.0
12096,8.965517241379311,8.965517241379311,2.142857142857143,0,162532.95335186232,586917.2268601503,399317.1244737839,497766.05873145355,391377.4679574693,1.0835530223457488e-06,0.0,0.0,0.0,1.0835530223457488e-06,0.0,22.78803263279738,1.8100883087788011,0.020979826514702406,0.0
12097,8.965517241379311,8.965517241379311,2.5,0,716149.3920927615,1075167.4451525388,551205.7864923294,259139.60790220037,607614.8900802153,4.77432928061841e-06,0.0,0.0,0.0,4.77432928061841e-06,0.0,23.44475496665579,2.1189191173541704,0.06076148900802153,0.0
12098,8.965517241379311,8.965517241379311,2.857142857142857,0,560950.1135563796,787058.6771527,568319.8552542183,149693.02971614926,420604.2489360841,3.739667423709197e-06,0.0,0.0,0.0,3.739667423709197e-06,0.0,23.788737646244186,2.417231165921658,0.022546530897850945,0.0
12099,8.965517241379311,8.965517241379311,3.2142857142857144,0,404323.99643136456,547370.1652607253,469872.74030955357,109906.63498338875,99369.17305167647,2.69549330954243e-06,0.0,0.0,0.0,2.69549330954243e-06,0.0,24.075948692834025,2.7085107111955304,0.003924833754034735,0.0
12100,8.965517241379311,8.965517241379311,3.5714285714285716,0,263994.9392088482,491833.02333325095,255771.95423683096,206770.4359608153,-13835.776703800033,1.7599662613923215e-06,0.0,0.0,0.0,1.7599662613923215e-06,0.0,23.284298983777227,2.9996491025499488,-0.0004871260228044541,0.0
12101,8.965517241379311,8.965517241379311,3.928571428571429,0,202223.9130754537,296368.910306639,224697.22569330654,68070.37489280483,20218.267000109467,1.3481594205030245e-06,0.0,0.0,0.0,1.3481594205030245e-06,0.0,23.762132225974415,3.294991800566825,0.0006854657147854394,0.0
12102,8.965517241379311,8.965517241379311,4.285714285714286,0,233839.38120814713,385569.311098993,228067.21115386512,116882.2914196214,-44045.861479980755,1.5589292080543142e-06,0.0,0.0,0.0,1.5589292080543142e-06,0.0,23.45080879077257,3.5946675906066856,-0.0014758289518811266,0.0
12103,8.965517241379311,8.965517241379311,4.642857142857143,0,359446.65459027444,433339.91850882093,264661.5094780184,20576.30375376036,-67123.72334519308,2.3963110306018294e-06,0.0,0.0,0.0,2.3963110306018294e-06,0.0,22.5230405521206,3.896873657750233,-0.0022409948217568462,0.0
12104,8.965517241379311,8.965517241379311,5.0,0,122178.05343762497,302373.75236125855,275789.28296812484,169092.24217674945,-20344.476065110783,8.145203562508332e-07,0.0,0.0,0.0,8.145203562508332e-07,0.0,22.720815193297593,4.200084783841756,-0.0006784752149076793,0.0
12105,9.310344827586208,8.965517241379311,0.0,0,249103.11457304624,418476.5202194613,154131.39482787222,188102.11079321575,2913.89836910118,1.6606874304869749e-06,0.0,0.0,0.0,1.6606874304869749e-06,0.0,23.75020905764865,-0.049920021203600784,9.71766397850607e-05,0.0
12106,9.310344827586208,8.965517241379311,0.35714285714285715,0,186000.10584259708,347145.49496011203,234772.07200041265,132449.47860292176,-29607.185364721605,1.240000705617314e-06,0.0,0.0,0.0,1.240000705617314e-06,0.0,23.910068723369093,0.25399129003987614,-0.000988466458392429,0.0
12107,9.310344827586208,8.965517241379311,0.7142857142857143,0,241469.7968859786,433587.7416144378,346001.09366891836,160547.61366306967,6386.604295790711,1.609798645906524e-06,0.0,0.0,0.0,1.609798645906524e-06,0.0,22.276564291626368,0.5588506994504645,0.00021399366948970445,0.0
12108,9.310344827586208,8.965517241379311,1.0714285714285714,0,81281.64704542488,258527.3107102638,164675.76337595316,210813.2200803547,2448.270089987788,5.418776469694992e-07,0.0,0.0,0.0,5.418776469694992e-07,0.0,23.50764185628442,0.8660969848638191,8.300440424553722e-05,0.0
12109,9.310344827586208,8.965517241379311,1.4285714285714286,0,114934.9648774416,293949.43636843027,313212.4295356524,189863.08487154695,-75992.07309415704,7.662330991829439e-07,0.0,0.0,0.0,7.662330991829439e-07,0.0,23.48000374809723,1.1774307883408572,-0.002675506921187523,0.0
12110,9.310344827586208,8.965517241379311,1.7857142857142858,0,203939.1050737097,578518.5359390384,417897.66332620004,349071.0484378092,32240.751980214605,1.3595940338247313e-06,0.0,0.0,0.0,1.3595940338247313e-06,0.0,22.9489741208236,1.4927306233115494,0.0012734290498885626,0.0
12111,9.310344827586208,8.965517241379311,2.142857142857143,0,535072.1100794679,764577.4766814243,545539.4687688407,154739.6480721325,438228.97262154997,3.5671474005297858e-06,0.0,0.0,0.0,3.5671474005297858e-06,0.0,22.95888931990822,1.8078973041298565,0.023491305892743654,0.0
12112,9.310344827586208,8.965517241379311,2.5,0,539440.4668514276,981068.7711148915,1114004.8686060177,520524.4739284466,684549.7046022743,3.596269779009517e-06,0.0,0.0,0.0,3.596269779009517e-06,0.0,22.831483757540994,2.1164300422363347,0.06845497046022743,0.0
12113,9.310344827586208,8.965517241379311,2.857142857142857,0,416777.64623349695,889072.1120815255,657780.4765381191,407937.93485678034,285958.65175277414,2.7785176415566464e-06,0.0,0.0,0.0,2.7785176415566464e-06,0.0,22.40389376960068,2.4150401612727133,0.01532884081309287,0.0
12114,9.310344827586208,8.965517241379311,3.2142857142857144,0,282309.63466666284,718013.902585146,629032.0485259409,401934.3122027363,104957.15654619382,1.8820642311110855e-06,0.0,0.0,0.0,1.8820642311110855e-06,0.0,22.842224705740275,2.707016337597264,0.004145545123192099,0.0
12115,9.310344827586208,8.965517241379311,3.5714285714285716,0,195168.15755395792,402420.781706955,307193.5915109445,177918.95520692522,82409.28414928354,1.3011210503597195e-06,0.0,0.0,0.0,1.3011210503597195e-06,0.0,23.72209039140645,2.998859359769429,0.002901442231195959,0.0
12116,9.310344827586208,8.965517241379311,3.928571428571429,0,163901.61915027586,314902.28953207284,298623.61847592215,143468.75811337098,-15761.487413788076,1.0926774610018391e-06,0.0,0.0,0.0,1.0926774610018391e-06,0.0,23.203378614409562,3.2946684134352484,-0.0005343662360436459,0.0
12117,9.310344827586208,8.965517241379311,4.285714285714286,0,203386.66464353114,340225.08963578317,213919.6376599492,105604.18888734267,27138.126788449757,1.355911097623541e-06,0.0,0.0,0.0,1.355911097623541e-06,0.0,23.75035296467238,3.5945649851647503,0.0009093075233054206,0.0
12118,9.310344827586208,8.965517241379311,4.642857142857143,0,82214.65827850306,308672.96142642695,214050.7329337399,254711.62596877603,21289.193182822895,5.480977218566871e-07,0.0,0.0,0.0,5.480977218566871e-07,0.0,22.387490514509008,3.8968484328970194,0.0007107616995073,0.0
12119,9.310344827586208,8.965517241379311,5.0,0,317008.9012732609,296586.4476346549,285160.1243321959,-25981.133014197014,-17410.95922795281,2.1133926751550724e-06,0.0,0.0,0.0,2.1133926751550724e-06,0.0,23.612671901410557,4.200079978796399,-0.000580644311808666,0.0
12120,9.655172413793103,8.965517241379311,0.0,0,99843.54137779097,273126.71765357343,316729.97930429096,202501.08283224676,-45674.472942710316,6.656236091852731e-07,0.0,0.0,0.0,6.656236091852731e-07,0.0,23.641558312768602,-0.049925006169381975,-0.0015232143480334757,0.0
12121,9.655172413793103,8.965517241379311,0.35714285714285715,0,220727.5768182514,408884.22702124633,330527.56825302413,159668.18986049015,66568.19734336803,1.4715171787883427e-06,0.0,0.0,0.0,1.4715171787883427e-06,0.0,21.95088024181761,0.2539651206656509,0.0022224480125007657,0.0
12122,9.655172413793103,8.965517241379311,0.7142857142857143,0,193094.88123360943,358551.8555233528,313675.89264472737,146970.42554455483,44047.90352544025,1.287299208224063e-06,0.0,0.0,0.0,1.287299208224063e-06,0.0,22.998805610995927,0.5587442520438219,0.0014758973739691257,0.0
12123,9.655172413793103,8.965517241379311,1.0714285714285714,0,339415.2999778752,497360.251065172,180360.03310878418,139270.8332030277,-11321.934975279424,2.262768666519168e-06,0.0,0.0,0.0,2.262768666519168e-06,0.0,23.43896018594818,0.8657614888038767,-0.0003838508142434838,0.0
12124,9.655172413793103,8.965517241379311,1.4285714285714286,0,135048.19086880545,344159.5611414584,260946.33629922842,188339.6252179837,64869.70891729889,9.00321272458703e-07,0.0,0.0,0.0,9.00321272458703e-07,0.0,23.923255973505395,1.1766114743813294,0.0022839139415055387,0.0
12125,9.655172413793103,8.965517241379311,1.7857142857142858,0,267504.57712158794,618634.8054683809,603651.0787945169,343953.281530179,111588.48962984192,1.7833638474772529e-06,0.0,0.0,0.0,1.7833638474772529e-06,0.0,22.586983346252847,1.491180294293025,0.004407466191081175,0.0
12126,9.655172413793103,8.965517241379311,2.142857142857143,0,1120023.2130409048,1400764.684587066,316946.52609727497,247745.42931306822,511731.51148217835,7.466821420272699e-06,0.0,0.0,0.0,7.466821420272699e-06,0.0,23.974819670577123,1.8056242593631924,0.027431416501905576,0.0
12127,9.655172413793103,8.965517241379311,2.5,0,437006.3849426813,982283.7595729769,917502.02731908,516502.6814484462,481114.5492759702,2.9133758996178752e-06,0.0,0.0,0.0,2.9133758996178752e-06,0.0,23.505262706059447,2.113847766031144,0.04811145492759702,0.0
12128,9.655172413793103,8.965517241379311,2.857142857142857,0,431006.2306450645,979390.410078618,696612.8483269769,483327.1181617386,345756.797388337,2.8733748709670965e-06,0.0,0.0,0.0,2.8733748709670965e-06,0.0,22.789298582129604,2.4127671165060494,0.018534326115765814,0.0
12129,9.655172413793103,8.965517241379311,3.2142857142857144,0,424650.2236059278,525135.5987610873,603600.9794439874,145190.2834363524,182263.7829428031,2.831001490706185e-06,0.0,0.0,0.0,2.831001490706185e-06,0.0,23.79178500522679,2.7054660085787394,0.007198963475925847,0.0
12130,9.655172413793103,8.965517241379311,3.5714285714285716,0,125999.89851838391,353747.1717205495,379423.8433230403,242563.30858867476,134544.26605482213,8.399993234558927e-07,0.0,0.0,0.0,8.399993234558927e-07,0.0,24.451539069182946,2.998040045809901,0.004736995588865573,0.0
12131,9.655172413793103,8.965517241379311,3.928571428571429,0,331062.6850878268,545796.1950279176,236415.95402411817,196644.24969943453,-15979.01099152331,2.2070845672521787e-06,0.0,0.0,0.0,2.2070845672521787e-06,0.0,23.13714974372698,3.2943329173753058,-0.0005417410003938327,0.0
12132,9.655172413793103,8.965517241379311,4.285714285714286,0,280024.4815093133,418407.2829082558,225801.46016768424,97180.0330830568,-16467.695458561182,1.8668298767287552e-06,0.0,0.0,0.0,1.8668298767287552e-06,0.0,23.10060397663063,3.5944585377581078,-0.0005517771911341114,0.0
12133,9.655172413793103,8.965517241379311,4.642857142857143,0,301876.0435752029,414062.40552288434,240130.6111616019,65486.21827834634,27546.60314523583,2.012506957168019e-06,0.0,0.0,0.0,2.012506957168019e-06,0.0,22.838334698468373,3.896822263522794,0.0009196717930559366,0.0
12134,9.655172413793103,8.965517241379311,5.0,0,209074.5034700313,266409.44262290373,329016.75816255197,95791.35557080599,13880.601381317732,1.393830023133542e-06,0.0,0.0,0.0,1.393830023133542e-06,0.0,24.23823347873037,4.2000749938306186,0.0004629091442363521,0.0
12135,10.0,8.965517241379311,0.0,0,339065.590170315,480628.893278601,107430.2101715783,191523.30004777943,23915.18103459667,2.2604372678021e-06,0.0,0.0,0.0,2.2604372678021e-06,0.0,22.8119156110632,-0.04993014921654327,0.0007975559331228066,0.0
12136,10.0,8.965517241379311,0.35714285714285715,0,330681.34633980563,552372.3766716933,328097.60217652825,172605.07338152107,-96987.46460037067,2.2045423089320378e-06,0.0,0.0,0.0,2.2045423089320378e-06,0.0,22.69697722057441,0.2539381214179671,-0.003238026663494391,0.0
12137,10.0,8.965517241379311,0.7142857142857143,0,289353.7037403969,553420.8261138154,235513.22272154028,305435.3859551613,-10736.435748794453,1.9290246916026457e-06,0.0,0.0,0.0,1.9290246916026457e-06,0.0,22.874079482151497,0.5586344290166255,-0.0003597419186654832,0.0
12138,10.0,8.965517241379311,1.0714285714285714,0,324053.089611926,525555.8075985857,342206.4030253271,151396.32382982317,37632.244267246504,2.1603539307461734e-06,0.0,0.0,0.0,2.1603539307461734e-06,0.0,22.884701712379048,0.8654153536177088,0.0012758567890852723,0.0
12139,10.0,8.965517241379311,1.4285714285714286,0,295950.9799613196,417039.9615315386,414236.72256861866,119697.31933008974,-120067.68027100593,1.973006533075464e-06,0.0,0.0,0.0,1.973006533075464e-06,0.0,22.90642089768148,1.1757661786423577,-0.004227308145390062,0.0
12140,10.0,8.965517241379311,1.7857142857142858,0,485702.5630000158,820064.972402896,283639.48693145544,410103.31923985964,-43528.78911916971,3.238017086666772e-06,0.0,0.0,0.0,3.238017086666772e-06,0.0,22.805923826910192,1.4895808018174934,-0.001719278278770932,0.0
12141,10.0,8.965517241379311,2.142857142857143,0,920567.9390130272,1296064.6940706712,748500.9739642488,233248.10115958127,228418.1191478269,6.137119593420181e-06,0.0,0.0,0.0,6.137119593420181e-06,0.0,22.847092451990683,1.8032791326466158,0.012244375072345232,0.0
12142,10.0,8.965517241379311,2.5,0,606840.1990011977,862518.6983436529,983603.8982762484,325349.9901587867,863811.7973523848,4.045601326674651e-06,0.0,0.0,0.0,4.045601326674651e-06,0.0,23.281444260352554,2.1111836016437184,0.08638117973523848,0.0
12143,10.0,8.965517241379311,2.857142857142857,0,577114.5878177079,886986.7173952492,820493.2921168888,279505.5441321299,324954.2232012005,3.8474305854513865e-06,0.0,0.0,0.0,3.8474305854513865e-06,0.0,23.88942167412717,2.410421989789473,0.017419202141503762,0.0
12144,10.0,8.965517241379311,3.2142857142857144,0,931559.057814065,908819.7642716359,521353.3480517052,-153938.53577853972,-11390.29498065391,6.210393718760433e-06,0.0,0.0,0.0,6.210393718760433e-06,0.0,22.72330691184063,2.703866516103208,-0.0004498881578216843,0.0
12145,10.0,8.965517241379311,3.5714285714285716,0,373027.3416464887,633131.8365527223,245569.67817014825,276574.59922325256,9734.019114747229,2.486848944309925e-06,0.0,0.0,0.0,2.486848944309925e-06,0.0,22.572619192534855,2.9971947500709293,0.0003427125284529225,0.0
12146,10.0,8.965517241379311,3.928571428571429,0,81905.67310669534,320008.04427840625,225431.64051329147,272588.78819209203,-57214.480891217376,5.460378207113023e-07,0.0,0.0,0.0,5.460378207113023e-07,0.0,23.391917509429422,3.293986782189138,-0.0019397589832978192,0.0
12147,10.0,8.965517241379311,4.285714285714286,0,301232.8898791638,521521.6727556892,190964.66122239124,262486.5643437662,20326.967075421315,2.008219265861092e-06,0.0,0.0,0.0,2.008219265861092e-06,0.0,23.499969188641696,3.5943487147309114,0.000681088427058603,0.0
12148,10.0,8.965517241379311,4.642857142857143,0,101818.96170499509,457091.43747815257,363681.87964722456,348555.5026454963,108274.80115114457,6.787930780333006e-07,0.0,0.0,0.0,6.787930780333006e-07,0.0,24.008700519952757,3.8967952642751102,0.0036148660505413333,0.0
12149,10.0,8.965517241379311,5.0,0,209669.02744186795,518502.33751761,303551.58476056776,314547.78470549546,-16534.407974712532,1.3977935162791196e-06,0.0,0.0,0.0,1.3977935162791196e-06,0.0,23.947372869039533,4.200069850783457,-0.0005514118902896036,0.0
12150,0.0,9.310344827586208,0.0,0,213235.6234710262,391542.5345222634,309275.4257609957,149427.57993473584,-87135.64991525635,1.4215708231401746e-06,0.0,0.0,0.0,1.4215708231401746e-06,0.0,22.321284864005957,-0.049934392449232125,-0.002905917980545052,0.0
12151,0.0,9.310344827586208,0.35714285714285715,0,304131.57109686255,506420.2927862989,160982.28448048036,278924.93104064814,-20314.210238069903,2.027543807312417e-06,0.0,0.0,0.0,2.027543807312417e-06,0.0,22.11979203972934,0.25391584589010324,-0.0006782108870433313,0.0
12152,0.0,9.310344827586208,0.7142857142857143,0,309362.0273469017,525914.0762788348,311957.64852887456,171202.43867475397,22053.279921861962,2.0624135156460112e-06,0.0,0.0,0.0,2.0624135156460112e-06,0.0,23.40606967991923,0.5585438203474118,0.0007389313751398752,0.0
12153,0.0,9.310344827586208,1.0714285714285714,0,264450.9828103907,431014.3428920562,383262.04224169377,145940.73728384665,18378.073102126036,1.7630065520692714e-06,0.0,0.0,0.0,1.7630065520692714e-06,0.0,23.397360904950624,0.8651297773648284,0.0006230770923768925,0.0
12154,0.0,9.310344827586208,1.4285714285714286,0,386213.32422211074,540652.5077694547,178663.37250412544,134083.93616229045,51941.94103075407,2.5747554948140715e-06,0.0,0.0,0.0,2.5747554948140715e-06,0.0,23.873734413383136,1.1750687736995553,0.0018287568304065922,0.0
12155,0.0,9.310344827586208,1.7857142857142858,0,350294.82890633773,671637.8878504123,457576.32445370994,267387.14978028566,35466.838250339635,2.3352988593755847e-06,0.0,0.0,0.0,2.3352988593755847e-06,0.0,23.333838104837742,1.4882611524841511,0.0014008513871946202,0.0
12156,0.0,9.310344827586208,2.142857142857143,0,1037186.2395091663,1521098.3971508315,441273.0254470278,532589.9351309831,399227.23227526224,6.9145749300611085e-06,0.0,0.0,0.0,6.9145749300611085e-06,0.0,22.860865291090917,1.8013443033457748,0.021400613879974273,0.0
12157,0.0,9.310344827586208,2.5,0,432934.8148699558,1312987.8718046101,828659.3503122804,963576.3902167222,446394.2429694731,2.886232099133039e-06,0.0,0.0,0.0,2.886232099133039e-06,0.0,23.66673250080955,2.108985552692839,0.04463942429694731,0.0
12158,0.0,9.310344827586208,2.857142857142857,0,324405.46589242225,932552.4596939458,594341.798958876,623987.2138498118,501457.06306255446,2.162703105949482e-06,0.0,0.0,0.0,2.162703105949482e-06,0.0,22.629483317714424,2.4084871604886318,0.026880653713994156,0.0
12159,0.0,9.310344827586208,3.2142857142857144,0,443769.2893359152,661249.6695142906,599006.863883443,189644.94463308918,-19818.346827133413,2.9584619289061013e-06,0.0,0.0,0.0,2.9584619289061013e-06,0.0,24.159923333454966,2.702546866769866,-0.0007827751221784783,0.0
12160,0.0,9.310344827586208,3.5714285714285716,0,395033.71712432615,552398.9787778736,395353.0098024224,102993.18208866115,17549.928497825433,2.633558114162174e-06,0.0,0.0,0.0,2.633558114162174e-06,0.0,23.297412654720087,2.9964973451281267,0.0006178928044784242,0.0
12161,0.0,9.310344827586208,3.928571428571429,0,262323.85861959984,533436.6361125357,444258.1029573923,238149.9448986137,-40092.63248992066,1.7488257241306657e-06,0.0,0.0,0.0,1.7488257241306657e-06,0.0,22.797291463540926,3.293701205936258,-0.0013592720378647984,0.0
12162,0.0,9.310344827586208,4.285714285714286,0,61150.610929151924,329756.4515360028,310115.0007553775,261198.5379644985,-3902.5163997474233,4.076707395276795e-07,0.0,0.0,0.0,4.076707395276795e-07,0.0,22.72743568027351,3.5942581060616976,-0.00013076022342203177,0.0
12163,0.0,9.310344827586208,4.642857142857143,0,301119.5553137278,614292.5178168076,344344.5404051197,289531.6652061051,42989.54373394827,2.0074637020915186e-06,0.0,0.0,0.0,2.0074637020915186e-06,0.0,23.273004372720287,3.8967729887472466,0.0014352503123527443,0.0
12164,0.0,9.310344827586208,5.0,0,282663.3620323159,476138.4337410827,263896.0708078528,155276.80250358404,-19605.66526689623,1.8844224135487727e-06,0.0,0.0,0.0,1.8844224135487727e-06,0.0,23.14026203760726,4.200065607550768,-0.0006538363491295449,0.0
12165,0.3448275862068966,9.310344827586208,0.0,0,272988.2235300482,491869.8984915844,215675.44905162012,222205.04948656837,-33277.10262240927,1.8199214902003213e-06,0.0,0.0,0.0,1.8199214902003213e-06,0.0,23.118956207983075,-0.04992942771909295,-0.001109770007395916,0.0
12166,0.3448275862068966,9.310344827586208,0.35714285714285715,0,164723.3237589357,441240.5879563191,390117.69727382227,257017.20349169348,116.1571927862707,1.098155491726238e-06,0.0,0.0,0.0,1.098155491726238e-06,0.0,22.536975739914098,0.253941909034093,3.878027835332912e-06,0.0
12167,0.3448275862068966,9.310344827586208,0.7142857142857143,0,382722.7240530597,453162.77779489895,428243.8204198599,58589.484022004355,-28997.0233089502,2.551484827020398e-06,0.0,0.0,0.0,2.551484827020398e-06,0.0,23.115931090859473,0.5586498356484576,-0.0009715929052079304,0.0
12168,0.3448275862068966,9.310344827586208,1.0714285714285714,0,215743.8066600207,451290.5384788794,391196.08153621876,211870.71797188788,-43504.22102847399,1.438292044400138e-06,0.0,0.0,0.0,1.438292044400138e-06,0.0,23.614931309307487,0.8654639115341454,-0.001474936104232139,0.0
12169,0.3448275862068966,9.310344827586208,1.4285714285714286,0,304951.2567673095,650494.6889556529,392518.22770929994,313945.9175592643,107678.42019010475,2.03300837844873e-06,0.0,0.0,0.0,2.03300837844873e-06,0.0,22.82887199763485,1.175884761789918,0.0037911106612949466,0.0
12170,0.3448275862068966,9.310344827586208,1.7857142857142858,0,383078.83875078685,772994.6028579316,391122.6199207953,388720.20810539095,-62052.20760704005,2.5538589250052455e-06,0.0,0.0,0.0,2.5538589250052455e-06,0.0,23.33914037490344,1.489805188199091,-0.002450906970935821,0.0
12171,0.3448275862068966,9.310344827586208,2.142857142857143,0,786103.3886399693,1323060.4533048468,1064869.2906322342,440332.647160202,507639.2506676751,5.240689257599795e-06,0.0,0.0,0.0,5.240689257599795e-06,0.0,23.775208233834057,1.8036081210641106,0.027212050470464738,0.0
12172,0.3448275862068966,9.310344827586208,2.5,0,137654.84075708748,1232573.4772075827,1101210.484799081,1244394.7445216223,760466.5193510521,9.176989383805832e-07,0.0,0.0,0.0,9.176989383805832e-07,0.0,23.535549440488747,2.1115573465759514,0.07604665193510521,0.0
12173,0.3448275862068966,9.310344827586208,2.857142857142857,0,334466.13420583337,1191969.2480837402,1267502.1233340604,901728.54630808,337905.7712236691,2.2297742280388893e-06,0.0,0.0,0.0,2.2297742280388893e-06,0.0,22.620228105034883,2.4107509782069676,0.018113471109071813,0.0
12174,0.3448275862068966,9.310344827586208,3.2142857142857144,0,315802.3689874509,649739.6890022148,363199.45714327117,311143.79929274943,108450.58235146313,2.105349126583006e-06,0.0,0.0,0.0,2.105349126583006e-06,0.0,23.390638482021345,2.7040909024848054,0.004283526703360897,0.0
12175,0.3448275862068966,9.310344827586208,3.5714285714285716,0,414206.66793884645,671976.6871165885,471572.3753146585,195681.7931530574,8653.273439869668,2.7613777862589765e-06,0.0,0.0,0.0,2.7613777862589765e-06,0.0,23.96715763899082,2.99731333321849,0.00030466194744566843,0.0
12176,0.3448275862068966,9.310344827586208,3.928571428571429,0,131251.42901687766,387530.9513366349,376634.3970374786,251170.9235789596,61713.72705551179,8.750095267791845e-07,0.0,0.0,0.0,8.750095267791845e-07,0.0,23.48806316914698,3.294035340105575,0.0020922982186332225,0.0
12177,0.3448275862068966,9.310344827586208,4.285714285714286,0,214088.31199573237,422083.28262545,285116.9336838509,175375.615515765,-51207.8465770695,1.4272554133048823e-06,0.0,0.0,0.0,1.4272554133048823e-06,0.0,23.83428079608209,3.5943641213627435,-0.0017158030289922946,0.0
12178,0.3448275862068966,9.310344827586208,4.642857142857143,0,135972.72158753965,421641.7584740201,437732.8843213968,294430.5738113293,-23225.55756409459,9.064848105835976e-07,0.0,0.0,0.0,9.064848105835976e-07,0.0,23.738975872934777,3.8967990518912363,-0.0007754092240367184,0.0
12179,0.3448275862068966,9.310344827586208,5.0,0,323885.4561027919,418049.9158196837,351131.7243797454,65932.29531853225,45511.8253832625,2.1592363740186127e-06,0.0,0.0,0.0,2.1592363740186127e-06,0.0,22.684496270700016,4.200070572280907,0.0015177901563513012,0.0
12180,0.6896551724137931,9.310344827586208,0.0,0,327822.7081720035,516981.2885833128,231556.0200146304,158938.58199113485,-9258.322604461164,2.18548472114669e-06,0.0,0.0,0.0,2.18548472114669e-06,0.0,24.148471429376553,-0.049924630207971735,-0.00030875911469250254,0.0
12181,0.6896551724137931,9.310344827586208,0.35714285714285715,0,158732.07386437833,423185.91025194357,305566.24087518215,242638.31927956335,24702.310598870612,1.058213825762522e-06,0.0,0.0,0.0,1.058213825762522e-06,0.0,23.88997988642515,0.2539670943351345,0.0008247121491281611,0.0
12182,0.6896551724137931,9.310344827586208,0.7142857142857143,0,329747.57928426564,579598.2776370355,231256.56775413975,272284.61999589816,55066.22846654062,2.1983171952284376e-06,0.0,0.0,0.0,2.1983171952284376e-06,0.0,23.12630280843911,0.5587522802066769,0.0018450844531388833,0.0
12183,0.6896551724137931,9.310344827586208,1.0714285714285714,0,302969.3269189165,390517.4299940707,283113.8104590319,48477.69359049332,26551.14110656401,2.0197955127927766e-06,0.0,0.0,0.0,2.0197955127927766e-06,0.0,23.920484701470244,0.8657867915997959,0.0009001709650427222,0.0
12184,0.6896551724137931,9.310344827586208,1.4285714285714286,0,405410.7559822965,561034.4056412369,456242.7722068419,113515.92918690073,-26342.067715503304,2.70273837321531e-06,0.0,0.0,0.0,2.70273837321531e-06,0.0,23.21340551547031,1.1766732662662036,-0.0009274438980483415,0.0
12185,0.6896551724137931,9.310344827586208,1.7857142857142858,0,628017.2233696056,656729.5205006356,697937.8373499721,50331.2556319783,54598.411378593315,4.186781489130704e-06,0.0,0.0,0.0,4.186781489130704e-06,0.0,23.23737127462676,1.4912972186431057,0.0021565006662975536,0.0
12186,0.6896551724137931,9.310344827586208,2.142857142857143,0,862776.0323755803,1248671.3169413623,857147.1010561627,259553.0006513657,575264.0712191483,5.751840215837202e-06,0.0,0.0,0.0,5.751840215837202e-06,0.0,22.83984352541318,1.8057956902522945,0.030837085428818467,0.0
12187,0.6896551724137931,9.310344827586208,2.5,0,1000569.4092082685,1350796.0329678361,745295.0400133601,195892.05659877646,802936.6213787711,6.6704627280551234e-06,0.0,0.0,0.0,6.6704627280551234e-06,0.0,22.774109104238086,2.114042518863229,0.08029366213787711,0.0
12188,0.6896551724137931,9.310344827586208,2.857142857142857,0,462032.75065403833,1115986.9823807634,894092.8671998212,584865.5396678924,410914.87087895116,3.0802183376935888e-06,0.0,0.0,0.0,3.0802183376935888e-06,0.0,23.370875970260165,2.4129385473951515,0.022027130862547675,0.0
12189,0.6896551724137931,9.310344827586208,3.2142857142857144,0,533104.4758098476,962108.9715387529,656602.9117135396,346538.5719369271,111701.8781038833,3.5540298387323174e-06,0.0,0.0,0.0,3.5540298387323174e-06,0.0,23.174331453354537,2.70558293292882,0.004411944752153677,0.0
12190,0.6896551724137931,9.310344827586208,3.5714285714285716,0,290088.55534594454,471635.8477725231,165822.26464982098,200365.59383389234,-62867.74475474389,1.933923702306297e-06,0.0,0.0,0.0,1.933923702306297e-06,0.0,22.56211596648764,2.998101837694775,-0.0022134293665387697,0.0
12191,0.6896551724137931,9.310344827586208,3.928571428571429,0,288508.8176098144,521731.0877999506,337747.1199965072,189219.32813729634,-10756.037486270943,1.9233921173987625e-06,0.0,0.0,0.0,1.9233921173987625e-06,0.0,23.48551895862716,3.294358220171225,-0.00036466502909204704,0.0
12192,0.6896551724137931,9.310344827586208,4.285714285714286,0,89208.60454388414,383536.51744141267,300028.6104394947,289552.3310691906,-3553.2348287051936,5.94724030292561e-07,0.0,0.0,0.0,5.94724030292561e-07,0.0,23.570437157489792,3.5944665659209627,-0.00011905697054918386,0.0
12193,0.6896551724137931,9.310344827586208,4.642857142857143,0,349493.7668324921,461981.25859146024,402436.4987526567,86540.38251342851,-4286.745263714046,2.3299584455499472e-06,0.0,0.0,0.0,2.3299584455499472e-06,0.0,23.46942415830761,3.896824237192278,-0.00014311741750037794,0.0
12194,0.6896551724137931,9.310344827586208,5.0,0,341123.38064840937,343699.051668264,351040.6424782497,6305.723178227899,-17809.443274150115,2.274155870989396e-06,0.0,0.0,0.0,2.274155870989396e-06,0.0,23.469782915206874,4.200075369792028,-0.0005939334989086792,0.0
12195,1.0344827586206897,9.310344827586208,0.0,0,134290.73528714545,392960.4365230243,360968.0168623264,245562.68409460492,-13988.102072337784,8.952715685809696e-07,0.0,0.0,0.0,8.952715685809696e-07,0.0,23.530476358638364,-0.049920021203600784,-0.0004664942232626748,0.0
12196,1.0344827586206897,9.310344827586208,0.35714285714285715,0,260607.60129316064,445628.4495893166,273482.1995103839,145801.79056831315,-5163.505706006425,1.737384008621071e-06,0.0,0.0,0.0,1.737384008621071e-06,0.0,23.41457119514184,0.25399129003987614,-0.000172388970286479,0.0
12197,1.0344827586206897,9.310344827586208,0.7142857142857143,0,460620.8073983271,619476.4413740528,318312.9008404465,89227.8176709325,66378.63043793578,3.070805382655514e-06,0.0,0.0,0.0,3.070805382655514e-06,0.0,23.51063220826759,0.5588506994504645,0.002224125066348145,0.0
12198,1.0344827586206897,9.310344827586208,1.0714285714285714,0,214474.5916575589,477711.9121408362,416169.94061862753,239193.98952494602,-102864.50035418752,1.4298306110503926e-06,0.0,0.0,0.0,1.4298306110503926e-06,0.0,23.59360240068833,0.8660969848638191,-0.0034874447083396657,0.0
12199,1.0344827586206897,9.310344827586208,1.4285714285714286,0,624264.7249237809,724268.1309362535,373865.084967624,3521.2607844519216,44877.07847958535,4.161764832825206e-06,0.0,0.0,0.0,4.161764832825206e-06,0.0,23.05281457029223,1.1774307883408572,0.0015800191939235072,0.0
12200,1.0344827586206897,9.310344827586208,1.7857142857142858,0,555938.6130053973,813878.8026756303,572902.3838442529,178108.6164688178,75349.42837977648,3.7062574200359816e-06,0.0,0.0,0.0,3.7062574200359816e-06,0.0,22.71721744699682,1.4927306233115494,0.002976113927187202,0.0
12201,1.0344827586206897,9.310344827586208,2.142857142857143,0,1001113.795489029,1065536.0418072394,453673.6409399767,-89775.5994902968,428463.80578219733,6.67409196992686e-06,0.0,0.0,0.0,6.67409196992686e-06,0.0,23.514607880490384,1.8078973041298565,0.02296784319253781,0.0
12202,1.0344827586206897,9.310344827586208,2.5,0,1041234.2372431504,1777313.7054582513,932627.0562078845,613993.2656392407,728906.8890678533,6.941561581621002e-06,0.0,0.0,0.0,6.941561581621002e-06,0.0,23.435438477622267,2.1164300422363347,0.07289068890678532,0.0
12203,1.0344827586206897,9.310344827586208,2.857142857142857,0,790390.474610045,1255895.0874664085,343712.6859067886,825485.6324992445,493557.77674990444,5.269269830733633e-06,0.0,0.0,0.0,5.269269830733633e-06,0.0,23.590966503748543,2.4150401612727133,0.026457211717462643,0.0
12204,1.0344827586206897,9.310344827586208,3.2142857142857144,0,395924.4351473099,679325.0789160286,465200.39188944985,222449.7537238946,156184.43865450317,2.6394962343153995e-06,0.0,0.0,0.0,2.6394962343153995e-06,0.0,23.93830924773325,2.707016337597264,0.006168894616516278,0.0
12205,1.0344827586206897,9.310344827586208,3.5714285714285716,0,402464.04854831874,595395.6497885998,387839.1273691871,131523.61207786406,-96346.99865218755,2.6830936569887916e-06,0.0,0.0,0.0,2.6830936569887916e-06,0.0,23.35665851370309,2.998859359769429,-0.0033921572505355565,0.0
12206,1.0344827586206897,9.310344827586208,3.928571428571429,0,74875.63444868279,440868.4631586798,399625.52800786623,354439.5046783455,98353.2708121968,4.991708963245519e-07,0.0,0.0,0.0,4.991708963245519e-07,0.0,23.312110600037755,3.2946684134352484,0.0033344991971074158,0.0
12207,1.0344827586206897,9.310344827586208,4.285714285714286,0,41823.10131633201,273707.7632989086,227335.4740115864,238843.43842860905,6556.939846979454,2.788206754422134e-07,0.0,0.0,0.0,2.788206754422134e-07,0.0,23.617555256493592,3.5945649851647503,0.00021970104197674805,0.0
12208,1.0344827586206897,9.310344827586208,4.642857142857143,0,168668.38181763317,537884.3956382358,351011.40091098554,396930.6813292687,4969.624397878216,1.124455878784221e-06,0.0,0.0,0.0,1.124455878784221e-06,0.0,22.877879401120303,3.8968484328970194,0.0001659160425956781,0.0
12209,1.0344827586206897,9.310344827586208,5.0,0,317923.65215400356,552179.2311051462,450127.73603876506,195761.0018947258,-63155.48786356259,2.1194910143600237e-06,0.0,0.0,0.0,2.1194910143600237e-06,0.0,23.413786680735956,4.200079978796399,-0.0021061949722221383,0.0
12210,1.3793103448275863,9.310344827586208,0.0,0,392265.9199360277,619495.960479059,259039.57907144507,201726.30019540235,-25865.535461764233,2.6151061329068517e-06,0.0,0.0,0.0,2.6151061329068517e-06,0.0,23.340509195670172,-0.04991562469392928,-0.0008625990010732247,0.0
12211,1.3793103448275863,9.310344827586208,0.35714285714285715,0,273131.108162652,491326.33973264514,176965.86334344887,312152.45678719936,61575.8329768282,1.8208740544176801e-06,0.0,0.0,0.0,1.8208740544176801e-06,0.0,23.8346330119359,0.25401437021974665,0.002055772772568022,0.0
12212,1.3793103448275863,9.310344827586208,0.7142857142857143,0,232574.6907048247,431910.35064134275,344511.8545663741,168297.22418932966,3127.836705608439,1.5504979380321645e-06,0.0,0.0,0.0,1.5504979380321645e-06,0.0,23.171845859599134,0.558944581148625,0.00010480330754778179,0.0
12213,1.3793103448275863,9.310344827586208,1.0714285714285714,0,333202.69284192653,546474.0290135121,216155.26651947864,210460.4090850422,19768.95633452785,2.2213512856128434e-06,0.0,0.0,0.0,2.2213512856128434e-06,0.0,23.451300386664276,0.8663928768993978,0.0006702326062038803,0.0
12214,1.3793103448275863,9.310344827586208,1.4285714285714286,0,591097.0527229799,636674.5639290331,291791.08203843253,-45852.722466297644,-18256.893633198313,3.9406470181531996e-06,0.0,0.0,0.0,3.9406470181531996e-06,0.0,23.332782083896454,1.1781533854268094,-0.0006427834284042222,0.0
12215,1.3793103448275863,9.310344827586208,1.7857142857142858,0,409375.9680354577,1034951.4799748373,689627.1772687093,582732.4870396669,235741.17350872103,2.729173120236385e-06,0.0,0.0,0.0,2.729173120236385e-06,0.0,22.17160530283589,1.4940979419297968,0.009311186624463688,0.0
12216,1.3793103448275863,9.310344827586208,2.142857142857143,0,646581.957655758,1144645.2865571114,1242014.1098782227,552269.8631400442,417902.6390803314,4.31054638437172e-06,0.0,0.0,0.0,4.31054638437172e-06,0.0,23.156043890898157,1.8099020246713888,0.02240171084374844,0.0
12217,1.3793103448275863,9.310344827586208,2.5,0,731181.3482409405,1313940.0551396378,679283.6924444364,514393.4170908111,937739.76030966,4.87454232160627e-06,0.0,0.0,0.0,4.87454232160627e-06,0.0,23.420560206500166,2.11870749062995,0.09377397603096599,0.0
12218,1.3793103448275863,9.310344827586208,2.857142857142857,0,336069.53788587,989669.6983288026,638130.544547263,671569.8652949993,418132.50596071646,2.2404635859058e-06,0.0,0.0,0.0,2.2404635859058e-06,0.0,22.983791340634518,2.417044881814246,0.022414032879805146,0.0
12219,1.3793103448275863,9.310344827586208,3.2142857142857144,0,637409.3759863318,863326.5786510479,477094.4554619719,127615.57342182328,109205.01285764822,4.249395839908879e-06,0.0,0.0,0.0,4.249395839908879e-06,0.0,23.37312158435703,2.7083836562155112,0.004313324821075018,0.0
12220,1.3793103448275863,9.310344827586208,3.5714285714285716,0,196551.00826061718,375675.46692631743,321306.5364023422,157663.03360533545,26006.47558292117,1.3103400550707812e-06,0.0,0.0,0.0,1.3103400550707812e-06,0.0,24.108427271556593,2.9995819568553808,0.0009156284673479964,0.0
12221,1.3793103448275863,9.310344827586208,3.928571428571429,0,287122.90956709924,540957.5763362352,508853.23577453836,239131.8091537475,43595.16414064839,1.9141527304473283e-06,0.0,0.0,0.0,1.9141527304473283e-06,0.0,23.925352917677134,3.294964305470827,0.0014780193746920206,0.0
12222,1.3793103448275863,9.310344827586208,4.285714285714286,0,289404.8507231497,507956.92236565484,269933.45249272854,185810.28529682136,33584.99137513752,1.9293656714876646e-06,0.0,0.0,0.0,1.9293656714876646e-06,0.0,22.515453221278328,3.5946588668629107,0.0011253203128433293,0.0
12223,1.3793103448275863,9.310344827586208,4.642857142857143,0,259542.075257198,506089.88907351054,282015.66520209855,221700.96984779875,-21478.771970818496,1.7302805017146534e-06,0.0,0.0,0.0,1.7302805017146534e-06,0.0,23.832991236044766,3.89687151307689,-0.000717090983120312,0.0
12224,1.3793103448275863,9.310344827586208,5.0,0,260734.17278903353,465506.98500847677,463509.52725601627,203779.82177596664,52502.617243718094,1.738227818593557e-06,0.0,0.0,0.0,1.738227818593557e-06,0.0,23.73880570055952,4.200084375306071,0.0017509285765651048,0.0
12225,1.7241379310344829,9.310344827586208,0.0,0,308324.469686188,589462.4911963027,367833.4265553479,237350.63836220946,-44669.48184054362,2.0554964645745864e-06,0.0,0.0,0.0,2.0554964645745864e-06,0.0,23.406538877573123,-0.04991146749922844,-0.0014896985400155835,0.0
12226,1.7241379310344829,9.310344827586208,0.35714285714285715,0,420288.4909990201,529927.5360672779,404837.2229225692,61295.28805485761,-53405.4179292109,2.801923273326801e-06,0.0,0.0,0.0,2.801923273326801e-06,0.0,22.285521218199367,0.25403619407744765,-0.0017829950287120446,0.0
12227,1.7241379310344829,9.310344827586208,0.7142857142857143,0,142394.0019958243,397712.06963980227,234836.8643439401,296785.94654367183,-13185.405208105778,9.492933466388287e-07,0.0,0.0,0.0,9.492933466388287e-07,0.0,23.853982564628563,0.5590333525894406,-0.00044179866381433307,0.0
12228,1.7241379310344829,9.310344827586208,1.0714285714285714,0,233828.81068982452,411415.6246200286,277007.49915313424,141414.23802609628,18645.98156523012,1.5588587379321635e-06,0.0,0.0,0.0,1.5588587379321635e-06,0.0,23.252756292441724,0.8666726626599758,0.0006321600699712487,0.0
12229,1.7241379310344829,9.310344827586208,1.4285714285714286,0,205264.87208680104,446620.3079853291,266680.7662950326,223046.68721426997,-48590.957656305814,1.3684324805786736e-06,0.0,0.0,0.0,1.3684324805786736e-06,0.0,23.577531079495834,1.178836649425075,-0.0017107763773662873,0.0
12230,1.7241379310344829,9.310344827586208,1.7857142857142858,0,572871.1807056656,861965.0134342668,667870.2462227459,217261.89335810975,75737.34156841168,3.819141204704437e-06,0.0,0.0,0.0,3.819141204704437e-06,0.0,22.99292070384566,1.4953908333684272,0.0029914355277362867,0.0
12231,1.7241379310344829,9.310344827586208,2.142857142857143,0,626524.3965985347,920177.1306023122,1087052.937769562,393986.3207300606,274549.6405794235,4.176829310656898e-06,0.0,0.0,0.0,4.176829310656898e-06,0.0,23.11045112767672,1.8117976223692516,0.014717259680509102,0.0
12232,1.7241379310344829,9.310344827586208,2.5,0,965371.3995171789,1646678.4176370667,785045.3891229104,603380.6121262074,744441.0161216266,6.435809330114526e-06,0.0,0.0,0.0,6.435809330114526e-06,0.0,23.954427054154074,2.120860970799629,0.07444410161216267,0.0
12233,1.7241379310344829,9.310344827586208,2.857142857142857,0,783380.3680728829,1454614.3781453704,721388.4094808953,629231.778168159,545620.3771576197,5.222535787152552e-06,0.0,0.0,0.0,5.222535787152552e-06,0.0,24.30239058205373,2.4189404795121083,0.02924803238007891,0.0
12234,1.7241379310344829,9.310344827586208,3.2142857142857144,0,171912.24411473694,639877.949684921,493692.3877803676,450483.16619376966,16286.057284419912,1.1460816274315797e-06,0.0,0.0,0.0,1.1460816274315797e-06,0.0,23.282277604712593,2.709676547654142,0.0006432585216019983,0.0
12235,1.7241379310344829,9.310344827586208,3.5714285714285716,0,287735.30675960175,521859.60501406784,211669.99457177395,263670.6150088819,-59398.309162264035,1.918235378397345e-06,0.0,0.0,0.0,1.918235378397345e-06,0.0,24.25694776892142,3.0002652208536467,-0.002091278482080165,0.0
12236,1.7241379310344829,9.310344827586208,3.928571428571429,0,293995.6443926682,467921.11441015993,263609.37527653284,130976.03329178308,17956.85518155943,1.959970962617788e-06,0.0,0.0,0.0,1.959970962617788e-06,0.0,23.290808996020797,3.295244091231405,0.0006087964202005847,0.0
12237,1.7241379310344829,9.310344827586208,4.285714285714286,0,275877.80366365425,532704.8123590813,386878.99251471367,214517.18858665106,-35645.86075046156,1.839185357757695e-06,0.0,0.0,0.0,1.839185357757695e-06,0.0,23.289537146180585,3.5947476383037267,-0.0011943731270681291,0.0
12238,1.7241379310344829,9.310344827586208,4.642857142857143,0,378146.46127583086,596470.8698470794,236859.59688752407,202178.531108771,109327.1739315891,2.520976408505539e-06,0.0,0.0,0.0,2.520976408505539e-06,0.0,22.8058149146382,3.896893336934591,0.003650000602589435,0.0
12239,1.7241379310344829,9.310344827586208,5.0,0,127707.70790027134,299063.89355071675,324190.27877811796,185786.88101839018,8661.384368069119,8.513847193351423e-07,0.0,0.0,0.0,8.513847193351423e-07,0.0,23.768119715205362,4.2000885325007715,0.000288851607764012,0.0
12240,2.0689655172413794,9.310344827586208,0.0,0,208999.82373992895,418594.4264043608,195981.72947604544,226581.09746114005,45805.18940850902,1.393332158266193e-06,0.0,0.0,0.0,1.393332158266193e-06,0.0,23.413016461157238,-0.04990757928494666,0.0015275736582433285,0.0
12241,2.0689655172413794,9.310344827586208,0.35714285714285715,0,315555.4170555842,423342.11735261476,300114.231240264,64766.245261192824,-58783.11712760053,2.1037027803705615e-06,0.0,0.0,0.0,2.1037027803705615e-06,0.0,23.445940732747747,0.2540566058794688,-0.0019625350699368307,0.0
12242,2.0689655172413794,9.310344827586208,0.7142857142857143,0,300043.1135215405,322901.98522690375,263454.4181631719,-2415.0324111445793,20521.920525149566,2.0002874234769367e-06,0.0,0.0,0.0,2.0002874234769367e-06,0.0,23.33038278825193,0.5591163803061661,0.0006876206626809855,0.0
12243,2.0689655172413794,9.310344827586208,1.0714285714285714,0,180037.71149526542,417294.2079123605,210577.28928137635,294839.5650976521,-46198.57383648738,1.200251409968436e-06,0.0,0.0,0.0,1.200251409968436e-06,0.0,23.02905821714013,0.8669343456140839,-0.00156628352156613,0.0
12244,2.0689655172413794,9.310344827586208,1.4285714285714286,0,338176.8586774027,582991.2713718095,460826.1093127018,200707.28525625673,-2868.269616088397,2.2545123911826846e-06,0.0,0.0,0.0,2.2545123911826846e-06,0.0,23.842484031617786,1.179475704611917,-0.0001009852067092303,0.0
12245,2.0689655172413794,9.310344827586208,1.7857142857142858,0,329688.1324375056,726429.738102236,668778.7826005531,371718.48255887185,23163.576188059575,2.197920882916704e-06,0.0,0.0,0.0,2.197920882916704e-06,0.0,23.50371810532234,1.4966000716452545,0.0009149033135233246,0.0
12246,2.0689655172413794,9.310344827586208,2.142857142857143,0,461755.127023373,787691.2628067638,576846.2285911401,258150.7479762301,548395.8746439822,3.0783675134891533e-06,0.0,0.0,0.0,3.0783675134891533e-06,0.0,23.943130347790436,1.8135705703718683,0.029396813187670533,0.0
12247,2.0689655172413794,9.310344827586208,2.5,0,1234123.1982989528,2112013.962076841,880796.7402062609,875005.1717027255,816894.979801987,8.227487988659685e-06,0.0,0.0,0.0,8.227487988659685e-06,0.0,23.071785417172162,2.122875115662652,0.0816894979801987,0.0
12248,2.0689655172413794,9.310344827586208,2.857142857142857,0,578828.549758143,1200482.6374235593,807966.0713015889,535726.1697289753,443272.29359293176,3.858856998387621e-06,0.0,0.0,0.0,3.858856998387621e-06,0.0,23.668130218493808,2.4207134275147255,0.023761653594643162,0.0
12249,2.0689655172413794,9.310344827586208,3.2142857142857144,0,517109.4541853645,786493.1343952479,259293.3478625027,280102.2272553044,185743.8817154129,3.447396361235763e-06,0.0,0.0,0.0,3.447396361235763e-06,0.0,24.621861823544073,2.710885785930969,0.007336418671643442,0.0
12250,2.0689655172413794,9.310344827586208,3.5714285714285716,0,184212.13905533552,419117.85374536295,225871.18161921806,245514.61797158708,7602.691396159265,1.2280809270355702e-06,0.0,0.0,0.0,1.2280809270355702e-06,0.0,23.202449188712954,3.000904276040489,0.0002676733588366989,0.0
12251,2.0689655172413794,9.310344827586208,3.928571428571429,0,442063.1051894335,486227.1772525214,442378.17117507395,23873.63626416482,47913.55881051588,2.9470873679295565e-06,0.0,0.0,0.0,2.9470873679295565e-06,0.0,23.32051302717173,3.295505774185513,0.0016244271498534785,0.0
12252,2.0689655172413794,9.310344827586208,4.285714285714286,0,218212.28791898277,433826.5472495799,218436.57769552286,212897.4096719771,80773.52916529775,1.4547485861265517e-06,0.0,0.0,0.0,1.4547485861265517e-06,0.0,23.319359476482987,3.594830666020452,0.0027064497976033927,0.0
12253,2.0689655172413794,9.310344827586208,4.642857142857143,0,133674.60959370676,278247.5141639865,425506.21374385053,311813.6913565638,6266.544173764182,8.911640639580451e-07,0.0,0.0,0.0,8.911640639580451e-07,0.0,23.05099076390111,3.896913748736612,0.00020921504862739034,0.0
12254,2.0689655172413794,9.310344827586208,5.0,0,152040.55097974912,351352.5556530701,192638.3255514581,207005.64128987113,11602.311277326293,1.0136036731983275e-06,0.0,0.0,0.0,1.0136036731983275e-06,0.0,24.405830195805635,4.200092420715054,0.0003869296320100089,0.0
12255,2.413793103448276,9.310344827586208,0.0,0,275684.4063816716,510434.41642443626,366321.9897821029,192562.01509389904,42039.66051243501,1.8378960425444775e-06,0.0,0.0,0.0,1.8378960425444775e-06,0.0,22.41200602830719,-0.0499039923898561,0.0014019956871602487,0.0
12256,2.413793103448276,9.310344827586208,0.35714285714285715,0,413454.3120166824,611770.9206645925,280925.5580792776,148270.26690997704,63289.45200566664,2.756362080111216e-06,0.0,0.0,0.0,2.756362080111216e-06,0.0,22.957207943857536,0.2540754358582593,0.0021129837134799575,0.0
12257,2.413793103448276,9.310344827586208,0.7142857142857143,0,191937.01421605272,474359.13564690895,294243.29524977674,272459.67372658674,5671.636082180749,1.2795800947736848e-06,0.0,0.0,0.0,1.2795800947736848e-06,0.0,23.80729917345684,0.5591929737467327,0.0001900374848706365,0.0
12258,2.413793103448276,9.310344827586208,1.0714285714285714,0,235008.66913623136,555722.1906499477,487689.9598332421,294202.6989001447,-28729.30705852751,1.566724460908209e-06,0.0,0.0,0.0,1.566724460908209e-06,0.0,23.2128775806431,0.8671757493113467,-0.000974017951096269,0.0
12259,2.413793103448276,9.310344827586208,1.4285714285714286,0,316961.1321726433,512601.68658276915,237644.41978707656,165926.4103214543,52499.21893544,2.113074214484289e-06,0.0,0.0,0.0,2.113074214484289e-06,0.0,23.56750269999719,1.1800652358841561,0.001848377309626375,0.0
12260,2.413793103448276,9.310344827586208,1.7857142857142858,0,342509.16641403094,744783.7892529845,620691.5576233541,357524.86985485716,123162.2690046762,2.283394442760206e-06,0.0,0.0,0.0,2.283394442760206e-06,0.0,23.573084332996075,1.4977155993718982,0.004864601523469193,0.0
12261,2.413793103448276,9.310344827586208,2.142857142857143,0,750895.7841072478,1367920.072036719,910338.0339073674,501313.6506995047,519744.5334112991,5.005971894048319e-06,0.0,0.0,0.0,5.005971894048319e-06,0.0,23.840744644099342,1.8152061228454521,0.02786095530701055,0.0
12262,2.413793103448276,9.310344827586208,2.5,0,1152135.2153149433,1760618.9341267971,1811300.4788449476,634660.8355850332,854672.780043395,7.680901435432956e-06,0.0,0.0,0.0,7.680901435432956e-06,0.0,23.63788858453858,2.1247331733202994,0.0854672780043395,0.0
12263,2.413793103448276,9.310344827586208,2.857142857142857,0,1031776.5704181264,1415108.5734741958,544131.1434328264,275622.9631956628,446734.5301281896,6.878510469454176e-06,0.0,0.0,0.0,6.878510469454176e-06,0.0,23.407330048880407,2.422348979988309,0.023947247114478768,0.0
12264,2.413793103448276,9.310344827586208,3.2142857142857144,0,144618.0889199679,596262.6515009996,435644.6617521717,476383.6216297878,99888.46395375073,9.64120592799786e-07,0.0,0.0,0.0,9.64120592799786e-07,0.0,23.67113285872026,2.7120013136576127,0.003945344445610725,0.0
12265,2.413793103448276,9.310344827586208,3.5714285714285716,0,225123.29601621497,521997.8250246023,456696.38587783324,271442.79171873344,43805.17263065752,1.5008219734414332e-06,0.0,0.0,0.0,1.5008219734414332e-06,0.0,23.521912291548844,3.0014938073127277,0.0015422798429504873,0.0
12266,2.413793103448276,9.310344827586208,3.928571428571429,0,184680.29325657166,480550.14902016276,300460.6873468587,291598.1380520767,-65702.27432776679,1.231201955043811e-06,0.0,0.0,0.0,1.231201955043811e-06,0.0,24.46313491741732,3.295747177882776,-0.002227523082708714,0.0
12267,2.413793103448276,9.310344827586208,4.285714285714286,0,295781.7260233234,418957.6609294995,268410.6813281415,78187.40156463614,58765.87075794953,1.9718781734888228e-06,0.0,0.0,0.0,1.9718781734888228e-06,0.0,23.332807272263512,3.5949072594610185,0.001969047046258937,0.0
12268,2.413793103448276,9.310344827586208,4.642857142857143,0,357689.42921593855,474672.55065874144,392708.6658664077,83115.12571261686,19821.721646007525,2.384596194772924e-06,0.0,0.0,0.0,2.384596194772924e-06,0.0,23.903043964008294,3.8969325787154023,0.0006617686468101674,0.0
12269,2.413793103448276,9.310344827586208,5.0,0,201605.18348968917,512693.8150817668,284810.3234156813,357563.6524368812,-37265.06747616654,1.3440345565979277e-06,0.0,0.0,0.0,1.3440345565979277e-06,0.0,24.08688533358607,4.200096007610144,-0.0012427660748560835,0.0
12270,2.7586206896551726,9.310344827586208,0.0,0,272472.7204441441,517621.512983669,224899.6569688208,271376.553997066,7981.177492777952,1.8164848029609606e-06,0.0,0.0,0.0,1.8164848029609606e-06,0.0,22.951187297758224,-0.04990074139236876,0.00026616714518960837,0.0
12271,2.7586206896551726,9.310344827586208,0.35714285714285715,0,411642.636312748,576635.846136437,364497.6963442578,102195.06483149128,56862.23670458014,2.7442842420849866e-06,0.0,0.0,0.0,2.7442842420849866e-06,0.0,23.060240087159997,0.2540925024889215,0.001898404493343733,0.0
12272,2.7586206896551726,9.310344827586208,0.7142857142857143,0,135365.8468363842,404107.42229256895,335298.7688796033,248159.1142404341,12563.746065720103,9.024389789092281e-07,0.0,0.0,0.0,9.024389789092281e-07,0.0,24.586766609131576,0.5592623945345012,0.00042096895292421076,0.0
12273,2.7586206896551726,9.310344827586208,1.0714285714285714,0,170898.72122712445,324111.2017264446,284103.8345001913,136757.7919624091,-32342.218533814972,1.1393248081808297e-06,0.0,0.0,0.0,1.1393248081808297e-06,0.0,23.28760095229496,0.8673945465700962,-0.0010965075268275137,0.0
12274,2.7586206896551726,9.310344827586208,1.4285714285714286,0,454802.97208304034,555061.8356995073,325242.7216394693,31210.810333173442,-59501.95820084226,3.0320198138869355e-06,0.0,0.0,0.0,3.0320198138869355e-06,0.0,23.636937144726073,1.1805995600381587,-0.002094927727439571,0.0
12275,2.7586206896551726,9.310344827586208,1.7857142857142858,0,905474.9147085857,1021499.0330474693,383605.88218182354,-14876.331343215386,261039.95988552013,6.036499431390571e-06,0.0,0.0,0.0,6.036499431390571e-06,0.0,23.548685483881563,1.4987266626299025,0.010310425399009372,0.0
12276,2.7586206896551726,9.310344827586208,2.142857142857143,0,529832.3942670679,994416.2408055684,928914.9917427927,434878.60448176187,223450.5179280639,3.532215961780453e-06,0.0,0.0,0.0,3.532215961780453e-06,0.0,23.62121224369047,1.8166885127252215,0.011978086334956351,0.0
12277,2.7586206896551726,9.310344827586208,2.5,0,611735.2280703803,1471117.2859196293,812251.4434784391,921135.4120592272,789891.6561815172,4.078234853802535e-06,0.0,0.0,0.0,4.078234853802535e-06,0.0,23.45892115671316,2.126417231711706,0.07898916561815172,0.0
12278,2.7586206896551726,9.310344827586208,2.857142857142857,0,584764.8997245035,1252246.7146233823,600242.1144187434,774200.0495028209,350130.40039771097,3.898432664830023e-06,0.0,0.0,0.0,3.898432664830023e-06,0.0,23.710330071752775,2.4238313698680782,0.01876877352240808,0.0
12279,2.7586206896551726,9.310344827586208,3.2142857142857144,0,388177.94443880353,770365.8638304834,328604.7866803736,483777.79459785536,155499.98645702383,2.587852962925357e-06,0.0,0.0,0.0,2.587852962925357e-06,0.0,23.248137293350318,2.713012376915617,0.00614186046693859,0.0
12280,2.7586206896551726,9.310344827586208,3.5714285714285716,0,195314.17773134058,518669.4942353378,403189.9508730035,293162.07274798857,-56488.27009886564,1.3020945182089372e-06,0.0,0.0,0.0,1.3020945182089372e-06,0.0,23.547372466928636,3.0020281314667305,-0.0019888226687560374,0.0
12281,2.7586206896551726,9.310344827586208,3.928571428571429,0,137037.26381314782,363386.7741255607,266655.83310431964,206570.59840629177,71970.9756748395,9.135817587543188e-07,0.0,0.0,0.0,9.135817587543188e-07,0.0,22.678401317625106,3.2959659751415256,0.002440052665467927,0.0
12282,2.7586206896551726,9.310344827586208,4.285714285714286,0,129414.4546229056,235196.8056639882,128686.7286020104,272715.1315001569,-5404.27481039392,8.627630308193707e-07,0.0,0.0,0.0,8.627630308193707e-07,0.0,23.61056399123817,3.594976680248787,-0.00018107910621129072,0.0
12283,2.7586206896551726,9.310344827586208,4.642857142857143,0,292860.0518143529,335340.98129659455,198086.04036252716,-938.9146042369981,-9493.304066957,1.9524003454290197e-06,0.0,0.0,0.0,1.9524003454290197e-06,0.0,23.840903674216246,3.896949645346065,-0.0003169437598985243,0.0
12284,2.7586206896551726,9.310344827586208,5.0,0,129417.40891493928,397493.48044125305,281661.5161971445,257809.02777724553,-13506.385270749293,8.627827260995952e-07,0.0,0.0,0.0,8.627827260995952e-07,0.0,24.15784666285607,4.200099258607631,-0.00045042927720869975,0.0
12285,3.1034482758620694,9.310344827586208,0.0,0,379324.1681483108,511314.0996250135,276265.0924768697,73710.23445383416,-24846.68377299517,2.5288277876554052e-06,0.0,0.0,0.0,2.5288277876554052e-06,0.0,24.228343848135747,-0.04989786233623639,-0.000828620951391124,0.0
12286,3.1034482758620694,9.310344827586208,0.35714285714285715,0,277604.72811059316,410720.30431406747,273132.18212439225,91194.28166746517,-15462.165145198263,1.8506981874039545e-06,0.0,0.0,0.0,1.8506981874039545e-06,0.0,23.47061942383202,0.2541076165540226,-0.0005162203509680596,0.0
12287,3.1034482758620694,9.310344827586208,0.7142857142857143,0,135987.18363004533,377037.15830768424,262290.453754357,226833.803029592,30227.665651757387,9.065812242003022e-07,0.0,0.0,0.0,9.065812242003022e-07,0.0,24.084303534818226,0.5593238730024228,0.0010128275987273463,0.0
12288,3.1034482758620694,9.310344827586208,1.0714285714285714,0,156974.52728960756,356201.32916924474,175468.7368975969,253885.14659574005,-74348.65160353077,1.0464968485973838e-06,0.0,0.0,0.0,1.0464968485973838e-06,0.0,23.093173756842518,0.8675883115889873,-0.0025206636955814217,0.0
12289,3.1034482758620694,9.310344827586208,1.4285714285714286,0,383064.1834832322,569868.4890632088,264488.8495397017,140058.43277758633,-31394.84500888717,2.5537612232215483e-06,0.0,0.0,0.0,2.5537612232215483e-06,0.0,23.414795601102444,1.1810727530314624,-0.0011053406189723445,0.0
12290,3.1034482758620694,9.310344827586208,1.7857142857142858,0,464666.76291888085,917566.7500432242,675910.1313316209,381868.8713813966,183885.92554453138,3.0977784194592058e-06,0.0,0.0,0.0,3.0977784194592058e-06,0.0,24.488618982866175,1.4996220517787746,0.007263034050748987,0.0
12291,3.1034482758620694,9.310344827586208,2.142857142857143,0,649914.9413147435,1296408.3178125403,969879.8082312816,547974.1900216617,393531.92194404337,4.3327662754316234e-06,0.0,0.0,0.0,4.3327662754316234e-06,0.0,23.774150865548744,1.8180013047807486,0.021095316226228532,0.0
12292,3.1034482758620694,9.310344827586208,2.5,0,860173.7325971912,1410341.1399897689,1025891.8283580979,424991.08719081123,653777.0360573429,5.734491550647941e-06,0.0,0.0,0.0,5.734491550647941e-06,0.0,23.8041230922032,2.127908619711215,0.06537770360573429,0.0
12293,3.1034482758620694,9.310344827586208,2.857142857142857,0,353407.75893220835,753540.5932157626,852985.7653410063,460509.56897030707,266919.97566189844,2.356051726214722e-06,0.0,0.0,0.0,2.356051726214722e-06,0.0,23.603219405423637,2.4251441619236056,0.014308270764590255,0.0
12294,3.1034482758620694,9.310344827586208,3.2142857142857144,0,71152.37508023561,670794.2077639494,635644.9405886724,588907.3883765787,-8432.358531611244,4.743491672015707e-07,0.0,0.0,0.0,4.743491672015707e-07,0.0,24.63153048304588,2.7139077660644895,-0.0003330570676459123,0.0
12295,3.1034482758620694,9.310344827586208,3.5714285714285716,0,496830.91767225106,699873.7245013367,239681.92460900894,173115.404894465,55805.30654714591,3.312206117815007e-06,0.0,0.0,0.0,3.312206117815007e-06,0.0,23.967296715630784,3.002501324460034,0.0019647770856426393,0.0
12296,3.1034482758620694,9.310344827586208,3.928571428571429,0,329869.70982692094,530698.2663417957,306261.69908164424,151955.69504048975,-35377.63722273197,2.1991313988461398e-06,0.0,0.0,0.0,2.1991313988461398e-06,0.0,24.449109124882963,3.2961597401604164,-0.0011994181987095454,0.0
12297,3.1034482758620694,9.310344827586208,4.285714285714286,0,102151.39196740308,291340.64722440095,200234.96114217688,180905.43097227378,33853.32571681316,6.810092797826871e-07,0.0,0.0,0.0,6.810092797826871e-07,0.0,23.41548178747941,3.595038158716709,0.0011343112958079572,0.0
12298,3.1034482758620694,9.310344827586208,4.642857142857143,0,241680.19438684502,414707.4685273651,201053.18476382422,152402.99186338455,-41119.79419646243,1.6112012959123e-06,0.0,0.0,0.0,1.6112012959123e-06,0.0,23.229966059897002,3.8969647594111656,-0.00137282679317548,0.0
12299,3.1034482758620694,9.310344827586208,5.0,0,187646.92953934663,449735.5664636562,324365.9234933485,234004.31531852073,-5272.369465236583,1.250979530262311e-06,0.0,0.0,0.0,1.250979530262311e-06,0.0,23.33822083655813,4.200102137663764,-0.00017583013662040935,0.0
12300,3.4482758620689657,9.310344827586208,0.0,0,72223.10036232509,343281.4820474875,360203.90751371405,281022.11882705323,-2798.1921201254922,4.81487335748834e-07,0.0,0.0,0.0,4.81487335748834e-07,0.0,24.005630431718473,-0.04989539155445671,-9.331791066917213e-05,0.0
12301,3.4482758620689657,9.310344827586208,0.35714285714285715,0,109732.61074021712,218007.98122794484,267863.9635164554,142054.6974377515,-30530.497417232375,7.315507382681141e-07,0.0,0.0,0.0,7.315507382681141e-07,0.0,24.51954396547468,0.2541205873176866,-0.0010192921847589698,0.0
12302,3.4482758620689657,9.310344827586208,0.7142857142857143,0,323564.55216313933,414424.97913773893,418503.2426808827,92918.83549737191,3133.149579126482,2.157097014420929e-06,0.0,0.0,0.0,2.157097014420929e-06,0.0,24.075543238004972,0.5593766333069808,0.00010498132410352958,0.0
12303,3.4482758620689657,9.310344827586208,1.0714285714285714,0,36308.80423348437,352724.2674260801,310817.0156590146,332850.43405239756,-88322.17946221775,2.420586948898958e-07,0.0,0.0,0.0,2.420586948898958e-07,0.0,24.143937865217957,0.8677545990999644,-0.0029944122251501165,0.0
12304,3.4482758620689657,9.310344827586208,1.4285714285714286,0,181893.99405312102,410283.8979253951,265002.1601429217,206283.4554478556,1809.4008795493091,1.2126266270208067e-06,0.0,0.0,0.0,1.2126266270208067e-06,0.0,23.79648213811727,1.181478843282007,6.370486261690358e-05,0.0
12305,3.4482758620689657,9.310344827586208,1.7857142857142858,0,525184.0446513091,647548.8663409061,336405.5245902922,41188.279874827655,104446.32940099257,3.501226964342061e-06,0.0,0.0,0.0,3.501226964342061e-06,0.0,23.078235868636078,1.5003904672222537,0.004125368728839695,0.0
12306,3.4482758620689657,9.310344827586208,2.142857142857143,0,182375.02971038112,1005051.3613249618,933138.4673906096,797682.9742067205,303257.8209403178,1.2158335314025408e-06,0.0,0.0,0.0,1.2158335314025408e-06,0.0,24.731148360286056,1.8191279318912221,0.016256164428060382,0.0
12307,3.4482758620689657,9.310344827586208,2.5,0,406116.64293649537,1212841.4930303807,881750.9066524764,759694.0521113386,726963.8224288822,2.7074442862433026e-06,0.0,0.0,0.0,2.7074442862433026e-06,0.0,24.056409798825378,2.129188516360047,0.07269638224288823,0.0
12308,3.4482758620689657,9.310344827586208,2.857142857142857,0,113006.4635116492,850087.5574180539,862487.1728182598,743792.2632298749,405327.9866077051,7.533764234109947e-07,0.0,0.0,0.0,7.533764234109947e-07,0.0,23.990673056297258,2.426270789034079,0.021727645398092684,0.0
12309,3.4482758620689657,9.310344827586208,3.2142857142857144,0,483250.78237212286,666293.8484866853,117378.34602545637,478727.679308484,86915.8481375733,3.221671882480819e-06,0.0,0.0,0.0,3.221671882480819e-06,0.0,24.170609999121407,2.714676181507968,0.0034329585731130265,0.0
12310,3.4482758620689657,9.310344827586208,3.5714285714285716,0,119765.79060521291,315542.4670003081,364402.5066484428,452014.2959559614,-59317.5599877285,7.984386040347527e-07,0.0,0.0,0.0,7.984386040347527e-07,0.0,22.881482293910175,3.0029074147105783,-0.0020884354885078974,0.0
12311,3.4482758620689657,9.310344827586208,3.928571428571429,0,315557.6751833385,444735.24507284665,250227.7468222743,80644.89573997822,4253.048453423416,2.10371783455559e-06,0.0,0.0,0.0,2.10371783455559e-06,0.0,23.49262237155989,3.2963260276713937,0.00014419232361147498,0.0
12312,3.4482758620689657,9.310344827586208,4.285714285714286,0,74874.01502369424,174238.80668552974,171192.1518923295,97887.96732510248,-69986.48454234892,4.991601001579616e-07,0.0,0.0,0.0,4.991601001579616e-07,0.0,24.05887930418611,3.5950909190212665,-0.0023450121454639916,0.0
12313,3.4482758620689657,9.310344827586208,4.642857142857143,0,226291.1747199945,381644.97282196605,278491.08190110157,122156.62352069134,-25498.58055274706,1.50860783146663e-06,0.0,0.0,0.0,1.50860783146663e-06,0.0,23.680205003631098,3.89697773017483,-0.000851296443836918,0.0
12314,3.4482758620689657,9.310344827586208,5.0,0,319757.2800985543,479476.86991623434,371954.5767263937,119817.15267015228,-156.3329802805584,2.131715200657029e-06,0.0,0.0,0.0,2.131715200657029e-06,0.0,23.719125163277248,4.200104608445543,-5.2136045211264215e-06,0.0
12315,3.793103448275862,9.310344827586208,0.0,0,245269.91119788183,306330.32414324384,448242.39800658025,165029.3192414971,8097.874426359239,1.635132741319212e-06,0.0,0.0,0.0,1.635132741319212e-06,0.0,24.361822299001826,-0.04989336407656204,0.0002700589130010396,0.0
12316,3.793103448275862,9.310344827586208,0.35714285714285715,0,283408.31267545745,444459.2674066307,290956.813645407,117412.17717523873,-47012.34151637794,1.8893887511697164e-06,0.0,0.0,0.0,1.8893887511697164e-06,0.0,23.78448051821224,0.25413123088678774,-0.0015695555706149917,0.0
12317,3.793103448275862,9.310344827586208,0.7142857142857143,0,365085.8614671929,480143.5406285164,217684.9288846651,63214.57762630982,-11077.110247150666,2.433905743114619e-06,0.0,0.0,0.0,2.433905743114619e-06,0.0,24.919618587790815,0.5594199274384525,-0.00037115677742741697,0.0
12318,3.793103448275862,9.310344827586208,1.0714285714285714,0,113290.58049803015,135976.39648267694,219421.54278510984,90449.6928546282,32182.225790941357,7.552705366535344e-07,0.0,0.0,0.0,7.552705366535344e-07,0.0,23.7149142964663,0.8678910515602497,0.0010910832469001712,0.0
12319,3.793103448275862,9.310344827586208,1.4285714285714286,0,277214.4756673532,452796.108584842,416795.2613183917,159340.0265116443,-39875.43040524478,1.8480965044490212e-06,0.0,0.0,0.0,1.8480965044490212e-06,0.0,24.14251598830987,1.18181207344138,-0.0014039226157493375,0.0
12320,3.793103448275862,9.310344827586208,1.7857142857142858,0,119472.43325574572,284166.72320623754,334853.6773734399,420626.2964055121,-73593.84559035317,7.964828883716381e-07,0.0,0.0,0.0,7.964828883716381e-07,0.0,23.98680188101941,1.5010210147430372,-0.0029067727987635234,0.0
12321,3.793103448275862,9.310344827586208,2.142857142857143,0,623714.4051462881,967568.891569426,817063.2534620028,282372.8793736022,426245.7528848611,4.1580960343085875e-06,0.0,0.0,0.0,4.1580960343085875e-06,0.0,23.46237703700439,1.8200524212900042,0.022848944255331738,0.0
12322,3.793103448275862,9.310344827586208,2.5,0,441570.1607537643,1164356.0180264313,884707.9903317376,655300.4476688694,562934.2899280323,2.9438010716917623e-06,0.0,0.0,0.0,2.9438010716917623e-06,0.0,23.238730193444983,2.130238775911217,0.056293428992803235,0.0
12323,3.793103448275862,9.310344827586208,2.857142857142857,0,519985.43331109226,498958.6503170378,729989.040201597,134522.21220858404,310431.599837627,3.4665695554072816e-06,0.0,0.0,0.0,3.4665695554072816e-06,0.0,23.77753080767806,2.427195278432861,0.01664071553036537,0.0
12324,3.793103448275862,9.310344827586208,3.2142857142857144,0,949356.2673892368,926364.7539669,258435.90183681852,-160381.585271118,79192.26140246428,6.329041782594912e-06,0.0,0.0,0.0,6.329041782594912e-06,0.0,24.723972709586587,2.7153067290287516,0.003127896218368399,0.0
12325,3.793103448275862,9.310344827586208,3.5714285714285716,0,279472.60531230416,493641.2727980927,293516.93410937407,174335.80499663297,9476.765608156693,1.8631507020820278e-06,0.0,0.0,0.0,1.8631507020820278e-06,0.0,23.57164715938722,3.0032406448699516,0.0003336552214292027,0.0
12326,3.793103448275862,9.310344827586208,3.928571428571429,0,200869.91831994648,333570.60442292993,164081.5187773307,111699.07129141678,41302.75955491608,1.339132788799643e-06,0.0,0.0,0.0,1.339132788799643e-06,0.0,24.032638940146633,3.296462480131679,0.0014002993234172052,0.0
12327,3.793103448275862,9.310344827586208,4.285714285714286,0,367660.00241581205,504295.8027910136,227114.99468019704,87223.8426359761,-9426.377265905085,2.4510666827720805e-06,0.0,0.0,0.0,2.4510666827720805e-06,0.0,23.64935159631686,3.5951342131527384,-0.00031584625689974946,0.0
12328,3.793103448275862,9.310344827586208,4.642857142857143,0,233214.7064411233,249144.8945759166,343437.8000936358,77840.58565794164,2655.4629225109643,1.5547647096074888e-06,0.0,0.0,0.0,1.5547647096074888e-06,0.0,23.893441304683094,3.896988373743931,8.86553719332754e-05,0.0
12329,3.793103448275862,9.310344827586208,5.0,0,238890.70288662013,293128.4254543287,367772.5949044607,100472.35056203365,-65799.8091763221,1.592604685910801e-06,0.0,0.0,0.0,1.592604685910801e-06,0.0,24.358402164168933,4.200106635923438,-0.0021943813902560844,0.0
12330,4.137931034482759,9.310344827586208,0.0,0,175249.11641652204,200233.8382264408,275373.42916642455,75083.67729955855,23289.71528787882,1.1683274427768136e-06,0.0,0.0,0.0,1.1683274427768136e-06,0.0,23.80157118111236,-0.049891811683883444,0.0007766970520406077,0.0
12331,4.137931034482759,9.310344827586208,0.35714285714285715,0,373712.7444350514,504368.2724925101,217264.73682116444,81818.50250102022,-25636.60707345306,2.491418296233676e-06,0.0,0.0,0.0,2.491418296233676e-06,0.0,23.44114881579493,0.25413938042015144,-0.0008559046017690481,0.0
12332,4.137931034482759,9.310344827586208,0.7142857142857143,0,340289.9309141982,396711.441433031,378540.1546857752,47699.93800304968,120196.3117663118,2.2685995394279883e-06,0.0,0.0,0.0,2.2685995394279883e-06,0.0,24.556575377971843,0.5594530767481931,0.004027374896383355,0.0
12333,4.137931034482759,9.310344827586208,1.0714285714285714,0,384432.2958842288,433783.5267313999,223537.82029595002,-9918.338406605153,-7940.605466265934,2.562881972561525e-06,0.0,0.0,0.0,2.562881972561525e-06,0.0,23.455831230291043,0.8679955300361334,-0.00026921262844801076,0.0
12334,4.137931034482759,9.310344827586208,1.4285714285714286,0,425379.2597809579,472178.21780262835,210597.44930470112,-18652.637526769508,24499.412816451066,2.8358617318730525e-06,0.0,0.0,0.0,2.8358617318730525e-06,0.0,24.101388941972438,1.1820672200257434,0.0008625682375348317,0.0
12335,4.137931034482759,9.310344827586208,1.7857142857142858,0,161523.35417101005,711191.0602060761,535454.884197867,569217.6002490651,107887.2772839049,1.076822361140067e-06,0.0,0.0,0.0,1.076822361140067e-06,0.0,23.022428663377276,1.5015038103174514,0.004261277562353942,0.0
12336,4.137931034482759,9.310344827586208,2.142857142857143,0,521291.86531831935,959990.7436018144,748194.151520724,366135.62412892905,348122.38535494346,3.475279102122129e-06,0.0,0.0,0.0,3.475279102122129e-06,0.0,24.41485240637883,1.8207602813253114,0.018661133684437763,0.0
12337,4.137931034482759,9.310344827586208,2.5,0,464558.3989092898,1172440.1739030436,657836.1898904954,783983.4613337163,690301.989355875,3.0970559927285987e-06,0.0,0.0,0.0,3.0970559927285987e-06,0.0,25.079555380438237,2.1310429352276485,0.06903019893558748,0.0
12338,4.137931034482759,9.310344827586208,2.857142857142857,0,538454.9645718174,965572.4660032806,680608.5077845053,344519.2740537837,569695.8781557931,3.5896997638121163e-06,0.0,0.0,0.0,3.5896997638121163e-06,0.0,23.768452574778163,2.4279031384681686,0.030538601908345956,0.0
12339,4.137931034482759,9.310344827586208,3.2142857142857144,0,299031.7377925877,560326.5839970148,503004.2624879178,236783.08433445246,19114.807177615505,1.9935449186172513e-06,0.0,0.0,0.0,1.9935449186172513e-06,0.0,23.27366193618062,2.715789524603166,0.000754987065994357,0.0
12340,4.137931034482759,9.310344827586208,3.5714285714285716,0,204271.7291115432,441213.9871810078,329899.2770066662,205463.00147820023,-94309.52931033936,1.361811527410288e-06,0.0,0.0,0.0,1.361811527410288e-06,0.0,24.1751828038988,3.003495791454315,-0.003320422619489659,0.0
12341,4.137931034482759,9.310344827586208,3.928571428571429,0,174811.74684654706,404212.05941666523,303445.9410673564,202356.92730395708,-49686.71992602505,1.165411645643647e-06,0.0,0.0,0.0,1.165411645643647e-06,0.0,23.84159236864744,3.2965669586075625,-0.0016845431405793732,0.0
12342,4.137931034482759,9.310344827586208,4.285714285714286,0,280773.1796004042,380210.35515968606,222766.31909868462,56045.65539974894,37101.906575235196,1.871821197336028e-06,0.0,0.0,0.0,1.871821197336028e-06,0.0,24.871638793902058,3.595167362462479,0.0012431603345664604,0.0
12343,4.137931034482759,9.310344827586208,4.642857142857143,0,162989.14750889898,261209.8502508636,298587.9668360342,120156.55502977777,-17763.50542663064,1.0865943167259932e-06,0.0,0.0,0.0,1.0865943167259932e-06,0.0,23.506031295926476,3.8969965232772945,-0.0005930529728306507,0.0
12344,4.137931034482759,9.310344827586208,5.0,0,95427.09566346242,271003.62705668306,260811.88929721052,170889.7233212142,86450.64585785865,6.361806377564161e-07,0.0,0.0,0.0,6.361806377564161e-07,0.0,23.141895737912627,4.200108188316117,0.0028830735350273535,0.0
12345,4.482758620689656,9.310344827586208,0.0,0,366552.34226505936,427917.70793758775,213028.0584990659,4676.352928421464,25575.599939000473,2.4436822817670624e-06,0.0,0.0,0.0,2.4436822817670624e-06,0.0,23.911527521401602,-0.04989076078145035,0.0008529298375377792,0.0
12346,4.482758620689656,9.310344827586208,0.35714285714285715,0,99757.7280513468,330210.46183119,228966.87240984602,232008.1458247376,-22974.130809241273,6.65051520342312e-07,0.0,0.0,0.0,6.65051520342312e-07,0.0,24.056034091377104,0.25414489730035744,-0.0007670150821804956,0.0
12347,4.482758620689656,9.310344827586208,0.7142857142857143,0,167332.1243759756,394208.34968164697,240143.50203040798,216190.49677426656,-27471.62052138649,1.1155474958398374e-06,0.0,0.0,0.0,1.1155474958398374e-06,0.0,23.384619342592572,0.5594755173914288,-0.0009204817787246873,0.0
12348,4.482758620689656,9.310344827586208,1.0714285714285714,0,252767.52394502735,284191.694753204,149417.68912508327,-7401.45587244833,-15993.851123213906,1.6851168263001824e-06,0.0,0.0,0.0,1.6851168263001824e-06,0.0,24.254087523181514,0.8680662574274864,-0.0005422441296420888,0.0
12349,4.482758620689656,9.310344827586208,1.4285714285714286,0,181887.64873952672,298059.63499974547,241985.1431325357,94737.32043401457,-81924.60302704119,1.212584324930178e-06,0.0,0.0,0.0,1.212584324930178e-06,0.0,23.806545320565036,1.182239943184002,-0.002884377718486566,0.0
12350,4.482758620689656,9.310344827586208,1.7857142857142858,0,221421.35047170788,503179.263088666,431571.809349649,254815.67671723792,80572.98444544489,1.4761423364780525e-06,0.0,0.0,0.0,1.4761423364780525e-06,0.0,23.647900680840742,1.5018306419566607,0.0031824313245551613,0.0
12351,4.482758620689656,9.310344827586208,2.142857142857143,0,423222.3150000763,856899.9315518729,385454.88571981416,509724.2593562925,400442.13175789604,2.821482100000509e-06,0.0,0.0,0.0,2.821482100000509e-06,0.0,24.06040862792133,1.8212394718314613,0.02146573868266534,0.0
12352,4.482758620689656,9.310344827586208,2.5,0,266442.80215123884,914843.5424499264,607821.1111000458,744165.8826408588,506785.96992456005,1.7762853476749255e-06,0.0,0.0,0.0,1.7762853476749255e-06,0.0,23.64898073402876,2.1315873161654686,0.050678596992456,0.0
12353,4.482758620689656,9.310344827586208,2.857142857142857,0,850167.9486790003,1128905.2148350615,1055493.5763380772,244411.92843401092,199097.01600809136,5.667786324526668e-06,0.0,0.0,0.0,5.667786324526668e-06,0.0,23.4300138625154,2.428382328974318,0.010672614540749695,0.0
12354,4.482758620689656,9.310344827586208,3.2142857142857144,0,302264.26192619855,627039.4076465416,287004.87362693256,525184.2326919262,8644.470064731184,2.0150950795079903e-06,0.0,0.0,0.0,2.0150950795079903e-06,0.0,22.99530909948968,2.716116356242375,0.0003414349425868284,0.0
12355,4.482758620689656,9.310344827586208,3.5714285714285716,0,374520.2178170664,578813.8872166261,263353.4745983624,164902.2225488164,47450.111750753305,2.496801452113776e-06,0.0,0.0,0.0,2.496801452113776e-06,0.0,23.498371861895613,3.0036685146125737,0.0016706098048274354,0.0
12356,4.482758620689656,9.310344827586208,3.928571428571429,0,238195.71596688902,393023.29574152466,193899.34895680935,129146.26075213245,29439.25365230757,1.58797143977926e-06,0.0,0.0,0.0,1.58797143977926e-06,0.0,25.059020040513694,3.296637685998916,0.0009980874744318893,0.0
12357,4.482758620689656,9.310344827586208,4.285714285714286,0,57094.19153714092,182639.9703781878,238804.59818992944,180824.16320001494,7604.916215244249,3.8062794358093944e-07,0.0,0.0,0.0,3.8062794358093944e-07,0.0,23.834416987038505,3.595189803105715,0.00025481521191699044,0.0
12358,4.482758620689656,9.310344827586208,4.642857142857143,0,251393.06028461477,426116.7182162702,188928.3888911568,162592.42182385162,57762.87723865223,1.6759537352307651e-06,0.0,0.0,0.0,1.6759537352307651e-06,0.0,23.312629948081128,3.8970020401575005,0.001928473307654589,0.0
12359,4.482758620689656,9.310344827586208,5.0,0,79977.42772346908,245547.19790311385,229107.39218355805,158627.3043432719,-59412.25107949661,5.331828514897939e-07,0.0,0.0,0.0,5.331828514897939e-07,0.0,24.45933661056313,4.20010923921855,-0.001981360428762212,0.0
12360,4.827586206896552,9.310344827586208,0.0,0,140995.05173418493,347705.43459249515,184900.12176088608,265649.17365030176,-6926.0856860678105,9.399670115612329e-07,0.0,0.0,0.0,9.399670115612329e-07,0.0,23.743994003552533,-0.04989023035716538,-0.00023098051084159343,0.0
12361,4.827586206896552,9.310344827586208,0.35714285714285715,0,143736.68050599357,280938.089934691,302867.03422981757,149425.9872551691,18624.221052389075,9.582445367066239e-07,0.0,0.0,0.0,9.582445367066239e-07,0.0,23.918234462674693,0.25414768184737757,0.0006217888528474733,0.0
12362,4.827586206896552,9.310344827586208,0.7142857142857143,0,355479.345170727,476429.6632218908,238900.62462701608,67750.44662341152,26344.054627094978,2.36986230113818e-06,0.0,0.0,0.0,2.36986230113818e-06,0.0,23.914121524220494,0.5594868439064007,0.0008827008309571997,0.0
12363,4.827586206896552,9.310344827586208,1.0714285714285714,0,326698.913955567,442527.8606876592,171595.2114783092,79731.80843160671,27837.15031195804,2.17799275970378e-06,0.0,0.0,0.0,2.17799275970378e-06,0.0,24.524346185854018,0.8681019558185117,0.0009437709046018993,0.0
12364,4.827586206896552,9.310344827586208,1.4285714285714286,0,66279.75606356957,340056.6972319712,346654.47484590905,277322.57867319876,33925.07536897883,4.4186504042379714e-07,0.0,0.0,0.0,4.4186504042379714e-07,0.0,23.122090472602814,1.1823271221216762,0.0011944242373681238,0.0
12365,4.827586206896552,9.310344827586208,1.7857142857142858,0,258905.59696048775,557418.3895770161,290768.09524008573,307023.504495682,135724.68613352033,1.7260373130699183e-06,0.0,0.0,0.0,1.7260373130699183e-06,0.0,24.520847534289814,1.501995604405193,0.005360785573968541,0.0
12366,4.827586206896552,9.310344827586208,2.142857142857143,0,721316.9067476185,888912.9887409658,328121.28639487695,75194.92736588579,384132.94175257254,4.808779378317456e-06,0.0,0.0,0.0,4.808779378317456e-06,0.0,24.16849011746164,1.8214813347043433,0.020591482996223553,0.0
12367,4.827586206896552,9.310344827586208,2.5,0,947380.2354266937,1169321.8354452446,697387.0047659895,78668.83629660917,460235.69695540733,6.315868236177958e-06,0.0,0.0,0.0,6.315868236177958e-06,0.0,23.839286695059776,2.1318620827475976,0.046023569695540736,0.0
12368,4.827586206896552,9.310344827586208,2.857142857142857,0,544049.6298938078,852396.7705148044,916483.4972137788,343228.8365105247,281081.8595384452,3.6269975326253853e-06,0.0,0.0,0.0,3.6269975326253853e-06,0.0,23.37839906914071,2.4286241918472,0.015067419901105187,0.0
12369,4.827586206896552,9.310344827586208,3.2142857142857144,0,229366.5282332296,454742.32103797555,191311.14179934683,299319.88372703386,-36714.93610612061,1.5291101882215307e-06,0.0,0.0,0.0,1.5291101882215307e-06,0.0,23.686676066620834,2.716281318690908,-0.0014501481302616076,0.0
12370,4.827586206896552,9.310344827586208,3.5714285714285716,0,210900.45549212865,341994.25216912647,173216.53730016638,105570.64755658734,44801.83668607526,1.406003036614191e-06,0.0,0.0,0.0,1.406003036614191e-06,0.0,23.836016023899095,3.003755693550248,0.0015773701026288221,0.0
12371,4.827586206896552,9.310344827586208,3.928571428571429,0,299070.093268133,343290.99558516196,292232.69922209816,21978.635461528884,41265.98599757568,1.9938006217875533e-06,0.0,0.0,0.0,1.9938006217875533e-06,0.0,24.723966624774675,3.296673384389941,0.0013990525789377,0.0
12372,4.827586206896552,9.310344827586208,4.285714285714286,0,313070.9010714708,415847.739665286,190611.49843665908,58352.372607774996,-40695.62356732068,2.087139340476472e-06,0.0,0.0,0.0,2.087139340476472e-06,0.0,24.541826993336564,3.5952011296206865,-0.0013635737265078917,0.0
12373,4.827586206896552,9.310344827586208,4.642857142857143,0,106432.01159359382,360892.8709295746,273400.37813911436,242403.2577996145,-12631.91568660036,7.095467439572922e-07,0.0,0.0,0.0,7.095467439572922e-07,0.0,23.63518753988602,3.8970048247045206,-0.00042172955002752697,0.0
12374,4.827586206896552,9.310344827586208,5.0,0,109889.82031472835,280966.85602006654,176993.33100988602,165988.80696261802,-58346.89969106833,7.32598802098189e-07,0.0,0.0,0.0,7.32598802098189e-07,0.0,24.838457371767255,4.200109769642835,-0.001945831643950907,0.0
12375,5.172413793103448,9.310344827586208,0.0,0,149967.7960371357,354007.16120467253,228257.01177643708,188027.69867258522,-3792.2590671128905,9.99785306914238e-07,0.0,0.0,0.0,9.99785306914238e-07,0.0,24.24296042905141,-0.04989023035716538,-0.0001264694051255236,0.0
12376,5.172413793103448,9.310344827586208,0.35714285714285715,0,115756.07464572418,289174.19706143386,328758.1946759006,198402.6432528532,-25920.744905836684,7.717071643048279e-07,0.0,0.0,0.0,7.717071643048279e-07,0.0,24.007888228258075,0.25414768184737757,-0.0008653908367289645,0.0
12377,5.172413793103448,9.310344827586208,0.7142857142857143,0,259737.15347864444,370428.4290368786,144979.69148946175,86405.9605921701,-36712.31441213428,1.7315810231909629e-06,0.0,0.0,0.0,1.7315810231909629e-06,0.0,23.636336832719067,0.5594868439064007,-0.00123010640908037,0.0
12378,5.172413793103448,9.310344827586208,1.0714285714285714,0,331066.0404188426,487671.75492400635,293092.5095791188,105410.35982599191,-594.6655363157765,2.2071069361256173e-06,0.0,0.0,0.0,2.2071069361256173e-06,0.0,23.493069233117886,0.8681019558185117,-2.0161116524317023e-05,0.0
12379,5.172413793103448,9.310344827586208,1.4285714285714286,0,196455.15029896013,349444.6673367773,314699.76515644847,137935.0999902243,75576.47425409559,1.3097010019930674e-06,0.0,0.0,0.0,1.3097010019930674e-06,0.0,24.057743394824854,1.1823271221216762,0.002660874637480193,0.0
12380,5.172413793103448,9.310344827586208,1.7857142857142858,0,388824.1315230352,625731.6843599036,216869.90875049154,260651.3596163099,99683.99758982893,2.5921608768202344e-06,0.0,0.0,0.0,2.5921608768202344e-06,0.0,23.983049969645215,1.501995604405193,0.003937268535728013,0.0
12381,5.172413793103448,9.310344827586208,2.142857142857143,0,172680.92843318195,679875.9475017774,648602.5747513049,493695.4686210583,281233.80060107727,1.1512061895545463e-06,0.0,0.0,0.0,1.1512061895545463e-06,0.0,23.600619092461592,1.8214813347043433,0.01507556471626564,0.0
12382,5.172413793103448,9.310344827586208,2.5,0,224577.99802090562,918997.8071258094,671763.1315026187,727619.5766680893,537874.7601779919,1.4971866534727041e-06,0.0,0.0,0.0,1.4971866534727041e-06,0.0,24.357620994263446,2.1318620827475976,0.05378747601779919,0.0
12383,5.172413793103448,9.310344827586208,2.857142857142857,0,311092.1976469984,803711.9978811401,573848.2151459141,449718.74100912624,451422.97838588577,2.0739479843133227e-06,0.0,0.0,0.0,2.0739479843133227e-06,0.0,23.887080370494775,2.4286241918472,0.024198571830699563,0.0
12384,5.172413793103448,9.310344827586208,3.2142857142857144,0,185399.93572838238,518384.88421173434,413787.31106985663,304321.9268930354,124680.63155279071,1.2359995715225492e-06,0.0,0.0,0.0,1.2359995715225492e-06,0.0,24.019117164198345,2.716281318690908,0.004924573045790334,0.0
12385,5.172413793103448,9.310344827586208,3.5714285714285716,0,299824.9415548494,561907.5139694765,237143.22016313503,295645.0961785182,-6963.164190997872,1.9988329436989957e-06,0.0,0.0,0.0,1.9988329436989957e-06,0.0,24.3512154072529,3.003755693550248,-0.0002451570700446172,0.0
12386,5.172413793103448,9.310344827586208,3.928571428571429,0,163996.39289796437,304083.80813060194,231305.1700207968,116293.46774590448,16443.139714977795,1.093309285986429e-06,0.0,0.0,0.0,1.093309285986429e-06,0.0,24.232870353480564,3.296673384389941,0.0005574764898486639,0.0
12387,5.172413793103448,9.310344827586208,4.285714285714286,0,136772.29514783891,351338.75903876405,235287.66477695497,200545.9312509108,-31394.682635265868,9.118153009855927e-07,0.0,0.0,0.0,9.118153009855927e-07,0.0,23.014432727775336,3.5952011296206865,-0.0010519304200532866,0.0
12388,5.172413793103448,9.310344827586208,4.642857142857143,0,93047.81073622764,192442.39041171057,266170.8995673338,161623.74252463283,776.0496919868967,6.203187382415176e-07,0.0,0.0,0.0,6.203187382415176e-07,0.0,24.210013277444805,3.8970048247045206,2.590922038434828e-05,0.0
12389,5.172413793103448,9.310344827586208,5.0,0,199742.04927216977,340445.9582874247,123646.07464363576,163889.98895162964,23948.230952083137,1.3316136618144652e-06,0.0,0.0,0.0,1.3316136618144652e-06,0.0,23.84776955977853,4.200109769642835,0.0007986581266517795,0.0
12390,5.517241379310345,9.310344827586208,0.0,0,228254.73241827975,362964.164483402,283116.9717573687,105512.31195197566,30148.771620195923,1.521698216121865e-06,0.0,0.0,0.0,1.521698216121865e-06,0.0,23.536077612571148,-0.04989076078145035,0.0010054421769697998,0.0
12391,5.517241379310345,9.310344827586208,0.35714285714285715,0,198257.8107421767,264348.55088048393,138587.8346662996,35804.85581179277,-18918.03985510976,1.3217187382811779e-06,0.0,0.0,0.0,1.3217187382811779e-06,0.0,23.79043146106414,0.25414489730035744,-0.0006315982969995162,0.0
12392,5.517241379310345,9.310344827586208,0.7142857142857143,0,109612.65358747463,147632.13942497512,252694.56282304987,139037.6673341319,29703.87160800604,7.307510239164975e-07,0.0,0.0,0.0,7.307510239164975e-07,0.0,23.616030944739236,0.5594755173914288,0.0009952770187496459,0.0
12393,5.517241379310345,9.310344827586208,1.0714285714285714,0,138279.475412665,303086.2100410836,218666.4589218509,143504.30827365688,4729.842703607288,9.218631694177666e-07,0.0,0.0,0.0,9.218631694177666e-07,0.0,23.83722229572542,0.8680662574274864,0.00016035721605780118,0.0
12394,5.517241379310345,9.310344827586208,1.4285714285714286,0,232051.66477091154,356182.02431364864,157521.08135258596,101132.74398422598,-5779.832172739675,1.5470110984727435e-06,0.0,0.0,0.0,1.5470110984727435e-06,0.0,23.768194583921634,1.182239943184002,-0.0002034946587429832,0.0
12395,5.517241379310345,9.310344827586208,1.7857142857142858,0,337207.9515952572,582112.1683389879,409643.9115432928,193553.33384278,150643.8435940729,2.2480530106350483e-06,0.0,0.0,0.0,2.2480530106350483e-06,0.0,24.12714075175186,1.5018306419566607,0.005950054971958646,0.0
12396,5.517241379310345,9.310344827586208,2.142857142857143,0,801873.8004716446,1056344.5647237266,384904.8828852282,168466.9953225689,256991.05507143424,5.345825336477631e-06,0.0,0.0,0.0,5.345825336477631e-06,0.0,23.0221217054619,1.8212394718314613,0.013776030028930861,0.0
12397,5.517241379310345,9.310344827586208,2.5,0,614830.3639087339,819039.8391702347,809971.6519834106,199725.53902328954,413250.7573881428,4.098869092724893e-06,0.0,0.0,0.0,4.098869092724893e-06,0.0,23.884677709978032,2.1315873161654686,0.041325075738814276,0.0
12398,5.517241379310345,9.310344827586208,2.857142857142857,0,342541.1257007984,624340.0452470378,420248.21104835614,228875.80014749596,233479.08782732213,2.2836075046719895e-06,0.0,0.0,0.0,2.2836075046719895e-06,0.0,23.783200876315604,2.428382328974318,0.01251566878132209,0.0
12399,5.517241379310345,9.310344827586208,3.2142857142857144,0,279571.20971961017,389806.8719024061,203900.71407623927,68294.74883263104,90459.55692655628,1.8638080647974011e-06,0.0,0.0,0.0,1.8638080647974011e-06,0.0,24.92803927931967,2.716116356242375,0.003572926205350813,0.0
12400,5.517241379310345,9.310344827586208,3.5714285714285716,0,262826.23109170864,369024.18160608894,357364.84710549406,100562.3139516433,-30562.444053756364,1.7521748739447244e-06,0.0,0.0,0.0,1.7521748739447244e-06,0.0,22.82839705105861,3.0036685146125737,-0.0010760336869993726,0.0
12401,5.517241379310345,9.310344827586208,3.928571428571429,0,148497.68670259035,334730.931673635,224890.16845044144,165780.650443866,25528.461156422523,9.89984578017269e-07,0.0,0.0,0.0,9.89984578017269e-07,0.0,24.272744903176473,3.296637685998916,0.0008654987528785108,0.0
12402,5.517241379310345,9.310344827586208,4.285714285714286,0,56782.904951227676,264121.72535791784,258953.9331204944,204931.56865573995,-25299.639723678676,3.7855269967485117e-07,0.0,0.0,0.0,3.7855269967485117e-07,0.0,24.0331414820734,3.595189803105715,-0.0008477059937478406,0.0
12403,5.517241379310345,9.310344827586208,4.642857142857143,0,160433.7933269642,341558.33605366043,156545.5135521042,240885.30531959547,-2218.6124540049527,1.0695586221797613e-06,0.0,0.0,0.0,1.0695586221797613e-06,0.0,24.204353995023407,3.8970020401575005,-7.407066791187471e-05,0.0
12404,5.517241379310345,9.310344827586208,5.0,0,228186.88552871387,322976.3811434703,95035.81189290127,94543.97442275511,65304.21954608175,1.521245903524759e-06,0.0,0.0,0.0,1.521245903524759e-06,0.0,23.602270178899335,4.20010923921855,0.00217785379427341,0.0
12405,5.862068965517242,9.310344827586208,0.0,0,106895.32158059477,281877.0857126994,289253.21441614686,178860.86561514993,-24662.41963501915,7.126354772039651e-07,0.0,0.0,0.0,7.126354772039651e-07,0.0,23.903764222107455,-0.049891811683883444,-0.0008224758606936321,0.0
12406,5.862068965517242,9.310344827586208,0.35714285714285715,0,86667.78224625335,229068.20542215838,195301.98546361102,130599.64164279093,-56463.789483464214,5.777852149750223e-07,0.0,0.0,0.0,5.777852149750223e-07,0.0,23.821530504044215,0.25413938042015144,-0.0018851019213950312,0.0
12407,5.862068965517242,9.310344827586208,0.7142857142857143,0,142083.5735228979,253384.68240546586,223841.7574614265,98852.1611425588,38349.461603161675,9.47223823485986e-07,0.0,0.0,0.0,9.47223823485986e-07,0.0,25.521577633303416,0.5594530767481931,0.0012849617153866675,0.0
12408,5.862068965517242,9.310344827586208,1.0714285714285714,0,96877.3927870445,148505.21827009504,240162.41064585658,138796.00258570467,-40269.00009096064,6.458492852469633e-07,0.0,0.0,0.0,6.458492852469633e-07,0.0,23.603656321756446,0.8679955300361334,-0.0013652514793130299,0.0
12409,5.862068965517242,9.310344827586208,1.4285714285714286,0,141213.4237820563,351556.17721924034,212487.2173284261,208291.78914683263,-23054.440787597694,9.414228252137087e-07,0.0,0.0,0.0,9.414228252137087e-07,0.0,23.370487445991696,1.1820672200257434,-0.0008116940804457178,0.0
12410,5.862068965517242,9.310344827586208,1.7857142857142858,0,296941.2829010437,483452.8309848098,358403.08490928024,144439.1765367464,85704.60984938004,1.9796085526736247e-06,0.0,0.0,0.0,1.9796085526736247e-06,0.0,24.768286828967952,1.5015038103174514,0.0033851176907580146,0.0
12411,5.862068965517242,9.310344827586208,2.142857142857143,0,522062.8508192214,739388.1388031705,725917.5825887478,210720.36669702438,317808.5906481942,3.4804190054614762e-06,0.0,0.0,0.0,3.4804190054614762e-06,0.0,23.944440047677528,1.8207602813253114,0.01703615982667083,0.0
12412,5.862068965517242,9.310344827586208,2.5,0,568527.3444588443,922937.8706309581,581423.6601214808,266640.4741412987,284715.13968791417,3.790182296392295e-06,0.0,0.0,0.0,3.790182296392295e-06,0.0,24.034224725810585,2.1310429352276485,0.02847151396879142,0.0
12413,5.862068965517242,9.310344827586208,2.857142857142857,0,517842.5443216386,767510.5809656664,633025.0214683651,195692.60719284296,244291.8259210505,3.452283628810924e-06,0.0,0.0,0.0,3.452283628810924e-06,0.0,24.34543484443521,2.4279031384681686,0.013095286638576937,0.0
12414,5.862068965517242,9.310344827586208,3.2142857142857144,0,281618.02153038624,470302.14582517906,145117.66648118835,307680.8196899121,91642.05272037853,1.8774534768692415e-06,0.0,0.0,0.0,1.8774534768692415e-06,0.0,23.82508343491993,2.715789524603166,0.003619631831080274,0.0
12415,5.862068965517242,9.310344827586208,3.5714285714285716,0,242985.23774632896,338992.09718436096,310461.749425791,83001.16918437555,72322.23777556853,1.6199015849755263e-06,0.0,0.0,0.0,1.6199015849755263e-06,0.0,23.581874837235233,3.003495791454315,0.0025463004211577597,0.0
12416,5.862068965517242,9.310344827586208,3.928571428571429,0,113396.5276423306,207753.67220376836,114285.88227303038,81605.66221194185,-35604.0043608549,7.559768509488707e-07,0.0,0.0,0.0,7.559768509488707e-07,0.0,23.862391551297108,3.2965669586075625,-0.0012070927888282992,0.0
12417,5.862068965517242,9.310344827586208,4.285714285714286,0,120752.40479564073,247672.40732520257,252895.26532595005,129616.1746275957,29955.42169014961,8.050160319709382e-07,0.0,0.0,0.0,8.050160319709382e-07,0.0,23.380481526059842,3.595167362462479,0.0010037056175237734,0.0
12418,5.862068965517242,9.310344827586208,4.642857142857143,0,137248.16112652366,282337.58712983335,217498.80744154786,124682.39082838113,-18503.726108769184,9.14987740843491e-07,0.0,0.0,0.0,9.14987740843491e-07,0.0,23.079428992527795,3.8969965232772945,-0.0006177660047210157,0.0
12419,5.862068965517242,9.310344827586208,5.0,0,132148.67747805786,238332.33153694082,190261.3281347609,88876.90744259446,29109.33988026626,8.809911831870524e-07,0.0,0.0,0.0,8.809911831870524e-07,0.0,23.38887087281621,4.200108188316117,0.0009707777957946044,0.0
12420,6.206896551724139,9.310344827586208,0.0,0,124050.70653259572,311854.5821687026,180956.77592863765,196028.09442624112,-27681.52066704146,8.270047102173048e-07,0.0,0.0,0.0,8.270047102173048e-07,0.0,22.540191380958557,-0.04989336407656204,-0.0009231609417433307,0.0
12421,6.206896551724139,9.310344827586208,0.35714285714285715,0,138575.43387083,231076.55856050306,172841.3112318256,72886.69601841574,-6121.967436839492,9.238362258055333e-07,0.0,0.0,0.0,9.238362258055333e-07,0.0,23.543667329808436,0.25413123088678774,-0.0002043882049624682,0.0
12422,6.206896551724139,9.310344827586208,0.7142857142857143,0,162985.92783424992,278532.953997309,143067.12790918062,97657.78472822945,10346.82160270408,1.0865728522283329e-06,0.0,0.0,0.0,1.0865728522283329e-06,0.0,23.48062554920749,0.5594199274384525,0.0003466872566032152,0.0
12423,6.206896551724139,9.310344827586208,1.0714285714285714,0,243332.50149732633,281473.99614376924,181211.78978937786,4029.6206579412847,26423.86622128016,1.6222166766488423e-06,0.0,0.0,0.0,1.6222166766488423e-06,0.0,24.03713885974495,0.8678910515602497,0.0008958559280410418,0.0
12424,6.206896551724139,9.310344827586208,1.4285714285714286,0,257785.37910758393,367359.982361653,364916.66959575366,108361.63124334377,22247.92645106252,1.7185691940505594e-06,0.0,0.0,0.0,1.7185691940505594e-06,0.0,23.804599150325927,1.18181207344138,0.0007832985570499659,0.0
12425,6.206896551724139,9.310344827586208,1.7857142857142858,0,436860.3290261384,540386.9654966748,439789.1527236803,62002.778907981046,28578.837198481273,2.9124021935075892e-06,0.0,0.0,0.0,2.9124021935075892e-06,0.0,23.675190111568494,1.5010210147430372,0.0011287925766407531,0.0
12426,6.206896551724139,9.310344827586208,2.142857142857143,0,551456.1902999505,772582.4752255632,356709.73639752343,147044.22764899954,221797.03980455725,3.67637460199967e-06,0.0,0.0,0.0,3.67637460199967e-06,0.0,24.33830366810237,1.8200524212900042,0.011889451482372568,0.0
12427,6.206896551724139,9.310344827586208,2.5,0,538437.4038283984,462018.0597934448,601500.8132924866,7046.887666240356,602586.958449433,3.589582692189323e-06,0.0,0.0,0.0,3.589582692189323e-06,0.0,23.545683374282962,2.130238775911217,0.0602586958449433,0.0
12428,6.206896551724139,9.310344827586208,2.857142857142857,0,597752.2990616817,840439.56806428,487912.6398822085,150268.1504315515,274676.83858684025,3.985015327077878e-06,0.0,0.0,0.0,3.985015327077878e-06,0.0,23.204085780861945,2.427195278432861,0.014724078141833779,0.0
12429,6.206896551724139,9.310344827586208,3.2142857142857144,0,373575.0154750108,597762.6016760119,307494.50435501686,176283.45002761707,26461.339651230537,2.4905001031667386e-06,0.0,0.0,0.0,2.4905001031667386e-06,0.0,22.499946163456297,2.7153067290287516,0.001045156720647331,0.0
12430,6.206896551724139,9.310344827586208,3.5714285714285716,0,158294.29375587482,288828.15286704886,159647.62888706638,112249.5986145891,21216.91852818386,1.0552952917058322e-06,0.0,0.0,0.0,1.0552952917058322e-06,0.0,23.78081552232123,3.0032406448699516,0.0007469991284234673,0.0
12431,6.206896551724139,9.310344827586208,3.928571428571429,0,176432.81262085983,288079.94107152655,217072.8861223054,87207.02108461897,17307.94923397305,1.1762187508057321e-06,0.0,0.0,0.0,1.1762187508057321e-06,0.0,23.746675541986196,3.296462480131679,0.0005867963754297637,0.0
12432,6.206896551724139,9.310344827586208,4.285714285714286,0,136735.6381436436,219415.60172785827,232065.43212628574,89444.43818040482,-36130.262762584556,9.11570920957624e-07,0.0,0.0,0.0,9.11570920957624e-07,0.0,24.412466842372094,3.5951342131527384,-0.0012106038123089098,0.0
12433,6.206896551724139,9.310344827586208,4.642857142857143,0,74736.78685138625,162427.65087938486,141907.6954813649,79574.38229397827,12941.414421696036,4.982452456759083e-07,0.0,0.0,0.0,4.982452456759083e-07,0.0,23.34886446919486,3.896988373743931,0.00043206248491439026,0.0
12434,6.206896551724139,9.310344827586208,5.0,0,163497.70646060695,226769.10827996596,290322.8344210991,104590.8060001547,-40082.72698042513,1.0899847097373797e-06,0.0,0.0,0.0,1.0899847097373797e-06,0.0,24.162415884699747,4.200106635923438,-0.0013367332102873543,0.0
12435,6.551724137931035,9.310344827586208,0.0,0,148117.47587146994,228384.11574089885,257170.7462347972,96773.03349537076,-16511.075147710628,9.87449839143133e-07,0.0,0.0,0.0,9.87449839143133e-07,0.0,22.449591632262486,-0.04989539155445671,-0.0005506337554895794,0.0
12436,6.551724137931035,9.310344827586208,0.35714285714285715,0,109363.36683619309,237919.5940913047,207342.72482924233,116522.07735442455,-25258.13381200922,7.290891122412873e-07,0.0,0.0,0.0,7.290891122412873e-07,0.0,23.04625544135397,0.2541205873176866,-0.0008432688810908715,0.0
12437,6.551724137931035,9.310344827586208,0.7142857142857143,0,105238.78651809559,207640.89632036063,116549.7998641557,92438.9679278678,-3315.082613543659,7.015919101206373e-07,0.0,0.0,0.0,7.015919101206373e-07,0.0,23.892343082037673,0.5593766333069808,-0.00011107728931965987,0.0
12438,6.551724137931035,9.310344827586208,1.0714285714285714,0,134324.7253415209,225860.52455213727,206529.64806895738,82917.66981071769,-11399.786726339356,8.954981689434728e-07,0.0,0.0,0.0,8.954981689434728e-07,0.0,24.049973599162104,0.8677545990999644,-0.00038649024452637134,0.0
12439,6.551724137931035,9.310344827586208,1.4285714285714286,0,117948.36858535101,306915.9329541714,232662.0119392853,170912.36215702377,-2290.232592123731,7.863224572356734e-07,0.0,0.0,0.0,7.863224572356734e-07,0.0,22.880336490441717,1.181478843282007,-8.063384642453483e-05,0.0
12440,6.551724137931035,9.310344827586208,1.7857142857142858,0,134842.042317972,372745.938131735,353656.6435903712,229376.4968133261,-37076.33688407351,8.9894694878648e-07,0.0,0.0,0.0,8.9894694878648e-07,0.0,23.317472448226397,1.5003904672222537,-0.0014644225569120774,0.0
12441,6.551724137931035,9.310344827586208,2.142857142857143,0,440306.7001040308,723789.1997330809,664635.499167294,256895.96519442828,241250.33920784277,2.9353780006935384e-06,0.0,0.0,0.0,2.9353780006935384e-06,0.0,23.742046795342798,1.8191279318912221,0.012932247453099848,0.0
12442,6.551724137931035,9.310344827586208,2.5,0,372490.2110248789,872846.5196192078,510654.30612055666,490848.55207693327,358616.0365081158,2.4832680734991926e-06,0.0,0.0,0.0,2.4832680734991926e-06,0.0,23.676676967528433,2.129188516360047,0.03586160365081158,0.0
12443,6.551724137931035,9.310344827586208,2.857142857142857,0,608436.020270811,963618.9218382988,724350.9218078657,271920.6694142639,395292.98767938314,4.05624013513874e-06,0.0,0.0,0.0,4.05624013513874e-06,0.0,24.002753957014242,2.426270789034079,0.02118971832301053,0.0
12444,6.551724137931035,9.310344827586208,3.2142857142857144,0,327231.73843299656,539821.4759696546,344258.10119093134,162045.43958062382,28804.63839385803,2.181544922886644e-06,0.0,0.0,0.0,2.181544922886644e-06,0.0,24.190415962252203,2.714676181507968,0.001137711158994812,0.0
12445,6.551724137931035,9.310344827586208,3.5714285714285716,0,177959.64290252433,322548.3876032841,197446.229098894,118817.5578372465,-4063.6588130739915,1.1863976193501623e-06,0.0,0.0,0.0,1.1863976193501623e-06,0.0,23.099320018629914,3.0029074147105783,-0.00014307212367075303,0.0
12446,6.551724137931035,9.310344827586208,3.928571428571429,0,172182.43165959112,231850.9441486663,312296.5100892574,114615.24699615844,18566.554211028233,1.1478828777306075e-06,0.0,0.0,0.0,1.1478828777306075e-06,0.0,23.965170621630687,3.2963260276713937,0.000629467221562371,0.0
12447,6.551724137931035,9.310344827586208,4.285714285714286,0,196347.87298404198,272005.7107117411,222480.4557772376,55636.914063766446,33980.06992010818,1.3089858198936132e-06,0.0,0.0,0.0,1.3089858198936132e-06,0.0,23.388109742718786,3.5950909190212665,0.001138558068567548,0.0
12448,6.551724137931035,9.310344827586208,4.642857142857143,0,231242.9560418698,272822.5672370026,155975.28424009783,6472.6429815041565,-30158.12178363446,1.5416197069457986e-06,0.0,0.0,0.0,1.5416197069457986e-06,0.0,23.920429870302417,3.89697773017483,-0.0010068600396833777,0.0
12449,6.551724137931035,9.310344827586208,5.0,0,98332.72537111356,229757.84039923685,183543.42064330704,116831.39297230428,14672.511803450037,6.555515024740903e-07,0.0,0.0,0.0,6.555515024740903e-07,0.0,23.523999684198824,4.200104608445543,0.0004893188483803315,0.0
12450,6.8965517241379315,9.310344827586208,0.0,0,128020.7412294091,289187.48549805506,206762.30576855954,141702.23924960906,24156.827394091193,8.534716081960607e-07,0.0,0.0,0.0,8.534716081960607e-07,0.0,24.192897533993236,-0.04989786233623639,0.0008056146840665513,0.0
12451,6.8965517241379315,9.310344827586208,0.35714285714285715,0,124331.7245827416,180131.3195069724,167490.62715100512,49962.12428189404,4617.475778939536,8.28878163884944e-07,0.0,0.0,0.0,8.28878163884944e-07,0.0,23.95265574944571,0.2541076165540226,0.00015415919729268405,0.0
12452,6.8965517241379315,9.310344827586208,0.7142857142857143,0,74444.38265555001,238587.094732408,182312.11435300828,154175.17832226955,4133.104410066729,4.962958843703334e-07,0.0,0.0,0.0,4.962958843703334e-07,0.0,23.169574459243766,0.5593238730024228,0.00013848645354107641,0.0
12453,6.8965517241379315,9.310344827586208,1.0714285714285714,0,233294.48509984906,287169.9165934618,138667.75459000262,18273.908382653746,-13064.941617736291,1.5552965673323271e-06,0.0,0.0,0.0,1.5552965673323271e-06,0.0,22.82941469731135,0.8675883115889873,-0.00044294446920614683,0.0
12454,6.8965517241379315,9.310344827586208,1.4285714285714286,0,186286.4449689245,283058.9510709299,109009.25312964823,86568.73513853442,-5900.927529164007,1.2419096331261635e-06,0.0,0.0,0.0,1.2419096331261635e-06,0.0,24.268178692542318,1.1810727530314624,-0.0002077581490130214,0.0
12455,6.8965517241379315,9.310344827586208,1.7857142857142858,0,98115.99681622762,412431.98929739656,310312.22280458896,318881.9448388624,40681.55736552559,6.541066454415175e-07,0.0,0.0,0.0,6.541066454415175e-07,0.0,23.325224969510867,1.4996220517787746,0.0016068197471250008,0.0
12456,6.8965517241379315,9.310344827586208,2.142857142857143,0,276730.4266487811,619850.5998639388,464042.38166306086,300342.31367002084,213259.69503472195,1.8448695109918741e-06,0.0,0.0,0.0,1.8448695109918741e-06,0.0,23.38204149206187,1.8180013047807486,0.011431806301360741,0.0
12457,6.8965517241379315,9.310344827586208,2.5,0,360175.7101816469,624657.1360155989,604065.3491286413,254627.27706503135,499353.5091261767,2.4011714012109793e-06,0.0,0.0,0.0,2.4011714012109793e-06,0.0,24.058677283155294,2.127908619711215,0.04993535091261767,0.0
12458,6.8965517241379315,9.310344827586208,2.857142857142857,0,463108.9149434511,787068.6248457188,372736.68172561994,287128.59742886544,184835.51307046253,3.087392766289674e-06,0.0,0.0,0.0,3.087392766289674e-06,0.0,23.180780314321296,2.4251441619236056,0.009908125314959913,0.0
12459,6.8965517241379315,9.310344827586208,3.2142857142857144,0,136237.4142333014,342625.59912455163,185808.23163317557,275027.46470728284,82122.63893418432,9.082494282220092e-07,0.0,0.0,0.0,9.082494282220092e-07,0.0,23.796711583408364,2.7139077660644895,0.003243638800251199,0.0
12460,6.8965517241379315,9.310344827586208,3.5714285714285716,0,248956.95629291382,319443.92175735807,152249.42351636192,33327.37502527941,43653.41104458257,1.6597130419527587e-06,0.0,0.0,0.0,1.6597130419527587e-06,0.0,23.71110636607759,3.002501324460034,0.0015369366649401856,0.0
12461,6.8965517241379315,9.310344827586208,3.928571428571429,0,94325.57711463339,279819.37027372036,235470.53539279362,171492.7611516934,9723.440528889258,6.288371807642226e-07,0.0,0.0,0.0,6.288371807642226e-07,0.0,23.665811884350052,3.2961597401604164,0.00032965659778222834,0.0
12462,6.8965517241379315,9.310344827586208,4.285714285714286,0,110451.6784464967,203256.4759073499,142150.2968899137,75754.4336654275,-44885.520985660456,7.363445229766447e-07,0.0,0.0,0.0,7.363445229766447e-07,0.0,24.30901199197367,3.595038158716709,-0.0015039631230964522,0.0
12463,6.8965517241379315,9.310344827586208,4.642857142857143,0,110560.92996357502,253706.22717190027,152926.70073141338,135446.48146872153,15308.035954125222,7.370728664238335e-07,0.0,0.0,0.0,7.370728664238335e-07,0.0,23.949118433297727,3.8969647594111656,0.000511074588756688,0.0
12464,6.8965517241379315,9.310344827586208,5.0,0,119249.84334383099,204519.03893569484,159379.82645613747,69289.04143051952,-16092.950848975968,7.949989556255399e-07,0.0,0.0,0.0,7.949989556255399e-07,0.0,24.21036275981299,4.200102137663764,-0.0005366895785771732,0.0
12465,7.241379310344828,9.310344827586208,0.0,0,158345.4453423447,317672.28295980726,143188.86464158192,183102.64748170332,-13113.867536950513,1.055636302282298e-06,0.0,0.0,0.0,1.055636302282298e-06,0.0,23.48702177450721,-0.04990074139236876,-0.0004373390627965965,0.0
12466,7.241379310344828,9.310344827586208,0.35714285714285715,0,81654.04461567976,191963.11875930193,139541.4954539473,97882.11438829615,8997.58941703581,5.44360297437865e-07,0.0,0.0,0.0,5.44360297437865e-07,0.0,23.254615038090773,0.2540925024889215,0.00030039381439223186,0.0
12467,7.241379310344828,9.310344827586208,0.7142857142857143,0,158842.2512782046,216759.36066135496,131113.68684607276,33474.87522048254,27569.23743701545,1.0589483418546974e-06,0.0,0.0,0.0,1.0589483418546974e-06,0.0,24.140834240081986,0.5592623945345012,0.0009237525938577738,0.0
12468,7.241379310344828,9.310344827586208,1.0714285714285714,0,108259.19694157902,194012.6802005372,251813.0764885102,126921.26743945268,-42519.03117118441,7.217279796105268e-07,0.0,0.0,0.0,7.217279796105268e-07,0.0,23.34080528822367,0.8673945465700962,-0.0014415349294567385,0.0
12469,7.241379310344828,9.310344827586208,1.4285714285714286,0,45827.05267259619,217493.05374709534,249606.71685697592,197126.63396575695,5471.881865966047,3.055136844839746e-07,0.0,0.0,0.0,3.055136844839746e-07,0.0,23.692673008068965,1.1805995600381587,0.00019265243344753966,0.0
12470,7.241379310344828,9.310344827586208,1.7857142857142858,0,252376.17713827497,563799.1270271696,406118.91571595886,272717.53624773433,130236.40944138131,1.6825078475884998e-06,0.0,0.0,0.0,1.6825078475884998e-06,0.0,23.847361971388725,1.4987266626299025,0.005144012374079002,0.0
12471,7.241379310344828,9.310344827586208,2.142857142857143,0,404806.57764057553,702451.6041821914,627243.9087108842,265315.2581344522,169354.9530033025,2.6987105176038367e-06,0.0,0.0,0.0,2.6987105176038367e-06,0.0,23.25551922699227,1.8166885127252215,0.00907828841542041,0.0
12472,7.241379310344828,9.310344827586208,2.5,0,517674.52229793277,766502.4524737507,171501.87409526767,419326.7686374009,415258.95233845885,3.4511634819862183e-06,0.0,0.0,0.0,3.4511634819862183e-06,0.0,23.26182437985145,2.126417231711706,0.04152589523384588,0.0
12473,7.241379310344828,9.310344827586208,2.857142857142857,0,323423.01765079104,550454.3589150005,487091.9418032801,200039.168142521,199960.24854409453,2.1561534510052736e-06,0.0,0.0,0.0,2.1561534510052736e-06,0.0,23.51400153648953,2.4238313698680782,0.010718888203210921,0.0
12474,7.241379310344828,9.310344827586208,3.2142857142857144,0,270945.02191416593,505325.07813710306,249242.3430309977,221632.0819851177,75131.93044844709,1.8063001460944396e-06,0.0,0.0,0.0,1.8063001460944396e-06,0.0,24.026553709401146,2.713012376915617,0.0029675233029916033,0.0
12475,7.241379310344828,9.310344827586208,3.5714285714285716,0,123548.75386037119,249348.56985333824,275683.9571526946,141090.85383808977,-33581.97160264003,8.236583590691413e-07,0.0,0.0,0.0,8.236583590691413e-07,0.0,23.832310060565558,3.0020281314667305,-0.0011823443392399654,0.0
12476,7.241379310344828,9.310344827586208,3.928571428571429,0,298076.71505507757,297697.6885793166,141742.97103339536,-46001.93613010041,-40183.8182160166,1.9871781003671837e-06,0.0,0.0,0.0,1.9871781003671837e-06,0.0,22.98733762916483,3.2959659751415256,-0.0013623635337341648,0.0
12477,7.241379310344828,9.310344827586208,4.285714285714286,0,135237.48381854888,205856.10516320934,121985.36173186457,49844.2204101136,20752.150651159678,9.015832254569925e-07,0.0,0.0,0.0,9.015832254569925e-07,0.0,24.645128725280678,3.594976680248787,0.0006953349012982821,0.0
12478,7.241379310344828,9.310344827586208,4.642857142857143,0,110467.95819650411,216536.35929633686,102710.36135226897,109764.54533505182,5932.564677984151,7.364530546433607e-07,0.0,0.0,0.0,7.364530546433607e-07,0.0,23.86348660180269,3.896949645346065,0.000198064798264087,0.0
12479,7.241379310344828,9.310344827586208,5.0,0,159275.7838005312,286220.39654169464,158925.80347545596,107612.93196177275,-29480.418334503138,1.061838558670208e-06,0.0,0.0,0.0,1.061838558670208e-06,0.0,23.466378594953483,4.200099258607631,-0.000983153023998084,0.0
12480,7.586206896551724,9.310344827586208,0.0,0,171845.71764790788,295689.7842557875,222628.35099999988,99385.8818241361,-1726.3967278836158,1.1456381176527191e-06,0.0,0.0,0.0,1.1456381176527191e-06,0.0,23.487526599074194,-0.0499039923898561,-5.757422246795877e-05,0.0
12481,7.586206896551724,9.310344827586208,0.35714285714285715,0,153293.07669341972,282314.45056999475,189446.25487255384,105379.81236583737,-32325.262105230704,1.0219538446227981e-06,0.0,0.0,0.0,1.0219538446227981e-06,0.0,23.44746829753794,0.2540754358582593,-0.0010792122573001237,0.0
12482,7.586206896551724,9.310344827586208,0.7142857142857143,0,72554.68220629361,199874.9216295729,116239.27023161174,162298.58994630136,23335.96158912283,4.836978813752907e-07,0.0,0.0,0.0,4.836978813752907e-07,0.0,23.38720087214318,0.5591929737467327,0.0007819097317205754,0.0
12483,7.586206896551724,9.310344827586208,1.0714285714285714,0,151643.6428045919,237353.28037313008,294662.1338896197,122715.81662630898,7420.319793029143,1.0109576186972791e-06,0.0,0.0,0.0,1.0109576186972791e-06,0.0,24.160884397826806,0.8671757493113467,0.00025157323379089447,0.0
12484,7.586206896551724,9.310344827586208,1.4285714285714286,0,306622.7147886419,312396.1371994593,251371.9790115159,-20149.927254515365,-17839.141827794476,2.0441514319242793e-06,0.0,0.0,0.0,2.0441514319242793e-06,0.0,24.770961751384636,1.1800652358841561,-0.0006280753437160774,0.0
12485,7.586206896551724,9.310344827586208,1.7857142857142858,0,24997.742591275102,360188.43522277556,371182.35232559236,342571.81606081506,20532.08201420827,1.6665161727516735e-07,0.0,0.0,0.0,1.6665161727516735e-07,0.0,23.331079231760963,1.4977155993718982,0.0008109658765909852,0.0
12486,7.586206896551724,9.310344827586208,2.142857142857143,0,726917.0637409813,819109.1495515138,615207.001032396,12015.286255737466,212937.25136724257,4.846113758273208e-06,0.0,0.0,0.0,4.846113758273208e-06,0.0,23.36341814378391,1.8152061228454521,0.011414521677798259,0.0
12487,7.586206896551724,9.310344827586208,2.5,0,146711.3216533608,393025.907903544,281342.775153587,447499.2104068926,355122.2622667573,9.78075477689072e-07,0.0,0.0,0.0,9.78075477689072e-07,0.0,23.551866934152905,2.1247331733202994,0.03551222622667573,0.0
12488,7.586206896551724,9.310344827586208,2.857142857142857,0,422826.4729540588,542723.7947834455,332809.6649016249,56015.14859140538,328596.6651816236,2.8188431530270586e-06,0.0,0.0,0.0,2.8188431530270586e-06,0.0,22.913409448888356,2.422348979988309,0.017614455591422475,0.0
12489,7.586206896551724,9.310344827586208,3.2142857142857144,0,86249.31766398638,389667.9587225331,375139.5075917718,297077.07918367797,96171.44632749306,5.749954510932426e-07,0.0,0.0,0.0,5.749954510932426e-07,0.0,23.870391054559168,2.7120013136576127,0.0037985315478492494,0.0
12490,7.586206896551724,9.310344827586208,3.5714285714285716,0,50833.55240663095,130610.21837190154,162910.8889676199,104315.88310232825,-8346.573772506566,3.3889034937753967e-07,0.0,0.0,0.0,3.3889034937753967e-07,0.0,23.704564568932994,3.0014938073127277,-0.00029386375430071813,0.0
12491,7.586206896551724,9.310344827586208,3.928571428571429,0,56354.17963772679,187857.57243780125,168112.28075842874,124287.75576935011,-8030.319398959189,3.756945309181786e-07,0.0,0.0,0.0,3.756945309181786e-07,0.0,23.690663349795944,3.295747177882776,-0.00027225422568280153,0.0
12492,7.586206896551724,9.310344827586208,4.285714285714286,0,247768.20447601567,284623.1762669893,173156.301240818,700.267090126751,-28404.951989120003,1.6517880298401045e-06,0.0,0.0,0.0,1.6517880298401045e-06,0.0,22.694130021764433,3.5949072594610185,-0.0009517545829223957,0.0
12493,7.586206896551724,9.310344827586208,4.642857142857143,0,130713.33080471765,253707.66019516008,112098.90319415144,137668.39686518465,-4050.4326783324004,8.714222053647844e-07,0.0,0.0,0.0,8.714222053647844e-07,0.0,22.494386270885954,3.8969325787154023,-0.0001352278778001914,0.0
12494,7.586206896551724,9.310344827586208,5.0,0,193972.84839311885,331457.43524985015,158296.6611524641,121844.6311346157,12335.371232379885,1.2931523226207924e-06,0.0,0.0,0.0,1.2931523226207924e-06,0.0,23.446283879968394,4.200096007610144,0.0004113767108609673,0.0
12495,7.931034482758621,9.310344827586208,0.0,0,177935.93710340152,341960.25515510375,230639.02510779898,136744.0132950399,30856.157912606577,1.1862395806893435e-06,0.0,0.0,0.0,1.1862395806893435e-06,0.0,23.84148823836804,-0.04990757928494666,0.0010290330556550038,0.0
12496,7.931034482758621,9.310344827586208,0.35714285714285715,0,112405.52112862536,283909.7639211435,221014.725753564,154135.43358720752,-23414.100149191607,7.493701408575025e-07,0.0,0.0,0.0,7.493701408575025e-07,0.0,22.626420739807557,0.2540566058794688,-0.0007817039129458868,0.0
12497,7.931034482758621,9.310344827586208,0.7142857142857143,0,149399.15352672074,278535.4534675204,241827.68972670948,114203.79200254008,-44155.85540557547,9.95994356844805e-07,0.0,0.0,0.0,9.95994356844805e-07,0.0,23.967844045416207,0.5591163803061661,-0.0014795144790673192,0.0
12498,7.931034482758621,9.310344827586208,1.0714285714285714,0,164027.57129032796,273606.63504989777,243574.56425552556,96638.13691671318,-27024.52903389673,1.0935171419355197e-06,0.0,0.0,0.0,1.0935171419355197e-06,0.0,23.373251102003625,0.8669343456140839,-0.0009162203719467939,0.0
12499,7.931034482758621,9.310344827586208,1.4285714285714286,0,148218.27035879422,147177.19387807598,245149.53973213554,74632.62890706606,21399.952071253625,9.881218023919615e-07,0.0,0.0,0.0,9.881218023919615e-07,0.0,23.115203542543227,1.179475704611917,0.0007534433204470993,0.0
12500,7.931034482758621,9.310344827586208,1.7857142857142858,0,194891.53689901455,324160.8546871614,344052.1004881151,139977.7447575276,45397.56296259992,1.2992769126600971e-06,0.0,0.0,0.0,1.2992769126600971e-06,0.0,23.576022260487214,1.4966000716452545,0.0017930901706696173,0.0
12501,7.931034482758621,9.310344827586208,2.142857142857143,0,224927.27856916873,679454.2441516198,499976.2312089592,427132.91146631254,317302.6203182681,1.4995151904611248e-06,0.0,0.0,0.0,1.4995151904611248e-06,0.0,22.890312551642175,1.8135705703718683,0.017009037238855964,0.0
12502,7.931034482758621,9.310344827586208,2.5,0,609938.5972723359,880233.8405922091,450295.35777752526,182160.29555178978,455442.79213198205,4.066257315148906e-06,0.0,0.0,0.0,4.066257315148906e-06,0.0,22.274708859554003,2.122875115662652,0.0455442792131982,0.0
12503,7.931034482758621,9.310344827586208,2.857142857142857,0,593086.6895488906,704629.9263370822,329032.799623791,20901.004841713544,358818.63933755696,3.9539112636592706e-06,0.0,0.0,0.0,3.9539112636592706e-06,0.0,24.151750388309225,2.4207134275147255,0.0192345073998015,0.0
12504,7.931034482758621,9.310344827586208,3.2142857142857144,0,242041.54367999893,369303.57653776737,252679.95121929524,91029.70719561314,-23928.852604810338,1.6136102911999928e-06,0.0,0.0,0.0,1.6136102911999928e-06,0.0,23.528977355623653,2.710885785930969,-0.0009451298175727055,0.0
12505,7.931034482758621,9.310344827586208,3.5714285714285716,0,193743.1214153975,372657.2964303407,199212.12690685212,163566.50921179928,-74208.84181255645,1.2916208094359834e-06,0.0,0.0,0.0,1.2916208094359834e-06,0.0,23.197362408963127,3.000904276040489,-0.0026127234302030233,0.0
12506,7.931034482758621,9.310344827586208,3.928571428571429,0,233715.9418007619,350111.29436862824,153611.42425275655,91661.50838956548,36716.271419977194,1.5581062786717461e-06,0.0,0.0,0.0,1.5581062786717461e-06,0.0,23.273845126390242,3.295505774185513,0.0012448022984865423,0.0
12507,7.931034482758621,9.310344827586208,4.285714285714286,0,152494.7296632669,311286.74237667286,205174.48060591292,136535.15758485833,-20855.073854523962,1.016631531088446e-06,0.0,0.0,0.0,1.016631531088446e-06,0.0,23.18004539815438,3.594830666020452,-0.0006987835123196468,0.0
12508,7.931034482758621,9.310344827586208,4.642857142857143,0,273589.0967126843,312993.04536458326,193446.5718887667,-24.09426080710887,3595.012748022937,1.8239273114178954e-06,0.0,0.0,0.0,1.8239273114178954e-06,0.0,23.39586450591506,3.896913748736612,0.00012002321312001824,0.0
12509,7.931034482758621,9.310344827586208,5.0,0,268375.0287986301,232011.57236847133,199020.9576950092,-51333.63770435949,3510.655105968206,1.7891668586575341e-06,0.0,0.0,0.0,1.7891668586575341e-06,0.0,23.520798677378778,4.200092420715054,0.00011707809382092094,0.0
12510,8.275862068965518,9.310344827586208,0.0,0,183189.80714247675,335611.83560639253,212737.35109173635,125060.87422053836,9026.085899020492,1.221265380949845e-06,0.0,0.0,0.0,1.221265380949845e-06,0.0,23.796951868434576,-0.04991146749922844,0.0003010141696701274,0.0
12511,8.275862068965518,9.310344827586208,0.35714285714285715,0,108022.95124941776,284288.69099738874,259422.22474912446,166000.83048797393,-13085.917312047639,7.201530083294518e-07,0.0,0.0,0.0,7.201530083294518e-07,0.0,23.110035438180862,0.25403619407744765,-0.0004368868631352094,0.0
12512,8.275862068965518,9.310344827586208,0.7142857142857143,0,252805.1678081634,305470.0492419829,193507.33290594447,16017.674706823394,-26374.04631543709,1.685367785387756e-06,0.0,0.0,0.0,1.685367785387756e-06,0.0,22.93394347900496,0.5590333525894406,-0.0008837057517484799,0.0
12513,8.275862068965518,9.310344827586208,1.0714285714285714,0,144037.8724444623,306369.3276812967,257430.5578459555,144238.56000295564,-29277.25958065834,9.60252482963082e-07,0.0,0.0,0.0,9.60252482963082e-07,0.0,23.19934955429337,0.8666726626599758,-0.000992595342880088,0.0
12514,8.275862068965518,9.310344827586208,1.4285714285714286,0,97025.41876608398,323723.01323075045,266528.17017939035,211696.01461767487,24199.155675438244,6.468361251072265e-07,0.0,0.0,0.0,6.468361251072265e-07,0.0,24.70410145635162,1.178836649425075,0.0008519968709934766,0.0
12515,8.275862068965518,9.310344827586208,1.7857142857142858,0,230654.71457118742,393527.94228307845,440070.3498610323,189693.55262144996,86731.4133160733,1.5376980971412494e-06,0.0,0.0,0.0,1.5376980971412494e-06,0.0,23.555229504636955,1.4953908333684272,0.0034256738590451533,0.0
12516,8.275862068965518,9.310344827586208,2.142857142857143,0,298849.80033244885,692599.5931096094,720310.8951706713,408570.5920307962,247973.90523446584,1.9923320022163257e-06,0.0,0.0,0.0,1.9923320022163257e-06,0.0,23.681418672318827,1.8117976223692513,0.013292664851512849,0.0
12517,8.275862068965518,9.310344827586208,2.5,0,544806.6792502176,992051.4475266872,675531.5102353666,362967.02674576093,428619.1417889194,3.632044528334784e-06,0.0,0.0,0.0,3.632044528334784e-06,0.0,23.35893979175815,2.120860970799629,0.04286191417889194,0.0
12518,8.275862068965518,9.310344827586208,2.857142857142857,0,350060.56612518296,641992.626965161,507531.06636508217,244636.92107387347,305628.35143940424,2.3337371075012197e-06,0.0,0.0,0.0,2.3337371075012197e-06,0.0,24.35770200097791,2.4189404795121083,0.016383236941657532,0.0
12519,8.275862068965518,9.310344827586208,3.2142857142857144,0,263026.7024097534,560192.8038549513,341942.509542712,268151.9576595893,-20353.92946631307,1.753511349398356e-06,0.0,0.0,0.0,1.753511349398356e-06,0.0,23.925635175522363,2.709676547654142,-0.0008039292966147912,0.0
12520,8.275862068965518,9.310344827586208,3.5714285714285716,0,158679.93512940616,380694.2494056432,201050.39947865586,259641.13489980128,68858.49106601713,1.057866234196041e-06,0.0,0.0,0.0,1.057866234196041e-06,0.0,22.980176173713147,3.0002652208536467,0.002424349829243222,0.0
12521,8.275862068965518,9.310344827586208,3.928571428571429,0,161212.09679754963,268433.4516314486,171086.3803555836,82348.12268824241,13098.440839075804,1.0747473119836643e-06,0.0,0.0,0.0,1.0747473119836643e-06,0.0,23.5840639652019,3.295244091231405,0.00044408020293150126,0.0
12522,8.275862068965518,9.310344827586208,4.285714285714286,0,215317.48866824916,354090.06988145155,243981.02127193037,105984.72587594175,-4415.468845579395,1.4354499244549944e-06,0.0,0.0,0.0,1.4354499244549944e-06,0.0,23.316517270083978,3.5947476383037267,-0.0001479475378497706,0.0
12523,8.275862068965518,9.310344827586208,4.642857142857143,0,174664.1134288796,256592.98264680695,140125.0822351213,55761.78965497347,22924.89429674467,1.1644274228591972e-06,0.0,0.0,0.0,1.1644274228591972e-06,0.0,23.720308280326684,3.896893336934591,0.0007653712703648307,0.0
12524,8.275862068965518,9.310344827586208,5.0,0,212729.87751544567,359562.97869736474,282520.87634013925,119045.92103342417,17417.74951915543,1.4181991834363045e-06,0.0,0.0,0.0,1.4181991834363045e-06,0.0,24.017728326744113,4.2000885325007715,0.0005808707636606692,0.0
12525,8.620689655172415,9.310344827586208,0.0,0,185689.65561189837,323102.6937185896,199082.06782375337,109616.93237851869,6987.941635907546,1.237931037412656e-06,0.0,0.0,0.0,1.237931037412656e-06,0.0,22.7801111189053,-0.04991562469392928,0.0002330433670550697,0.0
12526,8.620689655172415,9.310344827586208,0.35714285714285715,0,165530.6577677536,296405.6470835431,378351.74252010824,187832.62583626847,-56206.552610505496,1.1035377184516908e-06,0.0,0.0,0.0,1.1035377184516908e-06,0.0,23.575872849773663,0.25401437021974665,-0.001876513802745819,0.0
12527,8.620689655172415,9.310344827586208,0.7142857142857143,0,67483.18805683247,245332.51735033275,167457.87884736145,204021.13431759135,12262.743663953193,4.498879203788831e-07,0.0,0.0,0.0,4.498879203788831e-07,0.0,22.997493012394994,0.558944581148625,0.0004108833729358329,0.0
12528,8.620689655172415,9.310344827586208,1.0714285714285714,0,113213.67811959273,301899.5981397912,230504.990275877,171363.24956199646,44939.9030088345,7.547578541306183e-07,0.0,0.0,0.0,7.547578541306183e-07,0.0,24.114051635954088,0.8663928768993978,0.00152361044288179,0.0
12529,8.620689655172415,9.310344827586208,1.4285714285714286,0,121503.81558270515,342589.18766863126,224868.29094547493,217626.39398422817,-15339.98894031467,8.100254372180344e-07,0.0,0.0,0.0,8.100254372180344e-07,0.0,23.893811042336374,1.1781533854268094,-0.0005400858919837477,0.0
12530,8.620689655172415,9.310344827586208,1.7857142857142858,0,217648.98988883785,382852.4769605782,276972.6218804602,132521.63013649703,102935.11114730276,1.4509932659255857e-06,0.0,0.0,0.0,1.4509932659255857e-06,0.0,22.420371412834356,1.4940979419297968,0.004065679388276192,0.0
12531,8.620689655172415,9.310344827586208,2.142857142857143,0,550747.9954608211,724998.0823787443,691861.235598656,158429.8257676188,350239.4203804645,3.6716533030721406e-06,0.0,0.0,0.0,3.6716533030721406e-06,0.0,22.856687595647454,1.8099020246713888,0.01877461754898616,0.0
12532,8.620689655172415,9.310344827586208,2.5,0,317671.97840598004,748487.6938025751,427104.1840720666,434662.1228830458,540833.1710852232,2.1178131893732003e-06,0.0,0.0,0.0,2.1178131893732003e-06,0.0,22.752921498647364,2.11870749062995,0.05408331710852232,0.0
12533,8.620689655172415,9.310344827586208,2.857142857142857,0,491132.12223871564,846823.013759895,428100.36167931184,306230.2475291274,298781.84030353243,3.2742141482581045e-06,0.0,0.0,0.0,3.2742141482581045e-06,0.0,23.398741186146317,2.417044881814246,0.016016229058931956,0.0
12534,8.620689655172415,9.310344827586208,3.2142857142857144,0,231733.47965225836,645260.9156491341,418113.721258975,409198.4632375366,82532.25064102949,1.544889864348389e-06,0.0,0.0,0.0,1.544889864348389e-06,0.0,23.58497529433338,2.7083836562155112,0.003259817437988656,0.0
12535,8.620689655172415,9.310344827586208,3.5714285714285716,0,282275.71049055725,269506.4805653707,303212.00114965055,5596.832147662368,19340.452822036867,1.8818380699370483e-06,0.0,0.0,0.0,1.8818380699370483e-06,0.0,23.834715846022835,2.9995819568553808,0.0006809330667969244,0.0
12536,8.620689655172415,9.310344827586208,3.928571428571429,0,268660.7050131901,412571.32925026736,129575.05364367958,161012.27462004297,58307.738350272615,1.7910713667546007e-06,0.0,0.0,0.0,1.7910713667546007e-06,0.0,23.32087235546215,3.294964305470827,0.001976824005023556,0.0
12537,8.620689655172415,9.310344827586208,4.285714285714286,0,118988.60704244,290629.1617733442,243511.59996809094,155297.21712804495,28842.325945266704,7.932573802829333e-07,0.0,0.0,0.0,7.932573802829333e-07,0.0,23.3072579956213,3.5946588668629107,0.0009664095158852454,0.0
12538,8.620689655172415,9.310344827586208,4.642857142857143,0,155306.78592633313,239364.82674329428,215810.09046687526,73626.16946401811,21025.96829624201,1.0353785728422208e-06,0.0,0.0,0.0,1.0353785728422208e-06,0.0,23.595341769707215,3.89687151307689,0.0007019736648395606,0.0
12539,8.620689655172415,9.310344827586208,5.0,0,248070.82661397944,342344.9775052562,153537.18119500723,61385.86753257432,31429.33998653056,1.653805510759863e-06,0.0,0.0,0.0,1.653805510759863e-06,0.0,25.033106469281208,4.200084375306071,0.0010481483098174701,0.0
12540,8.965517241379311,9.310344827586208,0.0,0,164772.4134320149,295817.9542791205,176125.94717578555,107888.71292916707,22990.800435257916,1.0984827562134327e-06,0.0,0.0,0.0,1.0984827562134327e-06,0.0,22.56916698224387,-0.049920021203600784,0.0007667284336194697,0.0
12541,8.965517241379311,9.310344827586208,0.35714285714285715,0,267646.3084547554,319574.84299018164,95292.1791248658,23293.587503270075,-67602.75703040631,1.7843087230317027e-06,0.0,0.0,0.0,1.7843087230317027e-06,0.0,22.391693961490272,0.25399129003987614,-0.0022569878560301285,0.0
12542,8.965517241379311,9.310344827586208,0.7142857142857143,0,100777.8278691496,299570.3381107523,340097.08906787616,225364.8963390258,-3800.727767921305,6.718521857943306e-07,0.0,0.0,0.0,6.718521857943306e-07,0.0,23.067973129900796,0.5588506994504645,-0.00012734962808404226,0.0
12543,8.965517241379311,9.310344827586208,1.0714285714285714,0,30496.979841427776,280935.2976655704,303242.0531406666,315686.8167405025,-20589.001722619505,2.0331319894285185e-07,0.0,0.0,0.0,2.0331319894285185e-07,0.0,22.981430733448178,0.8660969848638191,-0.0006980348405942811,0.0
12544,8.965517241379311,9.310344827586208,1.4285714285714286,0,298068.64969962405,446720.7770018717,172542.8670387028,129451.98075071424,17702.972087309052,1.9871243313308268e-06,0.0,0.0,0.0,1.9871243313308268e-06,0.0,22.97657985201829,1.1774307883408572,0.0006232811188937904,0.0
12545,8.965517241379311,9.310344827586208,1.7857142857142858,0,353950.8161060812,526972.4825122502,480600.53093191,152121.30827029434,27762.0753894964,2.3596721073738746e-06,0.0,0.0,0.0,2.3596721073738746e-06,0.0,23.344081198745254,1.4927306233115494,0.0010965325283937661,0.0
12546,8.965517241379311,9.310344827586208,2.142857142857143,0,433049.38225084846,590221.0232414089,484649.10679938755,114147.1071100525,361313.8338745267,2.886995881672323e-06,0.0,0.0,0.0,2.886995881672323e-06,0.0,22.769844629708146,1.8078973041298565,0.019368262541044706,0.0
12547,8.965517241379311,9.310344827586208,2.5,0,817781.1691504583,1081854.3505343148,860408.981105978,176155.24988936467,521225.7561719854,5.451874461003055e-06,0.0,0.0,0.0,5.451874461003055e-06,0.0,23.062087956453723,2.1164300422363347,0.05212257561719855,0.0
12548,8.965517241379311,9.310344827586208,2.857142857142857,0,348359.2021753391,628494.5890128613,497560.27992480306,233639.68611142377,452957.6911573487,2.3223946811689272e-06,0.0,0.0,0.0,2.3223946811689272e-06,0.0,23.217195763210448,2.4150401612727133,0.024280840255254576,0.0
12549,8.965517241379311,9.310344827586208,3.2142857142857144,0,75676.99559662816,430049.9903894382,350664.3552215516,358727.3078156552,151116.68468702896,5.04513303977521e-07,0.0,0.0,0.0,5.04513303977521e-07,0.0,23.233620516210976,2.707016337597264,0.005968731012273114,0.0
12550,8.965517241379311,9.310344827586208,3.5714285714285716,0,205085.55071180494,483292.67815732176,250648.6282026331,405280.477328289,-51549.186200876364,1.3672370047453663e-06,0.0,0.0,0.0,1.3672370047453663e-06,0.0,23.30332292430063,2.998859359769429,-0.001814928831999895,0.0
12551,8.965517241379311,9.310344827586208,3.928571428571429,0,148334.73680435625,255442.37134309084,190903.4648655991,85771.16663867107,11056.744140334915,9.88898245362375e-07,0.0,0.0,0.0,9.88898245362375e-07,0.0,23.303847702863024,3.2946684134352484,0.00037485997317739236,0.0
12552,8.965517241379311,9.310344827586208,4.285714285714286,0,215571.05401532576,174926.49996415016,319357.1021845606,71569.22295930443,-15049.16672586073,1.4371403601021717e-06,0.0,0.0,0.0,1.4371403601021717e-06,0.0,22.979666007240912,3.5945649851647503,-0.0005042470554425644,0.0
12553,8.965517241379311,9.310344827586208,4.642857142857143,0,280123.77891065227,365357.63903795736,285803.84591280384,54061.44848187047,8187.623504809399,1.8674918594043485e-06,0.0,0.0,0.0,1.8674918594043485e-06,0.0,23.26062287507633,3.8968484328970194,0.0002733522659703067,0.0
12554,8.965517241379311,9.310344827586208,5.0,0,126347.1377314103,305081.28373204544,234517.82497025075,159213.85035375366,19056.938559271286,8.423142515427353e-07,0.0,0.0,0.0,8.423142515427353e-07,0.0,23.39034067362516,4.200079978796399,0.0006355366657319529,0.0
12555,9.310344827586208,9.310344827586208,0.0,0,166586.83652919572,343394.51756387216,324884.95522859885,168325.9215875096,-45910.14909416375,1.1105789101946382e-06,0.0,0.0,0.0,1.1105789101946382e-06,0.0,23.73851112740095,-0.049924630207971735,-0.0015310739963721321,0.0
12556,9.310344827586208,9.310344827586208,0.35714285714285715,0,194326.4711444385,336507.1768914829,134511.5489346073,150886.06764406548,-34961.56178031732,1.2955098076295899e-06,0.0,0.0,0.0,1.2955098076295899e-06,0.0,22.522677518963516,0.2539670943351345,-0.0011672278444284775,0.0
12557,9.310344827586208,9.310344827586208,0.7142857142857143,0,243196.2032060916,376932.025336614,163660.29264395082,112085.00489689835,-30585.37056564129,1.621308021373944e-06,0.0,0.0,0.0,1.621308021373944e-06,0.0,23.280066071068234,0.5587522802066769,-0.001024813089540824,0.0
12558,9.310344827586208,9.310344827586208,1.0714285714285714,0,58487.71979412723,315267.9513610359,295023.99508486805,249347.67537765214,-20227.513458439807,3.899181319608482e-07,0.0,0.0,0.0,3.899181319608482e-07,0.0,23.354948391100045,0.8657867915997959,-0.0006857792001187079,0.0
12559,9.310344827586208,9.310344827586208,1.4285714285714286,0,279269.17446767085,558635.9932572112,365361.5194695909,238447.85579611806,-17103.611402549388,1.861794496451139e-06,0.0,0.0,0.0,1.861794496451139e-06,0.0,23.369481313233575,1.1766732662662036,-0.0006021790013298273,0.0
12560,9.310344827586208,9.310344827586208,1.7857142857142858,0,118216.02867834852,435422.8752435671,467011.3897382274,336209.9424961165,114307.98697640556,7.881068578556568e-07,0.0,0.0,0.0,7.881068578556568e-07,0.0,23.39768578050503,1.4912972186431057,0.004514879533187284,0.0
12561,9.310344827586208,9.310344827586208,2.142857142857143,0,642996.7283562362,996831.9215100503,296091.5722365192,433936.41931952996,365614.2730706057,4.286644855708242e-06,0.0,0.0,0.0,4.286644855708242e-06,0.0,22.63021287341491,1.8057956902522945,0.019598787994494077,0.0
12562,9.310344827586208,9.310344827586208,2.5,0,766792.1197676492,1215382.220708202,525103.1087632643,390027.90481352323,527635.6857774475,5.111947465117661e-06,0.0,0.0,0.0,5.111947465117661e-06,0.0,23.371888228942442,2.114042518863229,0.05276356857774475,0.0
12563,9.310344827586208,9.310344827586208,2.857142857142857,0,514020.6697443177,776310.6678857937,717038.2893645269,235223.27099854744,315989.6236090792,3.426804464962118e-06,0.0,0.0,0.0,3.426804464962118e-06,0.0,23.349136605392577,2.4129385473951515,0.016938653924975077,0.0
12564,9.310344827586208,9.310344827586208,3.2142857142857144,0,365819.81989030074,491336.6129352034,732318.4986455456,311377.9948085222,-81326.13454988597,2.4387987992686715e-06,0.0,0.0,0.0,2.4387987992686715e-06,0.0,23.57490272953409,2.70558293292882,-0.0032121788696034418,0.0
12565,9.310344827586208,9.310344827586208,3.5714285714285716,0,271899.1767839004,519047.32371814403,406971.7537125084,209024.37715722134,92532.77396907636,1.8126611785593361e-06,0.0,0.0,0.0,1.8126611785593361e-06,0.0,23.222520194989244,2.998101837694775,0.003257867131538751,0.0
12566,9.310344827586208,9.310344827586208,3.928571428571429,0,161954.0913507874,297591.13861091086,376879.0941272007,190557.94436265828,908.4814493303469,1.0796939423385826e-06,0.0,0.0,0.0,1.0796939423385826e-06,0.0,23.040617856755674,3.294358220171225,3.080050758213682e-05,0.0
12567,9.310344827586208,9.310344827586208,4.285714285714286,0,267446.7354275787,316531.638673649,276645.0286414932,31381.71600639649,35762.62923240307,1.7829782361838578e-06,0.0,0.0,0.0,1.7829782361838578e-06,0.0,23.815784962979176,3.5944665659209627,0.0011982856468946473,0.0
12568,9.310344827586208,9.310344827586208,4.642857142857143,0,221596.25772277327,422819.7385042116,275245.0813520887,168004.25780378364,28482.364599452394,1.4773083848184885e-06,0.0,0.0,0.0,1.4773083848184885e-06,0.0,22.71090118624725,3.896824237192278,0.0009509131555547758,0.0
12569,9.310344827586208,9.310344827586208,5.0,0,217646.65347582323,361517.74511116336,177107.17012058065,121445.55583269038,-1294.915688963394,1.4509776898388216e-06,0.0,0.0,0.0,1.4509776898388216e-06,0.0,22.637661997543937,4.200075369792028,-4.318460684585736e-05,0.0
12570,9.655172413793103,9.310344827586208,0.0,0,233213.0930983349,256321.28424841564,356274.72089543234,89744.70735494806,-95310.9223473043,1.5547539539888994e-06,0.0,0.0,0.0,1.5547539539888994e-06,0.0,22.56706597468969,-0.04992942771909295,-0.0031785580673435883,0.0
12571,9.655172413793103,9.310344827586208,0.35714285714285715,0,297682.5147371927,540067.0600248293,274299.01583743154,218396.4134132293,-22329.647649210387,1.9845500982479516e-06,0.0,0.0,0.0,1.9845500982479516e-06,0.0,23.365219079394247,0.253941909034093,-0.0007454983463327047,0.0
12572,9.655172413793103,9.310344827586208,0.7142857142857143,0,174045.50731394804,358941.708630624,336677.8847702828,174835.5783137056,14203.296428700658,1.160303382092987e-06,0.0,0.0,0.0,1.160303382092987e-06,0.0,22.835415398210422,0.5586498356484576,0.00047590478145497265,0.0
12573,9.655172413793103,9.310344827586208,1.0714285714285714,0,80096.63363603524,380330.39481675666,292094.0701297029,360217.10643907,2768.0782906468407,5.339775575735683e-07,0.0,0.0,0.0,5.339775575735683e-07,0.0,23.145967677750022,0.8654639115341454,9.384695355294403e-05,0.0
12574,9.655172413793103,9.310344827586208,1.4285714285714286,0,230906.24440129736,505296.91481261066,363328.6278623036,238860.86464732498,56053.84839951619,1.5393749626753157e-06,0.0,0.0,0.0,1.5393749626753157e-06,0.0,23.899040708449373,1.175884761789918,0.00197352767526529,0.0
12575,9.655172413793103,9.310344827586208,1.7857142857142858,0,469092.24643093377,774688.2155671789,469939.68473862996,234507.57400624978,72400.04827312936,3.127281642872892e-06,0.0,0.0,0.0,3.127281642872892e-06,0.0,22.62235111944888,1.489805188199091,0.0028596207911315437,0.0
12576,9.655172413793103,9.310344827586208,2.142857142857143,0,907181.2490694524,1420387.7461197365,759995.9802787345,385997.39050702227,572724.9277054418,6.0478749937963494e-06,0.0,0.0,0.0,6.0478749937963494e-06,0.0,22.365007051170775,1.8036081210641106,0.030700974398483717,0.0
12577,9.655172413793103,9.310344827586208,2.5,0,780528.8941466233,801867.9126179569,1080401.38459044,198814.17647577447,565443.1018003073,5.203525960977489e-06,0.0,0.0,0.0,5.203525960977489e-06,0.0,23.63538117539429,2.1115573465759514,0.05654431018003073,0.0
12578,9.655172413793103,9.310344827586208,2.857142857142857,0,655374.7273167984,1188764.1357981113,455792.65469754173,659242.6963181264,437606.95147413167,4.369164848778656e-06,0.0,0.0,0.0,4.369164848778656e-06,0.0,22.808026844070298,2.4107509782069676,0.02345796238978367,0.0
12579,9.655172413793103,9.310344827586208,3.2142857142857144,0,494676.77375318523,790929.9894782293,276415.66509651404,318820.8596552825,1682.4786687992455,3.297845158354568e-06,0.0,0.0,0.0,3.297845158354568e-06,0.0,22.644115744772254,2.7040909024848054,6.645369853598975e-05,0.0
12580,9.655172413793103,9.310344827586208,3.5714285714285716,0,213060.2166728621,467518.34736941423,377436.965411012,224213.52852782022,49982.919383916174,1.4204014444857473e-06,0.0,0.0,0.0,1.4204014444857473e-06,0.0,23.180885058612603,2.99731333321849,0.0017597841631077713,0.0
12581,9.655172413793103,9.310344827586208,3.928571428571429,0,371329.38273108914,478781.7890122398,408734.2548217284,77417.30933534438,-30886.993893640083,2.475529218207261e-06,0.0,0.0,0.0,2.475529218207261e-06,0.0,23.143878396546448,3.294035340105575,-0.0010471706277675962,0.0
12582,9.655172413793103,9.310344827586208,4.285714285714286,0,229466.38619813768,476524.29131829506,416979.2195581049,223154.77263959817,-70521.30450111737,1.5297759079875846e-06,0.0,0.0,0.0,1.5297759079875846e-06,0.0,22.810249433489027,3.5943641213627435,-0.0023629321668388287,0.0
12583,9.655172413793103,9.310344827586208,4.642857142857143,0,177084.44325217995,289605.09755569877,182149.1493128433,85215.86619686407,-59485.8831048377,1.180562955014533e-06,0.0,0.0,0.0,1.180562955014533e-06,0.0,23.529925421375303,3.8967990518912363,-0.0019859976378250317,0.0
12584,9.655172413793103,9.310344827586208,5.0,0,376207.14151001466,540176.8420513613,247859.80812363938,115729.12824380238,-18889.506711664664,2.5080476100667645e-06,0.0,0.0,0.0,2.5080476100667645e-06,0.0,22.864077337874217,4.200070572280907,-0.0006299529211113625,0.0
12585,10.0,9.310344827586208,0.0,0,122977.07733620676,308646.7828906794,181245.45774232328,190631.865162007,69897.55253886382,8.198471822413784e-07,0.0,0.0,0.0,8.198471822413784e-07,0.0,22.70153350257232,-0.049934392449232125,0.0023310385005025787,0.0
12586,10.0,9.310344827586208,0.35714285714285715,0,191992.59888638652,346694.53377406683,264584.86684031447,127301.08986578876,33254.559130897156,1.2799506592425768e-06,0.0,0.0,0.0,1.2799506592425768e-06,0.0,22.185808723619473,0.25391584589010324,0.0011102377981760782,0.0
12587,10.0,9.310344827586208,0.7142857142857143,0,312668.61798256217,426414.36890120193,416032.1904536384,108683.9662316752,20114.94913863657,2.0844574532170812e-06,0.0,0.0,0.0,2.0844574532170812e-06,0.0,21.895863823398667,0.5585438203474118,0.0006739844177621283,0.0
12588,10.0,9.310344827586208,1.0714285714285714,0,409080.1916890354,642065.7637012388,323317.261113628,180787.3102075388,-2719.259241886335,2.7272012779269024e-06,0.0,0.0,0.0,2.7272012779269024e-06,0.0,23.246228188284366,0.8651297773648284,-9.219182731717001e-05,0.0
12589,10.0,9.310344827586208,1.4285714285714286,0,175283.0770195316,505525.6901556548,336833.63276721555,324322.0369810842,-53907.15072933531,1.1685538467968774e-06,0.0,0.0,0.0,1.1685538467968774e-06,0.0,22.472397593965983,1.1750687736995553,-0.0018979473648406797,0.0
12590,10.0,9.310344827586208,1.7857142857142858,0,277646.75250414736,766806.3919177086,624347.0890332252,446846.5062007621,9304.16098820488,1.850978350027649e-06,0.0,0.0,0.0,1.850978350027649e-06,0.0,23.061193515638987,1.4882611524841511,0.00036749108378399256,0.0
12591,10.0,9.310344827586208,2.142857142857143,0,852039.1350097372,1470889.2846146305,618568.1397184337,619132.4397906238,368159.03610145056,5.680260900064915e-06,0.0,0.0,0.0,5.680260900064915e-06,0.0,24.106053826249386,1.8013443033457748,0.019735200259581233,0.0
12592,10.0,9.310344827586208,2.5,0,654926.6453857077,1264542.8604681503,1370367.1067951282,668972.2679767254,689846.7957960815,4.3661776359047185e-06,0.0,0.0,0.0,4.3661776359047185e-06,0.0,23.379675423466807,2.108985552692839,0.06898467957960815,0.0
12593,10.0,9.310344827586208,2.857142857142857,0,493315.1509926136,873916.0130932906,802046.7723494957,348608.3781659848,356151.23257700866,3.2887676732840903e-06,0.0,0.0,0.0,3.2887676732840903e-06,0.0,23.165833812445175,2.4084871604886318,0.019091520805881054,0.0
12594,10.0,9.310344827586208,3.2142857142857144,0,227408.28393347506,707336.3242811216,478198.94610840623,481697.5039952892,7868.116655942242,1.5160552262231671e-06,0.0,0.0,0.0,1.5160552262231671e-06,0.0,23.36861385745007,2.702546866769866,0.00031077092506209613,0.0
12595,10.0,9.310344827586208,3.5714285714285716,0,575829.5417230781,686439.7057704778,440349.59223985963,28455.957996679612,7099.568974115547,3.838863611487187e-06,0.0,0.0,0.0,3.838863611487187e-06,0.0,24.239967169072774,2.9964973451281267,0.00024995957017989094,0.0
12596,10.0,9.310344827586208,3.928571428571429,0,221118.79521328586,470159.8231436157,411601.1759691562,225655.76764251429,-34530.32102341912,1.4741253014219058e-06,0.0,0.0,0.0,1.4741253014219058e-06,0.0,22.222846349346412,3.293701205936258,-0.0011706913941714452,0.0
12597,10.0,9.310344827586208,4.285714285714286,0,319275.65692183026,623723.0550336714,458611.16308952926,255701.71281043353,50926.92141076738,2.1285043794788683e-06,0.0,0.0,0.0,2.1285043794788683e-06,0.0,23.10272147976616,3.5942581060616976,0.001706390169763077,0.0
12598,10.0,9.310344827586208,4.642857142857143,0,301244.1881434333,514740.87373029307,295143.375021805,171316.85859572308,50307.33551047943,2.008294587622889e-06,0.0,0.0,0.0,2.008294587622889e-06,0.0,23.912714942405625,3.8967729887472466,0.0016795623478095133,0.0
12599,10.0,9.310344827586208,5.0,0,286935.50701475673,390619.8320305559,411326.3005949042,114598.4570934231,26952.940437739948,1.912903380098378e-06,0.0,0.0,0.0,1.912903380098378e-06,0.0,23.33419337372697,4.200065607550768,0.000898863258870064,0.0
12600,0.0,9.655172413793103,0.0,0,240017.70824792716,453034.2179729297,322994.93969432835,176057.4137007361,21776.041092394564,1.6001180549861812e-06,0.0,0.0,0.0,1.6001180549861812e-06,0.0,23.65040219341389,-0.049938835309792644,0.0007262169894528766,0.0
12601,0.0,9.655172413793103,0.35714285714285715,0,226310.630525329,372001.1043114218,259133.4323213355,111454.1429338455,-69622.6798455931,1.5087375368355267e-06,0.0,0.0,0.0,1.5087375368355267e-06,0.0,22.740042869542076,0.25389252238383625,-0.0023244250651656114,0.0
12602,0.0,9.655172413793103,0.7142857142857143,0,155004.53686920158,389818.41005887056,245072.74332023357,226270.3310341317,103087.44560577109,1.0333635791280104e-06,0.0,0.0,0.0,1.0333635791280104e-06,0.0,22.432340609701686,0.5584489488868041,0.0034541142274993656,0.0
12603,0.0,9.655172413793103,1.0714285714285714,0,632421.3610319932,878880.5416065874,222802.58689766156,273122.16288039234,-12757.239642217337,4.216142406879955e-06,0.0,0.0,0.0,4.216142406879955e-06,0.0,24.017964399426134,0.8648307658413091,-0.00043251236072776685,0.0
12604,0.0,9.655172413793103,1.4285714285714286,0,369227.36538767006,648494.4015730884,297201.7936264001,263625.787478116,49532.45235182268,2.461515769251134e-06,0.0,0.0,0.0,2.461515769251134e-06,0.0,23.10463227756485,1.1743385585211081,0.0017439242501844903,0.0
12605,0.0,9.655172413793103,1.7857142857142858,0,470517.37872987945,904643.2358510447,712420.7412809017,368447.3511122666,145575.29038310313,3.136782524865863e-06,0.0,0.0,0.0,3.136782524865863e-06,0.0,23.484788742169457,1.4868794186960859,0.005749859799596792,0.0
12606,0.0,9.655172413793103,2.142857142857143,0,351828.34153249336,1000892.1798616872,961991.3651236176,631230.0838455706,312194.6235938548,2.345522276883289e-06,0.0,0.0,0.0,2.345522276883289e-06,0.0,23.52074043208069,1.799318447725221,0.016735222587043904,0.0
12607,0.0,9.655172413793103,2.5,0,1086441.9992193624,1767677.2341768658,607771.9216820574,773815.207169985,691799.1523276692,7.242946661462416e-06,0.0,0.0,0.0,7.242946661462416e-06,0.0,23.72102117937429,2.1066840939442795,0.06917991523276693,0.0
12608,0.0,9.655172413793103,2.857142857142857,0,1059863.0600436614,1394815.829153951,401015.74680585886,279384.66241805616,476743.4497006659,7.065753733624409e-06,0.0,0.0,0.0,7.065753733624409e-06,0.0,23.23321816988671,2.406461304868078,0.025555878111582123,0.0
12609,0.0,9.655172413793103,3.2142857142857144,0,880691.9228541896,1062158.0056813073,368535.5286424917,71309.37889122387,-38023.9054213277,5.8712794856945975e-06,0.0,0.0,0.0,5.8712794856945975e-06,0.0,23.25969365777497,2.7011651329818003,-0.0015018491437001394,0.0
12610,0.0,9.655172413793103,3.5714285714285716,0,468668.4223236286,736253.9834739352,293426.0677027189,245437.59827259267,1956.9584882885001,3.1244561488241907e-06,0.0,0.0,0.0,3.1244561488241907e-06,0.0,23.344171148984085,2.9957671299496798,6.890002820958882e-05,0.0
12611,0.0,9.655172413793103,3.928571428571429,0,47958.816791286285,326451.3566371587,296394.40786238376,271142.8253880552,-110737.29412243918,3.197254452752419e-07,0.0,0.0,0.0,3.197254452752419e-07,0.0,22.77940564437805,3.2934021944127383,-0.0037543582973076895,0.0
12612,0.0,9.655172413793103,4.285714285714286,0,352909.0202366726,350094.1335771935,420533.31781551073,37716.95131936155,462.3021846302122,2.352726801577817e-06,0.0,0.0,0.0,2.352726801577817e-06,0.0,23.630153256785157,3.5941632346010897,1.5490194212803926e-05,0.0
12613,0.0,9.655172413793103,4.642857142857143,0,149910.57168815148,358493.7399804019,264844.55175568676,185591.58377824456,61683.617612271424,9.994038112543433e-07,0.0,0.0,0.0,9.994038112543433e-07,0.0,22.823934986844222,3.8967496652409794,0.0020593712739302166,0.0
12614,0.0,9.655172413793103,5.0,0,159644.48638205213,363790.5206609769,464642.30724311975,280582.3992343064,-107.86420238102563,1.0642965758803475e-06,0.0,0.0,0.0,1.0642965758803475e-06,0.0,23.66761780778243,4.200061164690208,-3.5972018968242365e-06,0.0
12615,0.3448275862068966,9.655172413793103,0.0,0,313743.48338009685,481017.44586439023,164433.81848518422,170193.4109228657,-66108.49535188061,2.091623222533979e-06,0.0,0.0,0.0,2.091623222533979e-06,0.0,23.516514697689836,-0.049934044257699296,-0.002204675876023661,0.0
12616,0.3448275862068966,9.655172413793103,0.35714285714285715,0,103275.57838643805,400654.84816058265,284808.18417335505,318226.2529909469,-24982.770267318236,6.88503855909587e-07,0.0,0.0,0.0,6.88503855909587e-07,0.0,22.020517957764184,0.25391767377717905,-0.0008340755847866775,0.0
12617,0.3448275862068966,9.655172413793103,0.7142857142857143,0,305121.8467914494,641234.2317693782,388547.5038242007,302261.13203602,27890.964072600815,2.0341456452763293e-06,0.0,0.0,0.0,2.0341456452763293e-06,0.0,23.531842062896438,0.558551255520954,0.0009345325733481057,0.0
12618,0.3448275862068966,9.655172413793103,1.0714285714285714,0,411539.7978325813,644951.9995967045,406063.5348855232,169749.09725395407,8089.252340690382,2.7435986522172085e-06,0.0,0.0,0.0,2.7435986522172085e-06,0.0,23.25004468398614,0.8651532112041963,0.00027425224613766846,0.0
12619,0.3448275862068966,9.655172413793103,1.4285714285714286,0,316395.0508401049,542048.0113065534,343482.8808187407,177181.6647207116,31350.967616243663,2.1093003389340326e-06,0.0,0.0,0.0,2.1093003389340326e-06,0.0,23.804902508182426,1.1751260014110303,0.0011037957964280785,0.0
12620,0.3448275862068966,9.655172413793103,1.7857142857142858,0,715011.7735989331,1081524.1989101712,700003.8711138595,256671.36355638484,68504.21089154962,4.766745157326221e-06,0.0,0.0,0.0,4.766745157326221e-06,0.0,24.00905896708059,1.4883694403763954,0.002705744960369596,0.0
12621,0.3448275862068966,9.655172413793103,2.142857142857143,0,868552.8124438119,1494751.0701443905,993453.5297785163,491832.6873747166,346247.4061933957,5.790352082958746e-06,0.0,0.0,0.0,5.790352082958746e-06,0.0,23.202831545940466,1.8015030717257878,0.018560625247574382,0.0
12622,0.3448275862068966,9.655172413793103,2.5,0,874657.7812695511,1233188.3814042555,763851.2457962554,224040.4890280418,799043.3538955065,5.8310518751303406e-06,0.0,0.0,0.0,5.8310518751303406e-06,0.0,23.33068032904402,2.1091659203722872,0.07990433538955065,0.0
12623,0.3448275862068966,9.655172413793103,2.857142857142857,0,657045.489903925,689023.7058768894,878891.8138027546,147819.91943290376,442282.412106042,4.3803032660261665e-06,0.0,0.0,0.0,4.3803032660261665e-06,0.0,22.515270689040502,2.4086459288686446,0.023708590903084945,0.0
12624,0.3448275862068966,9.655172413793103,3.2142857142857144,0,744914.9956805469,743585.9585722521,653644.3221071562,-42216.302913236235,161757.64156610117,4.966099971203646e-06,0.0,0.0,0.0,4.966099971203646e-06,0.0,23.07742553080835,2.70265515466211,0.006389022189623373,0.0
12625,0.3448275862068966,9.655172413793103,3.5714285714285716,0,225434.14672075715,472775.75947712787,313651.113831319,214803.6138619016,-18679.927468623766,1.5028943114717144e-06,0.0,0.0,0.0,1.5028943114717144e-06,0.0,23.994292273313615,2.9965545728396017,-0.0006576774812770123,0.0
12626,0.3448275862068966,9.655172413793103,3.928571428571429,0,108500.66738583062,486329.0219382236,485191.29676105344,377263.96582545736,2575.784607636092,7.233377825722041e-07,0.0,0.0,0.0,7.233377825722041e-07,0.0,23.171301019416873,3.2937246397756255,8.732756557211591e-05,0.0
12627,0.3448275862068966,9.655172413793103,4.285714285714286,0,398987.6107657116,461412.7851347382,241588.31089539986,859.6862510986375,-6576.752472487547,2.6599174051047437e-06,0.0,0.0,0.0,2.6599174051047437e-06,0.0,23.63958776158121,3.59426554123524,-0.000220364896544581,0.0
12628,0.3448275862068966,9.655172413793103,4.642857142857143,0,254822.42065699032,457575.60023356375,329338.7660715509,164108.20922294405,102756.0066134228,1.6988161377132688e-06,0.0,0.0,0.0,1.6988161377132688e-06,0.0,23.169699189685993,3.896774816634322,0.0034306153957054508,0.0
12629,0.3448275862068966,9.655172413793103,5.0,0,318844.58755774726,499110.07824477024,203326.01736962926,161360.96204522948,-34019.71439671943,2.125630583718315e-06,0.0,0.0,0.0,2.125630583718315e-06,0.0,23.126912635833758,4.200065955742301,-0.0011345356332864798,0.0
12630,0.6896551724137931,9.655172413793103,0.0,0,168833.41551026696,344838.71047534444,328075.3226617921,168248.91981154,-17509.48966618248,1.1255561034017797e-06,0.0,0.0,0.0,1.1255561034017797e-06,0.0,23.474646394894037,-0.04992942771909295,-0.0005839302386636448,0.0
12631,0.6896551724137931,9.655172413793103,0.35714285714285715,0,242581.70056878577,492785.9273404029,221554.65906407667,296580.8487192632,-43594.256358515304,1.6172113371252386e-06,0.0,0.0,0.0,1.6172113371252386e-06,0.0,21.73597057840432,0.253941909034093,-0.0014554392678035113,0.0
12632,0.6896551724137931,9.655172413793103,0.7142857142857143,0,274940.11520819063,416617.5130525493,292874.895868831,101550.84417522606,59562.82168830825,1.8329341013879375e-06,0.0,0.0,0.0,1.8329341013879375e-06,0.0,23.382663255486484,0.5586498356484576,0.001995750196492168,0.0
12633,0.6896551724137931,9.655172413793103,1.0714285714285714,0,424812.533553562,489422.7285192461,180089.58613707495,5058.65364914437,65148.22289006835,2.832083557023747e-06,0.0,0.0,0.0,2.832083557023747e-06,0.0,22.07682920585361,0.8654639115341454,0.0022087389176381955,0.0
12634,0.6896551724137931,9.655172413793103,1.4285714285714286,0,430307.0245610373,651606.2953373201,470302.6236595627,160316.38172288076,-4987.516643165516,2.868713497073582e-06,0.0,0.0,0.0,2.868713497073582e-06,0.0,23.164979542503993,1.175884761789918,-0.00017559904283428898,0.0
12635,0.6896551724137931,9.655172413793103,1.7857142857142858,0,389314.9661395397,591565.9554578853,604206.9750813486,208725.4493296973,175401.65578764823,2.5954331075969313e-06,0.0,0.0,0.0,2.5954331075969313e-06,0.0,22.79335636254622,1.489805188199091,0.006927926619565738,0.0
12636,0.6896551724137931,9.655172413793103,2.142857142857143,0,1134065.7536425437,1095394.1148352465,1064915.2867140386,-53603.833641790836,475850.7753780715,7.560438357616958e-06,0.0,0.0,0.0,7.560438357616958e-06,0.0,22.638162625133255,1.8036081210641106,0.02550802621934137,0.0
12637,0.6896551724137931,9.655172413793103,2.5,0,633567.4582040409,1333319.2617264113,860987.7221712082,613330.2683937722,883881.0142264542,4.223783054693606e-06,0.0,0.0,0.0,4.223783054693606e-06,0.0,23.959502829026345,2.1115573465759514,0.08838810142264542,0.0
12638,0.6896551724137931,9.655172413793103,2.857142857142857,0,870055.0713301395,1041311.5391372533,1075695.065788082,188957.92873649864,322296.26504722296,5.800367142200931e-06,0.0,0.0,0.0,5.800367142200931e-06,0.0,23.78503273312274,2.4107509782069676,0.01727672204104012,0.0
12639,0.6896551724137931,9.655172413793103,3.2142857142857144,0,543528.6891679853,924392.9609295536,554538.9393216631,300342.46182872745,95163.8979245686,3.6235245944532357e-06,0.0,0.0,0.0,3.6235245944532357e-06,0.0,23.051894821754765,2.7040909024848054,0.003758735906412592,0.0
12640,0.6896551724137931,9.655172413793103,3.5714285714285716,0,260347.10386087376,468093.00676807907,395199.04183794727,179068.37902077896,109271.93043004541,1.7356473590724917e-06,0.0,0.0,0.0,1.7356473590724917e-06,0.0,24.42377865653812,2.99731333321849,0.00384721450874048,0.0
12641,0.6896551724137931,9.655172413793103,3.928571428571429,0,397796.6531822095,418326.05960410874,528395.1350099467,87153.68869139321,69830.58492844194,2.651977687881397e-06,0.0,0.0,0.0,2.651977687881397e-06,0.0,23.736324627181165,3.294035340105575,0.002367486383061448,0.0
12642,0.6896551724137931,9.655172413793103,4.285714285714286,0,122550.06684122664,391923.7681727759,275467.3384272123,264075.55717117654,36790.78068609916,8.170004456081776e-07,0.0,0.0,0.0,8.170004456081776e-07,0.0,23.165111432562725,3.5943641213627435,0.0012327355505018912,0.0
12643,0.6896551724137931,9.655172413793103,4.642857142857143,0,352948.26197432633,554773.4804830351,430506.4093196289,156498.98206126186,43304.38233031529,2.3529884131621754e-06,0.0,0.0,0.0,2.3529884131621754e-06,0.0,22.30510915212275,3.8967990518912363,0.001445761524022563,0.0
12644,0.6896551724137931,9.655172413793103,5.0,0,203632.87691523568,410399.67438872956,362338.58092983294,187035.3697746045,110759.12359847642,1.357552512768238e-06,0.0,0.0,0.0,1.357552512768238e-06,0.0,23.20429717894738,4.200070572280907,0.0036937456607857504,0.0
12645,1.0344827586206897,9.655172413793103,0.0,0,248977.67989371935,499984.1342904242,268129.84009529644,236840.9052496203,35976.86760786204,1.6598511992914624e-06,0.0,0.0,0.0,1.6598511992914624e-06,0.0,22.93703626356706,-0.049925006169381975,0.001199805436317409,0.0
12646,1.0344827586206897,9.655172413793103,0.35714285714285715,0,434149.0019809081,638901.6988109159,200059.89080085358,209602.83841726533,-30301.57358790553,2.8943266798727208e-06,0.0,0.0,0.0,2.8943266798727208e-06,0.0,23.026286973327807,0.2539651206656509,-0.001011649326309954,0.0
12647,1.0344827586206897,9.655172413793103,0.7142857142857143,0,242018.81039245304,452535.29031288455,226664.95738595387,197086.79425746048,55733.32202148373,1.613458735949687e-06,0.0,0.0,0.0,1.613458735949687e-06,0.0,23.469019025912772,0.5587442520438219,0.001867436518665989,0.0
12648,1.0344827586206897,9.655172413793103,1.0714285714285714,0,415313.38279287366,578580.798974808,438349.62782480684,111304.51556417771,-3213.6773548502,2.7687558852858245e-06,0.0,0.0,0.0,2.7687558852858245e-06,0.0,22.952879920024294,0.8657614888038767,-0.00010895422664663821,0.0
12649,1.0344827586206897,9.655172413793103,1.4285714285714286,0,573771.510085748,733898.2752013186,575822.6495007629,97659.58456492939,33798.428897036574,3.825143400571654e-06,0.0,0.0,0.0,3.825143400571654e-06,0.0,23.93220594440677,1.1766114743813294,0.0011899653050291461,0.0
12650,1.0344827586206897,9.655172413793103,1.7857142857142858,0,533926.1825857616,949787.0556536624,565952.3340592551,340041.5623372231,92333.09016764886,3.559507883905078e-06,0.0,0.0,0.0,3.559507883905078e-06,0.0,23.011436427438476,1.491180294293025,0.003646926081551073,0.0
12651,1.0344827586206897,9.655172413793103,2.142857142857143,0,811271.0876150456,1163455.3952495113,850757.5485533073,242367.41829961573,357547.38586583553,5.408473917433637e-06,0.0,0.0,0.0,5.408473917433637e-06,0.0,22.770100686480834,1.8056242593631924,0.019166361736148153,0.0
12652,1.0344827586206897,9.655172413793103,2.5,0,677670.5074657399,1549955.981764194,1174794.041975785,767667.1374564066,834919.2333745201,4.517803383104932e-06,0.0,0.0,0.0,4.517803383104932e-06,0.0,23.610723621943897,2.113847766031144,0.083491923337452,0.0
12653,1.0344827586206897,9.655172413793103,2.857142857142857,0,414793.5251441144,866806.5795139022,834278.9016695004,436706.86596020055,553160.3267008044,2.765290167627429e-06,0.0,0.0,0.0,2.765290167627429e-06,0.0,23.27674536964418,2.4127671165060494,0.029652212094795686,0.0
12654,1.0344827586206897,9.655172413793103,3.2142857142857144,0,282336.0056308578,664996.3492747208,724837.6814365889,417378.042778095,141204.65339387738,1.8822400375390518e-06,0.0,0.0,0.0,1.8822400375390518e-06,0.0,23.723061787493375,2.7054660085787394,0.005577230572089532,0.0
12655,1.0344827586206897,9.655172413793103,3.5714285714285716,0,343587.74115426163,483518.2277074972,417106.4816678688,111572.56390061909,33311.9042611094,2.290584941028411e-06,0.0,0.0,0.0,2.290584941028411e-06,0.0,23.385777865895037,2.998040045809901,0.0011728358864233589,0.0
12656,1.0344827586206897,9.655172413793103,3.928571428571429,0,524646.6304898026,685411.9035896723,344148.1536383473,81296.03051122738,-9193.330376407333,3.4976442032653506e-06,0.0,0.0,0.0,3.4976442032653506e-06,0.0,22.610263722203786,3.2943329173753058,-0.00031168412098270476,0.0
12657,1.0344827586206897,9.655172413793103,4.285714285714286,0,111635.40607334865,384747.90256099513,257341.78662587836,338022.03829284234,-76208.15867440295,7.44236040488991e-07,0.0,0.0,0.0,7.44236040488991e-07,0.0,23.46160675091997,3.5944585377581078,-0.002553479558853751,0.0
12658,1.0344827586206897,9.655172413793103,4.642857142857143,0,188869.91377900794,382159.5312962376,233986.84136530818,169489.3315717701,-2170.3778410728505,1.2591327585267196e-06,0.0,0.0,0.0,1.2591327585267196e-06,0.0,22.86037134765106,3.896822263522794,-7.246030554782049e-05,0.0
12659,1.0344827586206897,9.655172413793103,5.0,0,295122.5313111719,362263.7912822628,31217.79622957083,266767.36269366636,25378.50613528725,1.967483542074479e-06,0.0,0.0,0.0,1.967483542074479e-06,0.0,23.392220568727442,4.2000749938306186,0.0008463568857250449,0.0
12660,1.3793103448275863,9.655172413793103,0.0,0,423536.2628219398,510286.7904593871,434503.4276238302,53974.71355021297,-99069.31320773756,2.8235750854795986e-06,0.0,0.0,0.0,2.8235750854795986e-06,0.0,23.016007668850037,-0.049920802329415565,-0.0033038979895209175,0.0
12661,1.3793103448275863,9.655172413793103,0.35714285714285715,0,272431.77062518673,472089.9449538415,307839.71244033286,157617.10332535452,-3075.4176205259614,1.8162118041679115e-06,0.0,0.0,0.0,1.8162118041679115e-06,0.0,23.217008580509585,0.2539871893951252,-0.00010267599320877061,0.0
12662,1.3793103448275863,9.655172413793103,0.7142857142857143,0,266250.09502212907,560545.1238882595,285450.29644795094,304122.8177980892,-4359.583804334906,1.7750006334808604e-06,0.0,0.0,0.0,1.7750006334808604e-06,0.0,23.34605514735384,0.55883401953311,-0.00014607501772927816,0.0
12663,1.3793103448275863,9.655172413793103,1.0714285714285714,0,453299.32670099154,538084.1011517497,146900.64232599238,41308.199273899045,-43087.345134434945,3.0219955113399435e-06,0.0,0.0,0.0,3.0219955113399435e-06,0.0,23.69615215863125,0.8660444138644016,-0.0014608026410286535,0.0
12664,1.3793103448275863,9.655172413793103,1.4285714285714286,0,135277.37714834415,399096.5202639674,315329.82702421607,471394.27801733464,48851.39776738647,9.01849180988961e-07,0.0,0.0,0.0,9.01849180988961e-07,0.0,23.058269354615195,1.1773024048549334,0.001719945877438851,0.0
12665,1.3793103448275863,9.655172413793103,1.7857142857142858,0,282137.50757402205,662218.9598442502,430923.12264372257,347879.6978231881,157752.0919141926,1.880916717160147e-06,0.0,0.0,0.0,1.880916717160147e-06,0.0,21.94390211902122,1.4924876924528565,0.006230812998639193,0.0
12666,1.3793103448275863,9.655172413793103,2.142857142857143,0,1079953.9377170247,1489555.3342875612,633052.1702378946,276381.93764028454,653562.6942215706,7.199692918113498e-06,0.0,0.0,0.0,7.199692918113498e-06,0.0,22.865116338634436,1.8075411263699004,0.03503429058603875,0.0
12667,1.3793103448275863,9.655172413793103,2.5,0,587288.1940791871,1320732.8260922777,1055340.267001441,647589.957984025,790479.2345130708,3.915254627194581e-06,0.0,0.0,0.0,3.915254627194581e-06,0.0,23.41500242471667,2.1160254090465966,0.07904792345130708,0.0
12668,1.3793103448275863,9.655172413793103,2.857142857142857,0,668492.2162568026,1447962.9824962844,847645.089185692,727571.1677496396,592412.4825415467,4.456614775045351e-06,0.0,0.0,0.0,4.456614775045351e-06,0.0,23.943805279864417,2.414683983512757,0.0317563276540397,0.0
12669,1.3793103448275863,9.655172413793103,3.2142857142857144,0,521394.54758508725,766083.0032120234,337797.33179617993,185496.7039297489,18488.456421131137,3.475963650567248e-06,0.0,0.0,0.0,3.475963650567248e-06,0.0,23.507476962994843,2.706773406738571,0.0007302477779896496,0.0
12670,1.3793103448275863,9.655172413793103,3.5714285714285716,0,264383.6592348488,444604.3136779067,242809.00894807227,145318.8831809846,-13533.836350448515,1.7625577282323253e-06,0.0,0.0,0.0,1.7625577282323253e-06,0.0,23.860212975155836,2.998730976283505,-0.0004764953942101158,0.0
12671,1.3793103448275863,9.655172413793103,3.928571428571429,0,234576.73754065714,445622.4633673663,208764.55287280836,213395.47003360567,32538.32633590381,1.5638449169377142e-06,0.0,0.0,0.0,1.5638449169377142e-06,0.0,23.445916811987253,3.2946158424358307,0.0011031562259832376,0.0
12672,1.3793103448275863,9.655172413793103,4.285714285714286,0,227494.51689972426,371312.55490733474,489059.8617265054,226825.85322757871,-30201.517903952517,1.5166301126648283e-06,0.0,0.0,0.0,1.5166301126648283e-06,0.0,23.480851975545995,3.594548305247396,-0.0010119514754789805,0.0
12673,1.3793103448275863,9.655172413793103,4.642857142857143,0,270981.54784147843,407079.9291743517,458329.3170889259,165382.4870311101,-7443.787870024586,1.806543652276523e-06,0.0,0.0,0.0,1.806543652276523e-06,0.0,23.255538617513597,3.8968443322522686,-0.00024851854515272703,0.0
12674,1.3793103448275863,9.655172413793103,5.0,0,246371.2041489846,477347.75921608816,243009.45853900275,220489.88041081277,38527.77511744089,1.642474694326564e-06,0.0,0.0,0.0,1.642474694326564e-06,0.0,23.90600746327669,4.2000791976705845,0.0012848765639902023,0.0
12675,1.7241379310344829,9.655172413793103,0.0,0,322026.9034558679,504641.5018731414,139482.73102200008,261270.4179827505,-276.8463499629906,2.1468460230391195e-06,0.0,0.0,0.0,2.1468460230391195e-06,0.0,24.19666590449167,-0.04991684118825477,-9.232648026245636e-06,0.0
12676,1.7241379310344829,9.655172413793103,0.35714285714285715,0,124438.5329789765,312263.2269199125,332248.7887539008,199027.02797180068,-42109.21866987488,8.295902198598433e-07,0.0,0.0,0.0,8.295902198598433e-07,0.0,22.89607010391099,0.25400798403844793,-0.0014058597509873413,0.0
12677,1.7241379310344829,9.655172413793103,0.7142857142857143,0,294635.7663048935,457755.8674803621,325858.43230167805,120214.56028107619,-27074.75701798172,1.964238442032623e-06,0.0,0.0,0.0,1.964238442032623e-06,0.0,23.495468819711384,0.5589186045076956,-0.0009071842150356233,0.0
12678,1.7241379310344829,9.655172413793103,1.0714285714285714,0,208008.6235560274,417727.4388425837,361271.72748046165,187318.59502312058,-12635.210783733954,1.3867241570401827e-06,0.0,0.0,0.0,1.3867241570401827e-06,0.0,22.791877971974255,0.8663110049124959,-0.000428375181279879,0.0
12679,1.7241379310344829,9.655172413793103,1.4285714285714286,0,60343.117249839954,478645.8160202063,466523.29638199584,413161.70548150135,39226.318838978186,4.0228744833226635e-07,0.0,0.0,0.0,4.0228744833226635e-07,0.0,24.22830990439873,1.1779534460839314,0.0013810688835446995,0.0
12680,1.7241379310344829,9.655172413793103,1.7857142857142858,0,383571.83560905996,808724.7469291661,622645.071106844,367607.1608684022,57388.157764649775,2.5571455707270664e-06,0.0,0.0,0.0,2.5571455707270664e-06,0.0,23.482787724855033,1.4937196110572373,0.002266688669728926,0.0
12681,1.7241379310344829,9.655172413793103,2.142857142857143,0,419704.29097695666,1038729.210269737,556432.6561338424,756420.0626333548,154375.85785233544,2.7980286065130444e-06,0.0,0.0,0.0,2.7980286065130444e-06,0.0,23.3920910645341,1.809347327571829,0.008275332590562706,0.0
12682,1.7241379310344829,9.655172413793103,2.5,0,1165395.4202040585,1753028.915598038,1042137.2490121666,408077.5167741822,900430.1009481682,7.76930280136039e-06,0.0,0.0,0.0,7.76930280136039e-06,0.0,22.837469543104987,2.1180773309682097,0.09004301009481681,0.0
12683,1.7241379310344829,9.655172413793103,2.857142857142857,0,794169.4998886614,1444578.2901787173,1016382.6965493317,528204.4829872709,515571.81661960145,5.294463332591076e-06,0.0,0.0,0.0,5.294463332591076e-06,0.0,23.298809257951792,2.4164901847146862,0.027637276425235176,0.0
12684,1.7241379310344829,9.655172413793103,3.2142857142857144,0,535197.9649873439,974031.6995011949,437396.54208855075,440282.59930934146,-959.1622223507584,3.5679864332489593e-06,0.0,0.0,0.0,3.5679864332489593e-06,0.0,23.378449866855497,2.7080053253429517,-3.7884508346662885e-05,0.0
12685,1.7241379310344829,9.655172413793103,3.5714285714285716,0,98481.14735005461,495530.31620826805,417970.27634284325,384730.39246113464,-55414.91705384525,6.565409823336974e-07,0.0,0.0,0.0,6.565409823336974e-07,0.0,22.883960353183483,2.9993820175125028,-0.0019510323653217363,0.0
12686,1.7241379310344829,9.655172413793103,3.928571428571429,0,92816.99294782047,382150.05083565006,278954.7179290981,305491.72538056027,64243.88482814948,6.187799529854698e-07,0.0,0.0,0.0,6.187799529854698e-07,0.0,23.50119646376906,3.294882433483925,0.0021780788845098594,0.0
12687,1.7241379310344829,9.655172413793103,4.285714285714286,0,406336.1380529631,466887.5851947575,504934.72972123104,80913.17205210001,-11045.430769913408,2.708907587019754e-06,0.0,0.0,0.0,2.708907587019754e-06,0.0,23.001110892290768,3.5946328902219813,-0.00037009530449633453,0.0
12688,1.7241379310344829,9.655172413793103,4.642857142857143,0,214807.1083948364,444121.0672342409,199014.676365894,288640.1223541841,34505.51225402886,1.4320473892989093e-06,0.0,0.0,0.0,1.4320473892989093e-06,0.0,23.652529084940056,3.896865126895591,0.001152002160036369,0.0
12689,1.7241379310344829,9.655172413793103,5.0,0,79508.99853649901,402055.3065707503,426297.78901977465,337489.47338367364,-31769.93595491968,5.300599902433268e-07,0.0,0.0,0.0,5.300599902433268e-07,0.0,22.94687695281975,4.200083158811745,-0.001059506966688747,0.0
12690,2.0689655172413794,9.655172413793103,0.0,0,202062.22148609668,347327.8386361473,166130.63114334832,129431.07956334471,29756.75381821832,1.3470814765739778e-06,0.0,0.0,0.0,1.3470814765739778e-06,0.0,23.50681873268963,-0.049913149907751274,0.0009923686349629591,0.0
12691,2.0689655172413794,9.655172413793103,0.35714285714285715,0,366145.6747715385,450428.90888374165,480821.334208677,100426.70901398535,-41915.9601584049,2.44097116514359e-06,0.0,0.0,0.0,2.44097116514359e-06,0.0,23.336160798788242,0.2540273620051394,-0.00139940761600613,0.0
12692,2.0689655172413794,9.655172413793103,0.7142857142857143,0,223401.00009442325,418827.55395579734,214925.84026746592,180033.44660430928,19247.797787990472,1.4893400006294883e-06,0.0,0.0,0.0,1.4893400006294883e-06,0.0,23.588431345079762,0.5589974269618576,0.000644929087114821,0.0
12693,2.0689655172413794,9.655172413793103,1.0714285714285714,0,286221.14203630795,534064.8873149434,346414.1699757984,204627.669096352,17054.87731211221,1.9081409469087195e-06,0.0,0.0,0.0,1.9081409469087195e-06,0.0,23.525304932851203,0.8665594339126985,0.0005782164053556952,0.0
12694,2.0689655172413794,9.655172413793103,1.4285714285714286,0,426545.8837736318,618103.9254657615,204118.5150947412,180019.35334378367,-105773.65666547362,2.8436392251575457e-06,0.0,0.0,0.0,2.8436392251575457e-06,0.0,23.49459287138462,1.1785601338282001,-0.0037240482982631904,0.0
12695,2.0689655172413794,9.655172413793103,1.7857142857142858,0,744275.5151301902,953519.563020888,336035.4594756396,127108.62206908905,92006.05087375166,4.961836767534601e-06,0.0,0.0,0.0,4.961836767534601e-06,0.0,23.082128980062503,1.4948676027448986,0.0036340088475622597,0.0
12696,2.0689655172413794,9.655172413793103,2.142857142857143,0,190949.62069698036,866216.621011776,1018364.760031357,804088.065767261,353483.63977250346,1.2729974713132025e-06,0.0,0.0,0.0,1.2729974713132025e-06,0.0,23.733690359307744,1.811030477707467,0.018948524239056543,0.0
12697,2.0689655172413794,9.655172413793103,2.5,0,1062219.5159373234,1471595.4478279157,1233762.4711609373,310619.9849419232,934961.8759802452,7.081463439582156e-06,0.0,0.0,0.0,7.081463439582156e-06,0.0,23.605094076084217,2.1199894616084696,0.09349618759802453,0.0
12698,2.0689655172413794,9.655172413793103,2.857142857142857,0,591636.095609009,989369.8554461466,865905.0465143378,345743.47408750403,463918.2222447369,3.944240637393394e-06,0.0,0.0,0.0,3.944240637393394e-06,0.0,23.784725094372526,2.418173334850324,0.024868380570036815,0.0
12699,2.0689655172413794,9.655172413793103,3.2142857142857144,0,303642.51533430035,590727.2988869465,662856.422992223,329644.05393035396,62991.7855662511,2.024283435562002e-06,0.0,0.0,0.0,2.024283435562002e-06,0.0,23.458216319268047,2.709153317030613,0.002488017949880375,0.0
12700,2.0689655172413794,9.655172413793103,3.5714285714285716,0,439776.66851925023,498772.46365909243,495879.047285592,57556.225740963884,89716.31110897358,2.9318444567950018e-06,0.0,0.0,0.0,2.9318444567950018e-06,0.0,23.385864567070723,2.9999887052567717,0.003158705922103974,0.0
12701,2.0689655172413794,9.655172413793103,3.928571428571429,0,458660.3003315622,569775.7573966328,264370.696116475,42353.22127434577,-89043.30808708667,3.0577353355437476e-06,0.0,0.0,0.0,3.0577353355437476e-06,0.0,22.972884053699456,3.2951308624841276,-0.003018860856098324,0.0
12702,2.0689655172413794,9.655172413793103,4.285714285714286,0,257975.81404872032,421721.03418026725,191467.8287034224,142920.6196702962,87823.52463840233,1.7198387603248022e-06,0.0,0.0,0.0,1.7198387603248022e-06,0.0,23.154717673256364,3.5947117126761436,0.0029426714783750947,0.0
12703,2.0689655172413794,9.655172413793103,4.642857142857143,0,314049.1603938752,596406.4325497885,316695.46648855356,256680.47460374993,85183.10153803573,2.0936610692925013e-06,0.0,0.0,0.0,2.0936610692925013e-06,0.0,23.25319556881971,3.8968845048622827,0.0028439258124318017,0.0
12704,2.0689655172413794,9.655172413793103,5.0,0,277949.018975528,503960.814115147,265454.7339124623,198719.07965519227,-17696.19751464069,1.8529934598368535e-06,0.0,0.0,0.0,1.8529934598368535e-06,0.0,23.975272858175632,4.200086850092249,-0.0005901568255367703,0.0
12705,2.413793103448276,9.655172413793103,0.0,0,389502.13905227184,412299.80445927824,348091.4830363769,-5316.852705057035,39762.62996331208,2.596680927015146e-06,0.0,0.0,0.0,2.596680927015146e-06,0.0,22.856221576195622,-0.04990975756115692,0.0013260581802800923,0.0
12706,2.413793103448276,9.655172413793103,0.35714285714285715,0,224461.67002907716,551528.3143920366,362432.6046787172,303471.0111673552,21728.15002333628,1.496411133527181e-06,0.0,0.0,0.0,1.496411133527181e-06,0.0,22.813510448174327,0.2540451706705197,0.0007254167269333924,0.0
12707,2.413793103448276,9.655172413793103,0.7142857142857143,0,236904.64419845003,489099.8075996768,253141.1600969626,251260.36560913388,-111602.27894991479,1.5793642946563336e-06,0.0,0.0,0.0,1.5793642946563336e-06,0.0,23.452622845517567,0.5590698660744319,-0.0037394177077239863,0.0
12708,2.413793103448276,9.655172413793103,1.0714285714285714,0,180294.76143940256,376387.625279092,389034.4277942384,202749.2395037002,-4863.433546329747,1.2019650762626838e-06,0.0,0.0,0.0,1.2019650762626838e-06,0.0,23.109504814560704,0.8667877441893026,-0.00016488638477908887,0.0
12709,2.413793103448276,9.655172413793103,1.4285714285714286,0,438895.2405459603,737577.9717637968,446725.342680893,232731.85630624552,-61261.25079120383,2.9259682703064022e-06,0.0,0.0,0.0,2.9259682703064022e-06,0.0,23.30618214739395,1.179117689695645,-0.0021568683919095896,0.0
12710,2.413793103448276,9.655172413793103,1.7857142857142858,0,347261.468521153,810199.0297235544,650583.055798351,411827.7316744446,-23326.97586986996,2.3150764568076864e-06,0.0,0.0,0.0,2.3150764568076864e-06,0.0,23.282336515529412,1.4959226257073368,-0.0009213571921948762,0.0
12711,2.413793103448276,9.655172413793103,2.142857142857143,0,385785.3844685416,1145457.1586703307,705745.2070885809,987410.6691794342,397712.7459512986,2.5719025631236105e-06,0.0,0.0,0.0,2.5719025631236105e-06,0.0,23.191434830770554,1.8125773199550328,0.021319429696067448,0.0
12712,2.413793103448276,9.655172413793103,2.5,0,358997.21395061555,1112972.5797791271,1149348.1872698572,773548.0081666694,740942.1683786592,2.3933147596707704e-06,0.0,0.0,0.0,2.3933147596707704e-06,0.0,23.13010470942087,2.1217467406500674,0.07409421683786592,0.0
12713,2.413793103448276,9.655172413793103,2.857142857142857,0,769180.0708534888,1410377.3245887167,917498.9806567078,524062.2389016938,569148.8143000628,5.127867139023259e-06,0.0,0.0,0.0,5.127867139023259e-06,0.0,23.050491914879178,2.4197201770978896,0.030509276498159255,0.0
12714,2.413793103448276,9.655172413793103,3.2142857142857144,0,651232.6866331681,849911.4357765408,637776.8016355735,119061.60863726321,23174.053456076705,4.341551244221121e-06,0.0,0.0,0.0,4.341551244221121e-06,0.0,23.336350785535426,2.710208339993051,0.0009153171394001115,0.0
12715,2.413793103448276,9.655172413793103,3.5714285714285716,0,350841.3943283859,605353.776774198,556806.0475706315,232766.8023614735,-14470.04829559371,2.338942628855906e-06,0.0,0.0,0.0,2.338942628855906e-06,0.0,22.794648350766384,3.0005462611242164,-0.0005094572734817974,0.0
12716,2.413793103448276,9.655172413793103,3.928571428571429,0,138947.02324692937,415718.327748455,354209.6800032769,256633.22051270545,63560.8518822649,9.263134883128625e-07,0.0,0.0,0.0,9.263134883128625e-07,0.0,23.833391145466265,3.295359172760732,0.0021549218223110944,0.0
12717,2.413793103448276,9.655172413793103,4.285714285714286,0,319225.2549401745,524012.7738442952,259849.60854781556,169292.1785162736,-8243.678234003268,2.12816836626783e-06,0.0,0.0,0.0,2.12816836626783e-06,0.0,23.093112015764714,3.594784151788718,-0.000276217982778336,0.0
12718,2.413793103448276,9.655172413793103,4.642857142857143,0,363157.9946200671,529303.0767358552,213943.44539511367,132259.61251595546,-22971.601040916757,2.421053297467114e-06,0.0,0.0,0.0,2.421053297467114e-06,0.0,23.766625457559687,3.896902313527663,-0.0007669306232525197,0.0
12719,2.413793103448276,9.655172413793103,5.0,0,173928.3911132783,387711.02147596516,414271.52772057883,228590.60793402765,38350.90044325584,1.1595226074218555e-06,0.0,0.0,0.0,1.1595226074218555e-06,0.0,23.21508607549565,4.2000902424388435,0.0012789779071658456,0.0
12720,2.7586206896551726,9.655172413793103,0.0,0,238202.78028285288,313940.3867896884,337974.13654719497,88665.56630400999,23246.780237675543,1.5880185352190193e-06,0.0,0.0,0.0,1.5880185352190193e-06,0.0,24.042499628365334,-0.04990669465504395,0.0007752651956821294,0.0
12721,2.7586206896551726,9.655172413793103,0.35714285714285715,0,221975.48469132613,489132.13684400625,453082.7586316353,251338.36994973602,4378.773845026724,1.4798365646088408e-06,0.0,0.0,0.0,1.4798365646088408e-06,0.0,23.548674396197995,0.2540612498854642,0.00014618988672433243,0.0
12722,2.7586206896551726,9.655172413793103,0.7142857142857143,0,168003.23857616744,301258.6709833803,129276.33644684323,137539.48027695518,40625.74715167638,1.120021590507783e-06,0.0,0.0,0.0,1.120021590507783e-06,0.0,22.99497672284689,0.559135270417576,0.001361232402401689,0.0
12723,2.7586206896551726,9.655172413793103,1.0714285714285714,0,447960.1008567313,466651.60027238383,399502.82443585433,-11092.274877179309,-56214.62726959315,2.9864006723782085e-06,0.0,0.0,0.0,2.9864006723782085e-06,0.0,24.78703934108978,0.8669938826018773,-0.0019058606587073015,0.0
12724,2.7586206896551726,9.655172413793103,1.4285714285714286,0,274883.9934786025,479220.47019479895,340920.89838796266,162651.7456482796,-24008.81696718251,1.8325599565240166e-06,0.0,0.0,0.0,1.8325599565240166e-06,0.0,23.333866135262213,1.1796210997179455,-0.000845295480827727,0.0
12725,2.7586206896551726,9.655172413793103,1.7857142857142858,0,575836.2391327387,937664.8669315246,474433.4543880827,292951.26896427304,230071.53587937733,3.838908260884925e-06,0.0,0.0,0.0,3.838908260884925e-06,0.0,23.269210319986033,1.4968751923720598,0.009087250121246324,0.0
12726,2.7586206896551726,9.655172413793103,2.142857142857143,0,440023.6661545661,1029232.9429604032,611038.5256111671,570223.9523515298,82339.54183825757,2.9334911076971073e-06,0.0,0.0,0.0,2.9334911076971073e-06,0.0,23.308056455614512,1.8139739439272835,0.004413818996995625,0.0
12727,2.7586206896551726,9.655172413793103,2.5,0,836158.8067238731,1605330.789092157,1156451.7976785167,640592.5102156656,669911.2405142456,5.574392044825821e-06,0.0,0.0,0.0,5.574392044825821e-06,0.0,23.755928139152207,2.123333365297339,0.06699112405142456,0.0
12728,2.7586206896551726,9.655172413793103,2.857142857142857,0,805254.0719281227,1002120.029280071,918958.8642839219,158512.46105509176,289097.34258189064,5.368360479520818e-06,0.0,0.0,0.0,5.368360479520818e-06,0.0,22.835317935560077,2.4211168010701405,0.015497090634478367,0.0
12729,2.7586206896551726,9.655172413793103,3.2142857142857144,0,567795.4844205505,904692.6593811329,355487.14552625216,319974.2953135246,84768.73066739841,3.785303229470337e-06,0.0,0.0,0.0,3.785303229470337e-06,0.0,23.63436570683065,2.711160906657774,0.003348152804261176,0.0
12730,2.7586206896551726,9.655172413793103,3.5714285714285716,0,513839.0092159209,743167.6583185119,385767.60997088574,154309.8212569823,38453.31957501818,3.425593394772806e-06,0.0,0.0,0.0,3.425593394772806e-06,0.0,22.728558062139687,3.001049671146517,0.0013538533491265856,0.0
12731,2.7586206896551726,9.655172413793103,3.928571428571429,0,221081.88666513277,356142.56131937384,380975.1499178056,148525.43197790647,50422.62726216136,1.4738792444342184e-06,0.0,0.0,0.0,1.4738792444342184e-06,0.0,23.539036813822378,3.2955653111733065,0.0017094928184215835,0.0
12732,2.7586206896551726,9.655172413793103,4.285714285714286,0,329971.7430455793,465256.2208309344,323357.09119306237,88071.73154297478,-18033.579648295927,2.199811620303862e-06,0.0,0.0,0.0,2.199811620303862e-06,0.0,24.143934151745942,3.594849556131862,-0.0006042447135040352,0.0
12733,2.7586206896551726,9.655172413793103,4.642857142857143,0,440676.89748503047,679076.3600170944,403815.10933351866,170811.7361253661,-40434.828575277556,2.9378459832335364e-06,0.0,0.0,0.0,2.9378459832335364e-06,0.0,23.30805758012872,3.8969183927426077,-0.0013499585085563032,0.0
12734,2.7586206896551726,9.655172413793103,5.0,0,165636.22424415647,443930.35967827315,281254.19141930545,449699.72065134934,-63579.532900981656,1.104241494961043e-06,0.0,0.0,0.0,1.104241494961043e-06,0.0,24.0339420905317,4.200093305344956,-0.002120336601968349,0.0
12735,3.1034482758620694,9.655172413793103,0.0,0,287685.9036290932,430987.40210299095,106060.57024859921,328357.8779319626,2040.2921730601895,1.9179060241939546e-06,0.0,0.0,0.0,1.9179060241939546e-06,0.0,22.729105067067263,-0.0499039923898561,6.804243403276506e-05,0.0
12736,3.1034482758620694,9.655172413793103,0.35714285714285715,0,353942.24696296564,492960.95189979,313968.7533283009,85272.36555141633,90582.7077201978,2.3596149797531042e-06,0.0,0.0,0.0,2.3596149797531042e-06,0.0,23.257711930044472,0.2540754358582593,0.0030241972409329144,0.0
12737,3.1034482758620694,9.655172413793103,0.7142857142857143,0,220392.2126472439,430679.7979993262,314450.6516784768,176501.92752221116,-25098.693000797706,1.4692814176482926e-06,0.0,0.0,0.0,1.4692814176482926e-06,0.0,22.961045369014865,0.5591929737467328,-0.0008409729436621212,0.0
12738,3.1034482758620694,9.655172413793103,1.0714285714285714,0,168927.7401970788,289827.04889071366,335457.25679643155,148401.49252173735,-2876.9716015342797,1.126184934647192e-06,0.0,0.0,0.0,1.126184934647192e-06,0.0,24.532108452498463,0.8671757493113467,-9.753879475686161e-05,0.0
12739,3.1034482758620694,9.655172413793103,1.4285714285714286,0,356723.3847087333,627256.2607491353,471236.31129836646,219102.52229635653,13394.122555048802,2.378155898058222e-06,0.0,0.0,0.0,2.378155898058222e-06,0.0,23.3788559877706,1.1800652358841561,0.00047157639132787893,0.0
12740,3.1034482758620694,9.655172413793103,1.7857142857142858,0,206728.89164271313,439143.13751475443,226752.90125539576,427312.3415417831,46193.49284228513,1.378192610951421e-06,0.0,0.0,0.0,1.378192610951421e-06,0.0,23.26226027356778,1.4977155993718982,0.0018245274098223345,0.0
12741,3.1034482758620694,9.655172413793103,2.142857142857143,0,510028.5728652162,994974.0764517335,708046.4851460482,406107.58306394523,563878.8143913276,3.400190485768108e-06,0.0,0.0,0.0,3.400190485768108e-06,0.0,23.463331771302606,1.8152061228454521,0.030226777650193437,0.0
12742,3.1034482758620694,9.655172413793103,2.5,0,1128595.0828836407,1585587.2755065833,658340.69538636,328939.9026780827,891377.9142160134,7.523967219224271e-06,0.0,0.0,0.0,7.523967219224271e-06,0.0,23.600294935323813,2.1247331733202994,0.08913779142160133,0.0
12743,3.1034482758620694,9.655172413793103,2.857142857142857,0,447228.1308656046,1008053.6508342377,497566.37147068576,685244.8260084726,498210.92503653106,2.9815208724373643e-06,0.0,0.0,0.0,2.9815208724373643e-06,0.0,23.41616839686809,2.422348979988309,0.026706644175365966,0.0
12744,3.1034482758620694,9.655172413793103,3.2142857142857144,0,467857.30615871697,630981.3425096355,502244.06505317567,112233.46353058243,147543.48277080228,3.1190487077247797e-06,0.0,0.0,0.0,3.1190487077247797e-06,0.0,23.010842936675466,2.7120013136576127,0.005827598475289086,0.0
12745,3.1034482758620694,9.655172413793103,3.5714285714285716,0,327318.7237050151,601375.1260652544,429793.8132940841,223938.38841219986,-28616.703812016836,2.1821248247001008e-06,0.0,0.0,0.0,2.1821248247001008e-06,0.0,24.285823616451626,3.0014938073127277,-0.0010075286275682796,0.0
12746,3.1034482758620694,9.655172413793103,3.928571428571429,0,305788.1824018643,365181.1984470775,334555.9505939532,45232.75400348083,-50236.49859200695,2.0385878826790957e-06,0.0,0.0,0.0,2.0385878826790957e-06,0.0,24.159969354006748,3.295747177882776,-0.0017031824446428236,0.0
12747,3.1034482758620694,9.655172413793103,4.285714285714286,0,210778.26934387113,322750.4394070765,240281.2626126507,83206.48414401234,-28927.903059315104,1.405188462292474e-06,0.0,0.0,0.0,1.405188462292474e-06,0.0,23.78721362641613,3.5949072594610185,-0.0009692769176861722,0.0
12748,3.1034482758620694,9.655172413793103,4.642857142857143,0,194736.93823406866,449188.8933094371,285678.8138867272,233752.08386801087,11940.353127895103,1.298246254893791e-06,0.0,0.0,0.0,1.298246254893791e-06,0.0,23.765291940537008,3.8969325787154023,0.00039864101983665254,0.0
12749,3.1034482758620694,9.655172413793103,5.0,0,282669.9640651044,410151.3659823254,377184.79286957113,112443.59191202556,-13817.973475808138,1.884466427100696e-06,0.0,0.0,0.0,1.884466427100696e-06,0.0,23.737785084336718,4.200096007610144,-0.00046082054379690846,0.0
12750,3.4482758620689657,9.655172413793103,0.0,0,317378.8831502509,308534.17908818176,343590.53055779333,10138.875739950858,23371.789703191618,2.1158592210016726e-06,0.0,0.0,0.0,2.1158592210016726e-06,0.0,23.36968708054447,-0.04990168163448198,0.0007794341810966501,0.0
12751,3.4482758620689657,9.655172413793103,0.35714285714285715,0,312991.3637422553,463095.15948192694,242125.1431639645,104935.39949392632,4445.3514387930445,2.0866090916150354e-06,0.0,0.0,0.0,2.0866090916150354e-06,0.0,23.32013408075431,0.2540875665377429,0.00014841264844611703,0.0
12752,3.4482758620689657,9.655172413793103,0.7142857142857143,0,308587.13270873774,450359.76535657764,237563.65639305455,96445.28620588948,-55184.77776937121,2.057247551391585e-06,0.0,0.0,0.0,2.057247551391585e-06,0.0,24.404485071443467,0.5592423168972693,-0.0018490566422950027,0.0
12753,3.4482758620689657,9.655172413793103,1.0714285714285714,0,297093.1198748358,394000.88952033356,151437.44128000003,62632.15471106486,52948.99805628618,1.980620799165572e-06,0.0,0.0,0.0,1.980620799165572e-06,0.0,23.924762019751245,0.8673312667928175,0.001795145093277705,0.0
12754,3.4482758620689657,9.655172413793103,1.4285714285714286,0,192523.90894163973,464622.1154448392,302986.62035796244,251626.72016857125,-19025.432313291036,1.2834927262775983e-06,0.0,0.0,0.0,1.2834927262775983e-06,0.0,22.952042871842714,1.1804450246767326,-0.000669841915876207,0.0
12755,3.4482758620689657,9.655172413793103,1.7857142857142858,0,637064.0752534721,773231.7736091968,249368.57711554054,64057.34479026405,130017.2359946455,4.247093835023147e-06,0.0,0.0,0.0,4.247093835023147e-06,0.0,23.39584763485225,1.4984342464536358,0.0051353555712163115,0.0
12756,3.4482758620689657,9.655172413793103,2.142857142857143,0,942219.3664489937,1296395.3757086166,1165864.6256011382,295716.38787771284,306174.77079190756,6.281462442993291e-06,0.0,0.0,0.0,6.281462442993291e-06,0.0,23.870237210325982,1.8162597811132801,0.016412527803187256,0.0
12757,3.4482758620689657,9.655172413793103,2.5,0,583948.3494955137,1162365.833281656,651724.7227985946,525692.5317644442,602343.1526966251,3.892988996636758e-06,0.0,0.0,0.0,3.892988996636758e-06,0.0,23.815111505238445,2.125930174238767,0.06023431526966251,0.0
12758,3.4482758620689657,9.655172413793103,2.857142857142857,0,751970.6479949073,1184213.8958183948,965220.1321384092,347055.5858074175,297651.5127652407,5.0131376532993825e-06,0.0,0.0,0.0,5.0131376532993825e-06,0.0,23.899845282988938,2.423402638256137,0.015955637743387117,0.0
12759,3.4482758620689657,9.655172413793103,3.2142857142857144,0,544445.0833798663,786632.6673953106,751706.3014126671,225565.25287525574,-26748.608762490097,3.629633889199109e-06,0.0,0.0,0.0,3.629633889199109e-06,0.0,22.89759971820875,2.71271996073935,-0.0010565031319108799,0.0
12760,3.4482758620689657,9.655172413793103,3.5714285714285716,0,393495.83573206316,580133.5314449864,366691.67630746774,126035.42616435474,-63258.19084067623,2.623305571547088e-06,0.0,0.0,0.0,2.623305571547088e-06,0.0,23.805429844217876,3.001873596105304,-0.0022271760793566736,0.0
12761,3.4482758620689657,9.655172413793103,3.928571428571429,0,315862.9477834865,427885.2332103648,288691.09543438104,66332.43858801803,16431.158991736233,2.1057529852232434e-06,0.0,0.0,0.0,2.1057529852232434e-06,0.0,24.207819306817022,3.2959026953642465,0.0005570703039465597,0.0
12762,3.4482758620689657,9.655172413793103,4.285714285714286,0,199626.83415624517,336888.69940161216,179471.3691571759,112352.3585135073,-38214.855794096446,1.3308455610416344e-06,0.0,0.0,0.0,1.3308455610416344e-06,0.0,22.902204277869863,3.594956602611555,-0.0012804515266099047,0.0
12763,3.4482758620689657,9.655172413793103,4.642857142857143,0,142606.56934236138,372771.39791213337,246082.46646306996,218327.70274070345,14209.677101400921,9.507104622824093e-07,0.0,0.0,0.0,9.507104622824093e-07,0.0,24.52936107182161,3.8969447093948864,0.0004744047441962518,0.0
12764,3.4482758620689657,9.655172413793103,5.0,0,300893.286494929,438847.0327968843,419225.4066299089,128623.14793115537,4179.2236761405775,2.005955243299527e-06,0.0,0.0,0.0,2.005955243299527e-06,0.0,23.829336497255348,4.2000983183655185,0.00013937442639181083,0.0
12765,3.793103448275862,9.655172413793103,0.0,0,320896.9378419642,536398.2968777359,302972.22904398583,170468.39383257617,34616.477604676904,2.139312918946428e-06,0.0,0.0,0.0,2.139312918946428e-06,0.0,23.68084096987035,-0.04989979162808768,0.0011544373031290515,0.0
12766,3.793103448275862,9.655172413793103,0.35714285714285715,0,97982.09040087208,355335.6820876524,277624.7707762401,245267.51171970522,-40069.01404428175,6.532139360058139e-07,0.0,0.0,0.0,6.532139360058139e-07,0.0,23.154920232080897,0.25409748842824154,-0.0013377454126666558,0.0
12767,3.793103448275862,9.655172413793103,0.7142857142857143,0,224318.23622451982,458202.4128987318,379846.20230476663,205216.21771996972,41874.51800957914,1.4954549081634655e-06,0.0,0.0,0.0,1.4954549081634655e-06,0.0,23.3170276066391,0.5592826755051399,0.0014030745216027398,0.0
12768,3.793103448275862,9.655172413793103,1.0714285714285714,0,303597.1149604377,379939.8004738044,341257.93192456826,58855.60944527657,-36573.01816736641,2.023980766402918e-06,0.0,0.0,0.0,2.023980766402918e-06,0.0,23.45141078170553,0.867458467204292,-0.0012399455423068133,0.0
12769,3.793103448275862,9.655172413793103,1.4285714285714286,0,221620.16392261194,482973.671988896,316798.5349533089,231348.6745999811,-123648.8172655929,1.4774677594840796e-06,0.0,0.0,0.0,1.4774677594840796e-06,0.0,22.931990280707453,1.1807556604344123,-0.0043533917804932445,0.0
12770,3.793103448275862,9.655172413793103,1.7857142857142858,0,431383.4782276688,882049.5091498697,503103.91859125457,412591.20561176236,84180.34011540965,2.875889854851125e-06,0.0,0.0,0.0,2.875889854851125e-06,0.0,23.49223650535074,1.499022040209279,0.003324912849372957,0.0
12771,3.793103448275862,9.655172413793103,2.142857142857143,0,774423.4075833444,1156187.8340686832,547964.8929288835,284379.03690966027,290479.3363950961,5.162822717222296e-06,0.0,0.0,0.0,5.162822717222296e-06,0.0,23.20832354330151,1.8171215862554009,0.015571172544703697,0.0
12772,3.793103448275862,9.655172413793103,2.5,0,712520.3074114611,887067.3203262967,693605.3140573659,97794.24080114503,857852.005180883,4.750135382743074e-06,0.0,0.0,0.0,4.750135382743074e-06,0.0,24.00060060729459,2.12690922178972,0.0857852005180883,0.0
12773,3.793103448275862,9.655172413793103,2.857142857142857,0,501852.5095365572,888062.2279660276,660642.6374297754,312761.500477193,408436.02902308444,3.345683396910381e-06,0.0,0.0,0.0,3.345683396910381e-06,0.0,22.140765070077045,2.424264443398258,0.021894252308335357,0.0
12774,3.793103448275862,9.655172413793103,3.2142857142857144,0,477480.0166538581,846962.5378717185,549297.3792211531,296217.3358311011,65535.72265376057,3.183200111025721e-06,0.0,0.0,0.0,3.183200111025721e-06,0.0,23.545073189029868,2.713307754494994,0.0025884971009346516,0.0
12775,3.793103448275862,9.655172413793103,3.5714285714285716,0,258497.5394973279,485942.06085440586,212889.35099836852,244999.99275840368,15464.558195115005,1.723316929982186e-06,0.0,0.0,0.0,1.723316929982186e-06,0.0,23.18948153523134,3.0021842318629837,0.0005444716902626355,0.0
12776,3.793103448275862,9.655172413793103,3.928571428571429,0,182742.1179357511,313190.6242227229,290833.14540134114,120298.40423558289,-19963.42654251401,1.2182807862383407e-06,0.0,0.0,0.0,1.2182807862383407e-06,0.0,23.67940312894287,3.296029895775721,-0.0006768257855362625,0.0
12777,3.793103448275862,9.655172413793103,4.285714285714286,0,299647.38174362754,330032.0807256345,245499.5426741722,-2801.290522190639,66480.02749633759,1.9976492116241837e-06,0.0,0.0,0.0,1.9976492116241837e-06,0.0,24.85971365236893,3.594996961219426,0.0022275225413752363,0.0
12778,3.793103448275862,9.655172413793103,4.642857142857143,0,342769.51555820333,448774.04064574087,204505.44774157216,56935.124866384846,-21564.147776503567,2.2851301037213557e-06,0.0,0.0,0.0,2.2851301037213557e-06,0.0,24.524611204749913,3.896954631285385,-0.0007199413425596959,0.0
12779,3.793103448275862,9.655172413793103,5.0,0,261319.75026909102,471571.2053620379,245092.3454347545,185651.41639590697,18223.717713366208,1.7421316684606069e-06,0.0,0.0,0.0,1.7421316684606069e-06,0.0,23.44477869766744,4.200100208371913,0.0006077492854778855,0.0
12780,4.137931034482759,9.655172413793103,0.0,0,257643.30801587531,375536.604435218,88206.25346884957,298662.34319582046,-30645.628975742457,1.7176220534391687e-06,0.0,0.0,0.0,1.7176220534391687e-06,0.0,23.554608217573378,-0.04989834847740244,-0.0010220120507775114,0.0
12781,4.137931034482759,9.655172413793103,0.35714285714285715,0,386081.6841850524,559563.6960593907,205282.86283896852,148066.958278512,62.13432330137327,2.5738778945670162e-06,0.0,0.0,0.0,2.5738778945670162e-06,0.0,23.23315575481152,0.2541050644783095,2.074418548799332e-06,0.0
12782,4.137931034482759,9.655172413793103,0.7142857142857143,0,230601.8128530922,437358.0307240154,180263.77478893756,248776.71445494195,-46441.02584685892,1.5373454190206147e-06,0.0,0.0,0.0,1.5373454190206147e-06,0.0,23.58137507969477,0.5593134920953795,-0.0015560828690115579,0.0
12783,4.137931034482759,9.655172413793103,1.0714285714285714,0,257107.62219784377,367993.17199475365,249125.2377884072,72959.67166758202,9091.029675764275,1.7140508146522917e-06,0.0,0.0,0.0,1.7140508146522917e-06,0.0,24.029614532708063,0.8675555935217135,0.00030821579093795036,0.0
12784,4.137931034482759,9.655172413793103,1.4285714285714286,0,260755.8481027693,376199.5168820662,109706.07810357952,121587.44973734855,8564.471345323887,1.7383723206851287e-06,0.0,0.0,0.0,1.7383723206851287e-06,0.0,23.009435358789677,1.1809928523338182,0.0003015354289957927,0.0
12785,4.137931034482759,9.655172413793103,1.7857142857142858,0,541985.1993166874,518398.5654505904,475353.6663983319,-43825.565945990435,103175.28281362233,3.6132346621112495e-06,0.0,0.0,0.0,3.6132346621112495e-06,0.0,24.454364253904068,1.4994708614216261,0.004075165568283382,0.0
12786,4.137931034482759,9.655172413793103,2.142857142857143,0,501487.374828941,1018085.9076670058,841390.2950416376,452167.60135245585,404506.08302188513,3.3432491655262734e-06,0.0,0.0,0.0,3.3432491655262734e-06,0.0,24.132960358171292,1.8177796341250487,0.021683587177949593,0.0
12787,4.137931034482759,9.655172413793103,2.5,0,674457.0227036772,1012853.0747780413,759479.5922437435,248401.73412045906,651004.1625268449,4.496380151357848e-06,0.0,0.0,0.0,4.496380151357848e-06,0.0,24.115926366028848,2.1276567923526004,0.06510041625268449,0.0
12788,4.137931034482759,9.655172413793103,2.857142857142857,0,684246.6511926344,1273459.7811854708,763035.0837297704,495951.10771583446,554426.7377720262,4.561644341284229e-06,0.0,0.0,0.0,4.561644341284229e-06,0.0,23.87645167147331,2.424922491267906,0.029720098181108195,0.0
12789,4.137931034482759,9.655172413793103,3.2142857142857144,0,568797.4540551818,832802.5865821058,384733.33722078404,192888.16608029327,66654.41009411863,3.7919830270345456e-06,0.0,0.0,0.0,3.7919830270345456e-06,0.0,23.238149945500773,2.713756575707341,0.0026326824563249872,0.0
12790,4.137931034482759,9.655172413793103,3.5714285714285716,0,287891.9636177581,506455.07655368926,174904.20171261163,361591.25695137825,7411.4675622952855,1.9192797574517207e-06,0.0,0.0,0.0,1.9192797574517207e-06,0.0,24.20073599031401,3.00242142376239,0.00026094080542464536,0.0
12791,4.137931034482759,9.655172413793103,3.928571428571429,0,23701.79366278611,295616.0459155714,270912.0925472603,293465.1004937697,-3048.8948810875377,1.580119577519074e-07,0.0,0.0,0.0,1.580119577519074e-07,0.0,23.539555044723123,3.2961270220931427,-0.00010336755909688111,0.0
12792,4.137931034482759,9.655172413793103,4.285714285714286,0,342370.73530890275,324989.7518446774,313920.7116406402,-22781.276622068122,7612.324528568104,2.282471568726018e-06,0.0,0.0,0.0,2.282471568726018e-06,0.0,22.859891332010807,3.5950277778096655,0.0002550634396260324,0.0
12793,4.137931034482759,9.655172413793103,4.642857142857143,0,291107.404924118,468267.97253929434,162855.15953500557,193964.76738989973,-10706.924078573735,1.9407160328274534e-06,0.0,0.0,0.0,1.9407160328274534e-06,0.0,23.748679851218775,3.8969622073354526,-0.00035746171727742403,0.0
12794,4.137931034482759,9.655172413793103,5.0,0,206601.0520686101,332060.40296551073,227122.5803474406,94051.64484725149,-13780.527923685691,1.3773403471240673e-06,0.0,0.0,0.0,1.3773403471240673e-06,0.0,23.13411319111349,4.200101651522598,-0.0004595717586749764,0.0
12795,4.482758620689656,9.655172413793103,0.0,0,227572.62245499773,433303.0625855734,230227.34313929663,187337.06287725846,26614.102222041613,1.5171508163666515e-06,0.0,0.0,0.0,1.5171508163666515e-06,0.0,23.35922429594805,-0.04989737358135164,0.0008875632219224861,0.0
12796,4.482758620689656,9.655172413793103,0.35714285714285715,0,375989.8726276599,387549.377298577,449618.65963357524,46456.436229314706,-1713.0306321321223,2.506599150851066e-06,0.0,0.0,0.0,2.506599150851066e-06,0.0,24.019856336490797,0.25411018235086946,-5.719129668026465e-05,0.0
12797,4.482758620689656,9.655172413793103,0.7142857142857143,0,105785.40964556673,358754.7864471475,264420.3948603104,244384.02068280906,37430.748678800905,7.052360643037782e-07,0.0,0.0,0.0,7.052360643037782e-07,0.0,23.611421786682207,0.559334309722001,0.0012541787295014836,0.0
12798,4.482758620689656,9.655172413793103,1.0714285714285714,0,171366.2397601422,314403.24452896323,116656.5828476341,221741.3124798756,-69048.82716302852,1.1424415984009479e-06,0.0,0.0,0.0,1.1424415984009479e-06,0.0,23.65724644309331,0.867621205563652,-0.002340982224942689,0.0
12799,4.482758620689656,9.655172413793103,1.4285714285714286,0,339575.3290614852,417115.4166025201,114542.31302591464,49846.12973747211,70083.2075585721,2.263835527076568e-06,0.0,0.0,0.0,2.263835527076568e-06,0.0,24.26490504635196,1.1811530833120378,0.0024674692931412967,0.0
12800,4.482758620689656,9.655172413793103,1.7857142857142858,0,366408.71320010367,632088.0188889062,515265.70738220913,221512.475725885,118668.65157125295,2.442724754667358e-06,0.0,0.0,0.0,2.442724754667358e-06,0.0,22.557381872668532,1.4997740550048815,0.004687114876063496,0.0
12801,4.482758620689656,9.655172413793103,2.142857142857143,0,694141.5363784551,1088604.3724426245,1080031.4905741566,390216.1005079284,335662.6251051041,4.6276102425230344e-06,0.0,0.0,0.0,4.6276102425230344e-06,0.0,24.252619514106243,1.8182241672399355,0.0179932270473474,0.0
12802,4.482758620689656,9.655172413793103,2.5,0,259918.55298305792,873571.7768036042,683487.8768356869,577386.2526877663,604333.6760061246,1.7327903532203861e-06,0.0,0.0,0.0,1.7327903532203861e-06,0.0,23.76865363531039,2.128161801009634,0.060433367600612464,0.0
12803,4.482758620689656,9.655172413793103,2.857142857142857,0,431197.04939056817,854850.4013359806,570091.2440678495,358754.7470606037,398111.0759611161,2.874646995937121e-06,0.0,0.0,0.0,2.874646995937121e-06,0.0,23.66507069873845,2.4253670243827923,0.021340782214251963,0.0
12804,4.482758620689656,9.655172413793103,3.2142857142857144,0,238228.6709138468,614448.6652726856,478759.8857064098,339374.17157064576,1644.7742940276657,1.5881911394256455e-06,0.0,0.0,0.0,1.5881911394256455e-06,0.0,23.685519346212793,2.714059769290596,6.496447005361812e-05,0.0
12805,4.482758620689656,9.655172413793103,3.5714285714285716,0,290227.32059987984,481473.2666919614,229714.27507300736,164034.49747907795,6976.479183283466,1.934848803999199e-06,0.0,0.0,0.0,1.934848803999199e-06,0.0,24.029007945741395,3.0025816547406095,0.0002456258604403145,0.0
12806,4.482758620689656,9.655172413793103,3.928571428571429,0,198791.08042468483,299358.165830999,69934.65125347671,191090.93145604504,5910.659198422781,1.325273869497899e-06,0.0,0.0,0.0,1.325273869497899e-06,0.0,24.22682689129663,3.2961926341350813,0.00020039077692851065,0.0
12807,4.482758620689656,9.655172413793103,4.285714285714286,0,252530.30532263042,261583.92995743992,322220.1544394122,44891.938524973375,-72573.87171939354,1.6835353688175361e-06,0.0,0.0,0.0,1.6835353688175361e-06,0.0,23.600379777192757,3.5950485954362867,-0.002431706803652117,0.0
12808,4.482758620689656,9.655172413793103,4.642857142857143,0,236333.34370155405,401662.23753774446,204358.97906785805,139740.83923016867,12316.467362364692,1.575555624677027e-06,0.0,0.0,0.0,1.575555624677027e-06,0.0,23.656233438371828,3.8969673252080126,0.00041119798196315453,0.0
12809,4.482758620689656,9.655172413793103,5.0,0,89678.59732744138,246446.97528203827,322040.8955026734,222954.2932178859,-47853.586683494425,5.978573155162759e-07,0.0,0.0,0.0,5.978573155162759e-07,0.0,24.032526867698245,4.200102626418649,-0.0015958863922215412,0.0
12810,4.827586206896552,9.655172413793103,0.0,0,217334.78468559732,418709.8065273163,182475.00280884784,227249.05617343352,36073.98823991666,1.4488985645706487e-06,0.0,0.0,0.0,1.4488985645706487e-06,0.0,22.620000462505846,-0.049896882170131655,0.0012030443470415948,0.0
12811,4.827586206896552,9.655172413793103,0.35714285714285715,0,154320.959715438,322779.5209554328,241333.2569432188,144798.09897624844,44580.10611947758,1.02880639810292e-06,0.0,0.0,0.0,1.02880639810292e-06,0.0,23.62442451721219,0.25411276209257255,0.00148835288014866,0.0
12812,4.827586206896552,9.655172413793103,0.7142857142857143,0,143710.05079412475,230785.8966689159,291105.82015195204,127066.4020980467,50492.33733711516,9.58067005294165e-07,0.0,0.0,0.0,9.58067005294165e-07,0.0,23.927549713974464,0.5593448031641346,0.0016918287163967057,0.0
12813,4.827586206896552,9.655172413793103,1.0714285714285714,0,81110.95770973491,311260.2763713433,314756.8511240902,231954.15033093083,-10882.242138241148,5.407397180648994e-07,0.0,0.0,0.0,5.407397180648994e-07,0.0,23.436586626039677,0.8676542783138678,-0.00036894378166621856,0.0
12814,4.827586206896552,9.655172413793103,1.4285714285714286,0,241322.6982419993,430509.44471739227,298763.69981419615,151989.1205723269,-8432.581129983035,1.6088179882799952e-06,0.0,0.0,0.0,1.6088179882799952e-06,0.0,23.288673150707346,1.1812338501798707,-0.0002968918764565148,0.0
12815,4.827586206896552,9.655172413793103,1.7857142857142858,0,132084.56567274232,512159.8697644755,422270.2112815146,360508.8107970813,-52904.42905962336,8.805637711516155e-07,0.0,0.0,0.0,8.805637711516155e-07,0.0,23.61654549174324,1.4999268843537292,-0.0020895926023573037,0.0
12816,4.827586206896552,9.655172413793103,2.142857142857143,0,473529.9161172132,852701.6582041107,699772.8035327162,321605.3407477945,378091.71394242084,3.156866107448088e-06,0.0,0.0,0.0,3.156866107448088e-06,0.0,23.4049806970182,1.8184482409349,0.02026764240301252,0.0
12817,4.827586206896552,9.655172413793103,2.5,0,640597.4091429665,1147215.7259152376,792281.4533721564,407715.41692929534,425837.4215513505,4.270649394286443e-06,0.0,0.0,0.0,4.270649394286443e-06,0.0,23.5793569414423,2.1284163583237716,0.04258374215513505,0.0
12818,4.827586206896552,9.655172413793103,2.857142857142857,0,584204.1280669814,814955.3810354987,375189.8126951802,152072.43103327169,197247.63819980036,3.89469418711321e-06,0.0,0.0,0.0,3.89469418711321e-06,0.0,23.470860772885064,2.425591098077757,0.010573478466870496,0.0
12819,4.827586206896552,9.655172413793103,3.2142857142857144,0,329499.000868321,465801.8306061332,255422.8032708933,86067.07437122603,42971.164183256114,2.1966600057888068e-06,0.0,0.0,0.0,2.1966600057888068e-06,0.0,24.492470733001156,2.7142125986394436,0.0016972534887545452,0.0
12820,4.827586206896552,9.655172413793103,3.5714285714285716,0,229488.67101235094,376238.1991849217,111321.70108749102,238349.76599010747,-39217.51848616059,1.5299244734156728e-06,0.0,0.0,0.0,1.5299244734156728e-06,0.0,23.146623710119155,3.0026624216084423,-0.0013807590432690804,0.0
12821,4.827586206896552,9.655172413793103,3.928571428571429,0,169800.91828259866,441785.5222568429,293831.4011367277,256387.92776208153,-32896.65178659671,1.1320061218839911e-06,0.0,0.0,0.0,1.1320061218839911e-06,0.0,24.138512621471115,3.296225706885297,-0.0011153046366844956,0.0
12822,4.827586206896552,9.655172413793103,4.285714285714286,0,278797.9828616618,446873.992494481,207509.98915544056,140759.77612786944,1578.7464617625785,1.8586532190777455e-06,0.0,0.0,0.0,1.8586532190777455e-06,0.0,23.432242892797756,3.59505908887842,5.289849392565727e-05,0.0
12823,4.827586206896552,9.655172413793103,4.642857142857143,0,143626.45514047006,198573.93205477466,287871.5777996169,122193.80605735326,29367.948193535805,9.57509700936467e-07,0.0,0.0,0.0,9.57509700936467e-07,0.0,23.893499847841333,3.896969904949716,0.0009804792783749854,0.0
12824,4.827586206896552,9.655172413793103,5.0,0,182300.08397463587,405788.59967037407,260067.96730156528,201370.52585197397,17970.86880789902,1.2153338931642391e-06,0.0,0.0,0.0,1.2153338931642391e-06,0.0,24.058840167327475,4.200103117829869,0.0005993169368183779,0.0
12825,5.172413793103448,9.655172413793103,0.0,0,177338.5033289931,328289.4650920126,156172.17897143593,146154.42208442732,5922.912143442861,1.182256688859954e-06,0.0,0.0,0.0,1.182256688859954e-06,0.0,24.43423877909526,-0.049896882170131655,0.0001975253172674819,0.0
12826,5.172413793103448,9.655172413793103,0.35714285714285715,0,344601.47572152736,370497.39935834566,211377.86293646344,-24911.869273473716,35865.06157637559,2.297343171476849e-06,0.0,0.0,0.0,2.297343171476849e-06,0.0,23.87023357036465,0.25411276209257255,0.0011973921181534682,0.0
12827,5.172413793103448,9.655172413793103,0.7142857142857143,0,89769.56974769299,279169.5307212253,191059.36752752386,187827.8230111659,4007.9479507995115,5.984637983179532e-07,0.0,0.0,0.0,5.984637983179532e-07,0.0,23.480295638138895,0.5593448031641346,0.00013429288075364343,0.0
12828,5.172413793103448,9.655172413793103,1.0714285714285714,0,156187.92211352644,208899.67054535053,186859.99442362474,42862.554345958604,-16814.706884628467,1.0412528140901762e-06,0.0,0.0,0.0,1.0412528140901762e-06,0.0,23.716130449014447,0.8676542783138678,-0.0005700738383520753,0.0
12829,5.172413793103448,9.655172413793103,1.4285714285714286,0,238672.15955449536,419498.82839529746,331670.08300532994,149356.7311420167,-24202.08612958211,1.5911477303633024e-06,0.0,0.0,0.0,1.5911477303633024e-06,0.0,24.647216664821315,1.1812338501798707,-0.0008521000455750466,0.0
12830,5.172413793103448,9.655172413793103,1.7857142857142858,0,415950.71599959,436775.41935169435,646792.3854975915,167705.49675448608,86392.3331420396,2.7730047733306e-06,0.0,0.0,0.0,2.7730047733306e-06,0.0,23.774439635586777,1.4999268843537292,0.0034122810404123628,0.0
12831,5.172413793103448,9.655172413793103,2.142857142857143,0,460544.15380771895,575810.4831854333,735956.1645040646,216718.2772247892,212882.7441030902,3.070294358718126e-06,0.0,0.0,0.0,3.070294358718126e-06,0.0,23.043535893588547,1.8184482409349,0.011411599810702343,0.0
12832,5.172413793103448,9.655172413793103,2.5,0,289072.9037234236,690621.1584773227,651498.8911608673,383979.49636565463,573905.7014915486,1.9271526914894906e-06,0.0,0.0,0.0,1.9271526914894906e-06,0.0,23.51053739315834,2.1284163583237716,0.05739057014915486,0.0
12833,5.172413793103448,9.655172413793103,2.857142857142857,0,382610.57095895737,892947.3968066638,758802.9791990789,461327.78994868044,266504.85020947986,2.5507371397263826e-06,0.0,0.0,0.0,2.5507371397263826e-06,0.0,23.502391314988962,2.425591098077757,0.01428601792510251,0.0
12834,5.172413793103448,9.655172413793103,3.2142857142857144,0,338474.8082716384,553036.1987568935,560939.8832411041,218582.44904874318,11588.468741764103,2.256498721810923e-06,0.0,0.0,0.0,2.256498721810923e-06,0.0,24.076636829272026,2.7142125986394436,0.0004577155256348874,0.0
12835,5.172413793103448,9.655172413793103,3.5714285714285716,0,242421.35388224074,434370.5956296753,158322.09911673298,256146.42824633722,-27401.35804921793,1.6161423592149383e-06,0.0,0.0,0.0,1.6161423592149383e-06,0.0,23.10539432546867,3.0026624216084423,-0.0009647390856120355,0.0
12836,5.172413793103448,9.655172413793103,3.928571428571429,0,119786.85536514131,366449.41703721945,305414.9389732607,228438.0614971056,31407.09416562061,7.985790357676087e-07,0.0,0.0,0.0,7.985790357676087e-07,0.0,23.46723525765083,3.296225706885297,0.0010648037367126557,0.0
12837,5.172413793103448,9.655172413793103,4.285714285714286,0,58886.774655672285,287298.0009247832,267886.72448206396,221156.0801407301,-26898.055155889444,3.925784977044819e-07,0.0,0.0,0.0,3.925784977044819e-07,0.0,23.832617621609685,3.59505908887842,-0.0009012635288425377,0.0
12838,5.172413793103448,9.655172413793103,4.642857142857143,0,179638.53142829257,308302.17100126675,293204.084558787,121591.08433040217,-8731.394892014116,1.1975902095219505e-06,0.0,0.0,0.0,1.1975902095219505e-06,0.0,23.59038212440241,3.896969904949716,-0.0002915066352784356,0.0
12839,5.172413793103448,9.655172413793103,5.0,0,180281.58554635974,280667.86925012665,269707.9983862192,95156.37822278768,-14652.671314965934,1.2018772369757317e-06,0.0,0.0,0.0,1.2018772369757317e-06,0.0,23.780786814564156,4.200103117829869,-0.0004886571808276728,0.0
12840,5.517241379310345,9.655172413793103,0.0,0,143580.9104398993,280994.982693996,191973.83188120753,115356.77264659399,31068.575384748736,9.572060695993288e-07,0.0,0.0,0.0,9.572060695993288e-07,0.0,23.735559502928687,-0.04989737358135164,0.001036117041971513,0.0
12841,5.517241379310345,9.655172413793103,0.35714285714285715,0,123574.13024448932,236635.29464473735,324660.34674898826,183389.10223309245,45132.71099425065,8.238275349632622e-07,0.0,0.0,0.0,8.238275349632622e-07,0.0,23.773745889454453,0.25411018235086946,0.0015068021645614968,0.0
12842,5.517241379310345,9.655172413793103,0.7142857142857143,0,120717.03484046111,317315.1386247278,226021.02117802025,180445.05325572286,26754.12910045088,8.047802322697408e-07,0.0,0.0,0.0,8.047802322697408e-07,0.0,23.207753613560882,0.559334309722001,0.0008964410498987934,0.0
12843,5.517241379310345,9.655172413793103,1.0714285714285714,0,350894.2719671566,368437.7105882617,185923.79980217185,-36097.54660134282,-11196.56097157991,2.339295146447711e-06,0.0,0.0,0.0,2.339295146447711e-06,0.0,24.074762440414144,0.867621205563652,-0.0003796002233762777,0.0
12844,5.517241379310345,9.655172413793103,1.4285714285714286,0,126537.86917215961,294837.49712951516,282334.0369728755,162512.05865918333,16490.46072230867,8.435857944810641e-07,0.0,0.0,0.0,8.435857944810641e-07,0.0,23.413062960703513,1.1811530833120378,0.0005805913695951035,0.0
12845,5.517241379310345,9.655172413793103,1.7857142857142858,0,601169.1252848889,634149.2601410475,451527.59111607255,-37154.08440730053,7252.544024495932,4.007794168565926e-06,0.0,0.0,0.0,4.007794168565926e-06,0.0,23.67964442148609,1.4997740550048815,0.00028645734603387966,0.0
12846,5.517241379310345,9.655172413793103,2.142857142857143,0,405858.96754064766,764881.966382088,537705.3606351207,296308.3203124018,297816.81440237304,2.7057264502709843e-06,0.0,0.0,0.0,2.7057264502709843e-06,0.0,23.084233465072558,1.8182241672399355,0.015964498753418512,0.0
12847,5.517241379310345,9.655172413793103,2.5,0,582358.5156432139,922425.9092729468,685189.0392532832,258894.2322056088,353134.58926217165,3.882390104288093e-06,0.0,0.0,0.0,3.882390104288093e-06,0.0,23.714856795365233,2.128161801009634,0.035313458926217164,0.0
12848,5.517241379310345,9.655172413793103,2.857142857142857,0,343281.17003100587,493700.2496154784,536748.9452719926,173973.85524738368,299676.268478399,2.288541133540039e-06,0.0,0.0,0.0,2.288541133540039e-06,0.0,23.79473341355031,2.4253670243827923,0.016064174966591113,0.0
12849,5.517241379310345,9.655172413793103,3.2142857142857144,0,35158.035192543124,322334.87153280125,286715.26210140303,287657.3459702869,50387.76955580398,2.3438690128362083e-07,0.0,0.0,0.0,2.3438690128362083e-07,0.0,23.722494514021047,2.714059769290596,0.001990190847621296,0.0
12850,5.517241379310345,9.655172413793103,3.5714285714285716,0,234875.57911602428,362547.9555576579,188752.93610666925,95336.8133036976,19961.25178627912,1.5658371941068286e-06,0.0,0.0,0.0,1.5658371941068286e-06,0.0,23.318957968314503,3.0025816547406095,0.0007027899771017429,0.0
12851,5.517241379310345,9.655172413793103,3.928571428571429,0,227246.15930099276,351129.7531454439,127187.85321066438,120717.52655857039,-179.23762186430676,1.5149743953399517e-06,0.0,0.0,0.0,1.5149743953399517e-06,0.0,24.277817737883126,3.2961926341350813,-6.0767445887916185e-06,0.0
12852,5.517241379310345,9.655172413793103,4.285714285714286,0,215141.6987518466,254807.6276076671,295389.73419042566,62847.01421345935,24582.24171760995,1.4342779916789772e-06,0.0,0.0,0.0,1.4342779916789772e-06,0.0,24.010304310288287,3.5950485954362867,0.000823668394940533,0.0
12853,5.517241379310345,9.655172413793103,4.642857142857143,0,242255.46861717902,391390.85980411083,192264.84058369006,121682.81374851809,-22400.298371867284,1.6150364574478602e-06,0.0,0.0,0.0,1.6150364574478602e-06,0.0,23.65386874348341,3.8969673252080126,-0.0007478570936687735,0.0
12854,5.517241379310345,9.655172413793103,5.0,0,287713.89295548055,336450.62927424215,4248.94065059271,173638.06054311577,22189.93291481029,1.9180926197032037e-06,0.0,0.0,0.0,1.9180926197032037e-06,0.0,23.654018487426104,4.200102626418649,0.0007400200159974441,0.0
12855,5.862068965517242,9.655172413793103,0.0,0,158800.80338577603,225850.6468825073,215080.1351460991,61938.76166241855,13035.414756369843,1.0586720225718403e-06,0.0,0.0,0.0,1.0586720225718403e-06,0.0,23.27826429480711,-0.04989834847740244,0.00043472271293365473,0.0
12856,5.862068965517242,9.655172413793103,0.35714285714285715,0,114336.51127334082,277746.85303962894,213979.55940366013,145747.58802489718,30074.787813572555,7.622434084889388e-07,0.0,0.0,0.0,7.622434084889388e-07,0.0,23.340660540382018,0.2541050644783095,0.0010040778490348528,0.0
12857,5.862068965517242,9.655172413793103,0.7142857142857143,0,312585.9762242062,414109.7287582843,90467.65078422941,113898.49302482246,32035.640309875263,2.0839065081613746e-06,0.0,0.0,0.0,2.0839065081613746e-06,0.0,24.38523405861436,0.5593134920953795,0.0010734067599711447,0.0
12858,5.862068965517242,9.655172413793103,1.0714285714285714,0,85562.60607224172,214402.53420442424,152215.76990608455,116821.82756817134,-26975.523641940927,5.704173738149448e-07,0.0,0.0,0.0,5.704173738149448e-07,0.0,23.482380509231024,0.8675555935217135,-0.0009145589280641336,0.0
12859,5.862068965517242,9.655172413793103,1.4285714285714286,0,231753.46372193145,366583.6401522052,173980.20122849883,109385.66705719814,21310.03227451048,1.5450230914795429e-06,0.0,0.0,0.0,1.5450230914795429e-06,0.0,25.04823333061188,1.1809928523338182,0.0007502774502616659,0.0
12860,5.862068965517242,9.655172413793103,1.7857142857142858,0,181593.64762548092,444287.7144174502,261954.17343443306,263443.1164970105,-5334.437441458875,1.210624317503206e-06,0.0,0.0,0.0,1.210624317503206e-06,0.0,23.091187897689927,1.4994708614216261,-0.0002106969343312982,0.0
12861,5.862068965517242,9.655172413793103,2.142857142857143,0,377299.9632295461,803162.6020635855,663254.6188112153,375892.8125502825,347002.79430115264,2.5153330881969737e-06,0.0,0.0,0.0,2.5153330881969737e-06,0.0,23.86013359230656,1.8177796341250487,0.01860111789916906,0.0
12862,5.862068965517242,9.655172413793103,2.5,0,642127.3264069455,1037811.8101601189,554919.8350309747,309088.6852440829,407098.18690156133,4.28084884271297e-06,0.0,0.0,0.0,4.28084884271297e-06,0.0,23.793584381247303,2.1276567923526004,0.040709818690156135,0.0
12863,5.862068965517242,9.655172413793103,2.857142857142857,0,297632.25278489,649319.9869483933,432446.97286133183,309994.9143187695,238658.2412995792,1.9842150185659333e-06,0.0,0.0,0.0,1.9842150185659333e-06,0.0,23.703342393425977,2.424922491267906,0.012793297797392019,0.0
12864,5.862068965517242,9.655172413793103,3.2142857142857144,0,278308.95082899445,581229.2226845453,439076.09616899386,260552.5020191152,60361.7531828675,1.8553930055266296e-06,0.0,0.0,0.0,1.8553930055266296e-06,0.0,22.893911853200706,2.713756575707341,0.002384138250014701,0.0
12865,5.862068965517242,9.655172413793103,3.5714285714285716,0,275086.49180882645,478843.3010330115,264934.4435577205,168530.00601238525,28652.15916238798,1.8339099453921764e-06,0.0,0.0,0.0,1.8339099453921764e-06,0.0,23.009072090253312,3.00242142376239,0.0010087769292851387,0.0
12866,5.862068965517242,9.655172413793103,3.928571428571429,0,190615.58333307257,289085.99999356293,100371.29560996348,96624.7698383232,10776.277811723488,1.2707705555538172e-06,0.0,0.0,0.0,1.2707705555538172e-06,0.0,23.797206692542968,3.2961270220931427,0.00036535124266088285,0.0
12867,5.862068965517242,9.655172413793103,4.285714285714286,0,153480.38834130557,320396.06667799427,159695.8030947145,175332.7324575125,21206.22855123268,1.023202588942037e-06,0.0,0.0,0.0,1.023202588942037e-06,0.0,23.192123795003972,3.5950277778096655,0.0007105495273453106,0.0
12868,5.862068965517242,9.655172413793103,4.642857142857143,0,74593.38285290558,243446.24146390852,211005.73926823214,158125.4612189691,344.5542297585648,4.972892190193705e-07,0.0,0.0,0.0,4.972892190193705e-07,0.0,24.313415275355165,3.8969622073354526,1.1503298777579773e-05,0.0
12869,5.862068965517242,9.655172413793103,5.0,0,118578.147178629,277052.1765259498,141643.67286174383,226931.43514773916,6736.851979127286,7.9052098119086e-07,0.0,0.0,0.0,7.9052098119086e-07,0.0,23.60163758537685,4.200101651522598,0.0002246696882097721,0.0
12870,6.206896551724139,9.655172413793103,0.0,0,250189.69531851335,252180.07201761723,289104.2074858618,22504.39613236872,-46187.62125393701,1.6679313021234222e-06,0.0,0.0,0.0,1.6679313021234222e-06,0.0,23.75348110598655,-0.04989979162808768,-0.0015403275147537583,0.0
12871,6.206896551724139,9.655172413793103,0.35714285714285715,0,144062.29899252803,303143.81165126996,188931.1618228974,141297.09836946925,26829.111545286185,9.604153266168535e-07,0.0,0.0,0.0,9.604153266168535e-07,0.0,23.610486256247462,0.25409748842824154,0.0008957175950465031,0.0
12872,6.206896551724139,9.655172413793103,0.7142857142857143,0,171767.1448890193,325501.943736803,144089.9330501365,165360.9771182523,-7633.862722563432,1.1451142992601288e-06,0.0,0.0,0.0,1.1451142992601288e-06,0.0,23.601348883824965,0.5592826755051399,-0.0002557851122009685,0.0
12873,6.206896551724139,9.655172413793103,1.0714285714285714,0,122446.38268328906,264313.98833838414,128475.44022972947,162423.64912527788,-11458.964648897361,8.163092178885938e-07,0.0,0.0,0.0,8.163092178885938e-07,0.0,24.40057127654878,0.867458467204292,-0.00038849657063659234,0.0
12874,6.206896551724139,9.655172413793103,1.4285714285714286,0,260975.0530730291,410374.35496381036,278091.3163990271,109746.42539817569,64772.66907905083,1.7398336871535272e-06,0.0,0.0,0.0,1.7398336871535272e-06,0.0,24.187085591761104,1.1807556604344123,0.0022804973909589846,0.0
12875,6.206896551724139,9.655172413793103,1.7857142857142858,0,463885.711505605,587532.4588924287,256617.38360324805,57299.15032982858,-74474.10396772262,3.092571410037367e-06,0.0,0.0,0.0,3.092571410037367e-06,0.0,23.72681184314739,1.499022040209279,-0.002941540802618952,0.0
12876,6.206896551724139,9.655172413793103,2.142857142857143,0,287576.5535360964,779413.7111470652,517212.5446611364,471852.9755643642,257738.14681698047,1.917177023573976e-06,0.0,0.0,0.0,1.917177023573976e-06,0.0,23.991864922880588,1.8171215862554009,0.013816077953237606,0.0
12877,6.206896551724139,9.655172413793103,2.5,0,415651.57403484924,703307.5809653327,368357.2732411287,238137.19785989274,276849.184322751,2.771010493565662e-06,0.0,0.0,0.0,2.771010493565662e-06,0.0,24.24567892215085,2.12690922178972,0.0276849184322751,0.0
12878,6.206896551724139,9.655172413793103,2.857142857142857,0,317583.117190768,584964.3136845821,475924.52837853547,227225.39089012204,274015.4983731146,2.1172207812717868e-06,0.0,0.0,0.0,2.1172207812717868e-06,0.0,23.364943855866436,2.424264443398258,0.014688626936572604,0.0
12879,6.206896551724139,9.655172413793103,3.2142857142857144,0,114024.9483291538,376775.4984325747,257694.91202388355,365882.3973043179,15936.406380215354,7.601663221943587e-07,0.0,0.0,0.0,7.601663221943587e-07,0.0,22.891110649154438,2.713307754494994,0.0006294481855711536,0.0
12880,6.206896551724139,9.655172413793103,3.5714285714285716,0,284227.89586594276,373664.8481693472,200023.86030559425,45655.41939870951,-88203.24034349986,1.8948526391062852e-06,0.0,0.0,0.0,1.8948526391062852e-06,0.0,23.94983672001101,3.0021842318629837,-0.003105434164400305,0.0
12881,6.206896551724139,9.655172413793103,3.928571428571429,0,55764.713290587475,204746.827255752,146130.95455403937,152355.61018174264,29605.911301032,3.7176475527058317e-07,0.0,0.0,0.0,3.7176475527058317e-07,0.0,24.301050936619017,3.296029895775721,0.0010037377165771104,0.0
12882,6.206896551724139,9.655172413793103,4.285714285714286,0,208890.91425100234,297811.1523992082,237417.74192647455,65377.23239952555,-33827.54018552282,1.3926060950066822e-06,0.0,0.0,0.0,1.3926060950066822e-06,0.0,22.8254545264716,3.594996961219426,-0.0011334473092189964,0.0
12883,6.206896551724139,9.655172413793103,4.642857142857143,0,124158.74804776268,204933.68651649554,157351.83826802432,64021.58367238703,24806.602948438504,8.277249869850845e-07,0.0,0.0,0.0,8.277249869850845e-07,0.0,23.384373363563736,3.896954631285385,0.0008281940569199648,0.0
12884,6.206896551724139,9.655172413793103,5.0,0,168872.80122057998,304475.0888913798,175491.641675584,113332.36548350786,-25479.453861197697,1.1258186748038665e-06,0.0,0.0,0.0,1.1258186748038665e-06,0.0,23.57156001336734,4.200100208371913,-0.0008497234275721946,0.0
12885,6.551724137931035,9.655172413793103,0.0,0,103898.72176167404,251239.50826553386,170499.76884222208,134020.66170901983,-11624.5204224258,6.926581450778269e-07,0.0,0.0,0.0,6.926581450778269e-07,0.0,23.106761804766528,-0.04990168163448198,-0.000387670292740031,0.0
12886,6.551724137931035,9.655172413793103,0.35714285714285715,0,148635.99843485505,317222.55765097396,256049.8815251413,147761.8598148107,-57187.25600976601,9.90906656232367e-07,0.0,0.0,0.0,9.90906656232367e-07,0.0,23.530430401970943,0.2540875665377429,-0.0019092555984909672,0.0
12887,6.551724137931035,9.655172413793103,0.7142857142857143,0,133613.88188166308,308578.95656052313,220592.17822079157,154829.40783898014,10671.602019987438,8.907592125444205e-07,0.0,0.0,0.0,8.907592125444205e-07,0.0,23.050731348580364,0.5592423168972693,0.00035756955806639964,0.0
12888,6.551724137931035,9.655172413793103,1.0714285714285714,0,231556.59620733705,333114.993941153,222109.6450910039,66954.26331570368,-14689.137310396001,1.543710641382247e-06,0.0,0.0,0.0,1.543710641382247e-06,0.0,23.45266603053574,0.8673312667928175,-0.000498010042403612,0.0
12889,6.551724137931035,9.655172413793103,1.4285714285714286,0,310098.2867771953,388663.9738684055,115628.72383425203,51522.916418220106,-7244.705792647255,2.0673219118479686e-06,0.0,0.0,0.0,2.0673219118479686e-06,0.0,23.966628006678103,1.1804450246767326,-0.00025506950529140694,0.0
12890,6.551724137931035,9.655172413793103,1.7857142857142858,0,264565.39636072994,443247.09565890656,245044.96066476926,142820.9571589087,41292.014322031246,1.7637693090715329e-06,0.0,0.0,0.0,1.7637693090715329e-06,0.0,22.586935494196787,1.4984342464536358,0.0016309312697904124,0.0
12891,6.551724137931035,9.655172413793103,2.142857142857143,0,262127.1915767722,490426.68696538516,598620.1168046861,299714.69928516477,135565.24073730008,1.7475146105118146e-06,0.0,0.0,0.0,1.7475146105118146e-06,0.0,23.100864006958787,1.8162597811132801,0.007266987665221171,0.0
12892,6.551724137931035,9.655172413793103,2.5,0,291705.11831030465,593010.585851269,349884.92672096594,269558.4018050785,485310.2439817336,1.9447007887353645e-06,0.0,0.0,0.0,1.9447007887353645e-06,0.0,24.3314949936716,2.125930174238767,0.04853102439817336,0.0
12893,6.551724137931035,9.655172413793103,2.857142857142857,0,627470.1417472066,371937.06277784467,457589.481858071,-208306.96939924886,204797.96862864337,4.183134278314711e-06,0.0,0.0,0.0,4.183134278314711e-06,0.0,23.22372336548212,2.423402638256137,0.010978214649953522,0.0
12894,6.551724137931035,9.655172413793103,3.2142857142857144,0,281389.99782444525,337486.06791377754,209811.0851568583,14892.60083783458,144279.5267765749,1.875933318829635e-06,0.0,0.0,0.0,1.875933318829635e-06,0.0,22.34132899569625,2.71271996073935,0.005698680378615728,0.0
12895,6.551724137931035,9.655172413793103,3.5714285714285716,0,180334.52353314726,304925.6188019725,152503.77130198432,105847.99622172167,-10644.714309130586,1.2022301568876484e-06,0.0,0.0,0.0,1.2022301568876484e-06,0.0,23.730943713585432,3.001873596105304,-0.00037477602134705477,0.0
12896,6.551724137931035,9.655172413793103,3.928571428571429,0,106524.49224145278,229857.14611265314,268186.45512840746,147801.1727817323,-9917.3449317579,7.101632816096852e-07,0.0,0.0,0.0,7.101632816096852e-07,0.0,23.612712090302534,3.2959026953642465,-0.0003362305944611562,0.0
12897,6.551724137931035,9.655172413793103,4.285714285714286,0,174024.04803224915,242175.31970430547,211998.33287376983,55036.306403444694,-34077.43963190538,1.1601603202149943e-06,0.0,0.0,0.0,1.1601603202149943e-06,0.0,23.72889077188664,3.594956602611555,-0.0011418206007301201,0.0
12898,6.551724137931035,9.655172413793103,4.642857142857143,0,121128.00101945207,275104.62063671043,224539.68528184594,136886.8479595255,-40409.07923419962,8.075200067963472e-07,0.0,0.0,0.0,8.075200067963472e-07,0.0,23.688251590365073,3.8969447093948864,-0.0013490988402133754,0.0
12899,6.551724137931035,9.655172413793103,5.0,0,200396.65001847842,235151.0265708764,214510.26515113865,25232.833837331702,21975.281362697337,1.3359776667898562e-06,0.0,0.0,0.0,1.3359776667898562e-06,0.0,24.300750622476983,4.2000983183655185,0.0007328615245482661,0.0
12900,6.8965517241379315,9.655172413793103,0.0,0,69931.78854926341,188914.59249493742,163707.953277037,109873.90347536979,25845.376331281823,4.6621192366175606e-07,0.0,0.0,0.0,4.6621192366175606e-07,0.0,23.212274054004443,-0.0499039923898561,0.0008619267070145017,0.0
12901,6.8965517241379315,9.655172413793103,0.35714285714285715,0,119709.3898296902,241016.0061512465,136830.83041232263,110250.52027628396,-13773.65328085105,7.980625988646014e-07,0.0,0.0,0.0,7.980625988646014e-07,0.0,23.521636913783695,0.2540754358582593,-0.0004598476386705364,0.0
12902,6.8965517241379315,9.655172413793103,0.7142857142857143,0,69716.89629700412,200471.42992821173,151418.00682901772,120665.72697160894,2968.4195415372865,4.6477930864669413e-07,0.0,0.0,0.0,4.6477930864669413e-07,0.0,23.356930713247657,0.5591929737467328,9.946177355894328e-05,0.0
12903,6.8965517241379315,9.655172413793103,1.0714285714285714,0,164543.76967762105,238146.3005045678,166587.80383072663,49939.4027563383,31429.332563856096,1.0969584645174737e-06,0.0,0.0,0.0,1.0969584645174737e-06,0.0,23.916190867081706,0.8671757493113467,0.0010655576915170953,0.0
12904,6.8965517241379315,9.655172413793103,1.4285714285714286,0,318123.54699080274,371175.9890772881,308765.49994150124,26472.27675495194,12147.631071080597,2.1208236466053517e-06,0.0,0.0,0.0,2.1208236466053517e-06,0.0,23.971515945718597,1.1800652358841561,0.00042769027983272274,0.0
12905,6.8965517241379315,9.655172413793103,1.7857142857142858,0,195821.50439892753,396464.72564424237,181374.20784227696,228519.8521019311,64471.51980743122,1.3054766959928502e-06,0.0,0.0,0.0,1.3054766959928502e-06,0.0,23.773681056850762,1.4977155993718982,0.0025464637507100194,0.0
12906,6.8965517241379315,9.655172413793103,2.142857142857143,0,682502.4983323648,840950.0189906359,365933.9821901281,58850.88441543585,239635.41707258142,4.550016655549099e-06,0.0,0.0,0.0,4.550016655549099e-06,0.0,24.669115442149934,1.8152061228454521,0.012845679397944924,0.0
12907,6.8965517241379315,9.655172413793103,2.5,0,683029.9510597461,939892.1087508362,378058.6031294543,179614.06420334833,373923.8300138558,4.553533007064974e-06,0.0,0.0,0.0,4.553533007064974e-06,0.0,23.873601321047254,2.1247331733202994,0.03739238300138559,0.0
12908,6.8965517241379315,9.655172413793103,2.857142857142857,0,137026.2099778011,549048.3813274214,565930.6433834352,421245.52481181413,258152.71146799505,9.13508066518674e-07,0.0,0.0,0.0,9.13508066518674e-07,0.0,24.22918339901605,2.422348979988309,0.01383830073091258,0.0
12909,6.8965517241379315,9.655172413793103,3.2142857142857144,0,231387.67009955412,325997.2466715578,448798.0915243642,181897.7463445015,122310.12949721227,1.5425844673303608e-06,0.0,0.0,0.0,1.5425844673303608e-06,0.0,23.163732737816197,2.7120013136576127,0.004830944144632984,0.0
12910,6.8965517241379315,9.655172413793103,3.5714285714285716,0,130983.59894224833,289521.9416756896,222888.18481594705,138618.24414209696,-11549.419914174183,8.732239929483222e-07,0.0,0.0,0.0,8.732239929483222e-07,0.0,23.26204849053784,3.0014938073127277,-0.00040662863451280094,0.0
12911,6.8965517241379315,9.655172413793103,3.928571428571429,0,155911.83836602123,309859.60809528886,195937.6597569081,132172.316961806,22002.609575729224,1.039412255773475e-06,0.0,0.0,0.0,1.039412255773475e-06,0.0,24.60605686772575,3.295747177882776,0.0007459607937658816,0.0
12912,6.8965517241379315,9.655172413793103,4.285714285714286,0,81326.85942923937,220428.08259153154,175534.69971275143,126549.63214469649,4435.798841788812,5.421790628615958e-07,0.0,0.0,0.0,5.421790628615958e-07,0.0,22.94365915464301,3.5949072594610185,0.00014862872777294032,0.0
12913,6.8965517241379315,9.655172413793103,4.642857142857143,0,165797.92347735062,287853.5657387101,191841.5782201599,96406.90438842463,-14367.78630016224,1.105319489849004e-06,0.0,0.0,0.0,1.105319489849004e-06,0.0,24.009282950571844,3.8969325787154023,-0.00047968338307440364,0.0
12914,6.8965517241379315,9.655172413793103,5.0,0,217668.04588604503,302427.3169533347,208155.16505571254,53514.262059220906,21805.577168711065,1.451120305906967e-06,0.0,0.0,0.0,1.451120305906967e-06,0.0,24.273437555392213,4.200096007610144,0.00072720199863484,0.0
12915,7.241379310344828,9.655172413793103,0.0,0,31962.7369561883,204184.5193617249,189673.4232141015,226317.53403222424,18819.160460064635,2.1308491304125533e-07,0.0,0.0,0.0,2.1308491304125533e-07,0.0,24.11158406186298,-0.04990669465504395,0.0006276069187852504,0.0
12916,7.241379310344828,9.655172413793103,0.35714285714285715,0,119371.57672785356,208959.66806804072,193248.14213991063,82510.33742321524,14024.12610185941,7.958105115190238e-07,0.0,0.0,0.0,7.958105115190238e-07,0.0,22.730882313622295,0.2540612498854642,0.0004682099324602293,0.0
12917,7.241379310344828,9.655172413793103,0.7142857142857143,0,142509.16658801274,276952.13845211116,207273.7970633329,113010.06648284121,42390.176676405164,9.500611105867516e-07,0.0,0.0,0.0,9.500611105867516e-07,0.0,23.35787565644676,0.559135270417576,0.0014203525124109378,0.0
12918,7.241379310344828,9.655172413793103,1.0714285714285714,0,156500.43150144775,257321.0696543044,85995.42520684822,121878.45508330745,46000.404428908274,1.0433362100096516e-06,0.0,0.0,0.0,1.0433362100096516e-06,0.0,23.849112052967847,0.8669938826018773,0.0015595649272071728,0.0
12919,7.241379310344828,9.655172413793103,1.4285714285714286,0,147442.59840481746,250398.5487509626,203270.85312341774,85153.52698315916,5214.299651990663,9.829506560321164e-07,0.0,0.0,0.0,9.829506560321164e-07,0.0,23.91375672759832,1.1796210997179455,0.0001835835533893256,0.0
12920,7.241379310344828,9.655172413793103,1.7857142857142858,0,228717.72375649243,386452.8331259866,316392.1917655421,130899.43642088764,39380.74746879811,1.5247848250432829e-06,0.0,0.0,0.0,1.5247848250432829e-06,0.0,23.542980515225846,1.4968751923720598,0.0015554410103048465,0.0
12921,7.241379310344828,9.655172413793103,2.142857142857143,0,157932.7558258291,607265.583360354,482432.5879382343,429717.43143032293,144393.78350152465,1.0528850388388608e-06,0.0,0.0,0.0,1.0528850388388608e-06,0.0,23.204165506038354,1.8139739439272835,0.007740242542508052,0.0
12922,7.241379310344828,9.655172413793103,2.5,0,307739.45059075375,497919.4825224081,482550.31805144995,182783.4227534856,529294.4793518177,2.051596337271692e-06,0.0,0.0,0.0,2.051596337271692e-06,0.0,23.420211411103516,2.123333365297339,0.05292944793518178,0.0
12923,7.241379310344828,9.655172413793103,2.857142857142857,0,361611.2161217109,710272.9510658734,450970.12126127665,297188.6455765456,227814.94380430647,2.410741440811406e-06,0.0,0.0,0.0,2.410741440811406e-06,0.0,23.252573536165716,2.4211168010701405,0.01221204180050144,0.0
12924,7.241379310344828,9.655172413793103,3.2142857142857144,0,140212.3826877191,375933.74560167483,231156.78960295624,240781.92624945086,18480.770496642086,9.347492179181273e-07,0.0,0.0,0.0,9.347492179181273e-07,0.0,22.945062140728044,2.711160906657774,0.0007299442031994085,0.0
12925,7.241379310344828,9.655172413793103,3.5714285714285716,0,26918.89817830581,128642.13168451394,100135.03373062081,103658.43341599866,-23441.723840889215,1.794593211887054e-07,0.0,0.0,0.0,1.794593211887054e-07,0.0,23.421621540640743,3.001049671146517,-0.0008253294301256277,0.0
12926,7.241379310344828,9.655172413793103,3.928571428571429,0,142630.29688621062,248544.3974873703,223920.76302706756,95205.4230876772,-23328.740919270527,9.508686459080708e-07,0.0,0.0,0.0,9.508686459080708e-07,0.0,24.500542105670377,3.2955653111733065,-0.0007909210057017015,0.0
12927,7.241379310344828,9.655172413793103,4.285714285714286,0,81313.24363451469,206450.32730148282,114686.61012312035,143351.94329126866,42635.07823018381,5.420882908967645e-07,0.0,0.0,0.0,5.420882908967645e-07,0.0,23.441194345386492,3.594849556131862,0.001428558341319324,0.0
12928,7.241379310344828,9.655172413793103,4.642857142857143,0,206988.1724770864,323244.81477661734,161387.30278972135,90014.67039336202,21705.184823987147,1.3799211498472427e-06,0.0,0.0,0.0,1.3799211498472427e-06,0.0,22.828971207537148,3.8969183927426077,0.000724650010037231,0.0
12929,7.241379310344828,9.655172413793103,5.0,0,190043.8550763184,213296.0855942508,132912.57761195605,-3730.4375618262898,-35947.257832249095,1.2669590338421227e-06,0.0,0.0,0.0,1.2669590338421227e-06,0.0,23.410760592413844,4.200093305344956,-0.0011988179693112268,0.0
12930,7.586206896551724,9.655172413793103,0.0,0,69878.01578319533,191190.77328973537,249231.25397464162,171668.1043539503,-35460.52354158717,4.658534385546355e-07,0.0,0.0,0.0,4.658534385546355e-07,0.0,24.342498121792545,-0.04990975756115692,-0.0011825856932180558,0.0
12931,7.586206896551724,9.655172413793103,0.35714285714285715,0,190417.44546747807,269907.2533067738,167608.9298394828,50205.15241098815,2985.9337728283704,1.2694496364498538e-06,0.0,0.0,0.0,1.2694496364498538e-06,0.0,22.686748951988537,0.2540451706705197,9.96884825444722e-05,0.0
12932,7.586206896551724,9.655172413793103,0.7142857142857143,0,90533.00375553839,213331.58924257304,156797.35895249204,108912.41980395887,-24981.097629496726,6.035533583702559e-07,0.0,0.0,0.0,6.035533583702559e-07,0.0,23.4874787346709,0.5590698660744319,-0.0008370327175491167,0.0
12933,7.586206896551724,9.655172413793103,1.0714285714285714,0,179902.37408168675,213759.17943765366,215142.96871637506,34552.69152272004,-6220.7304415737535,1.1993491605445784e-06,0.0,0.0,0.0,1.1993491605445784e-06,0.0,23.861553368263632,0.8667877441893026,-0.0002109032113681063,0.0
12934,7.586206896551724,9.655172413793103,1.4285714285714286,0,241071.25241894176,324275.52740902634,332925.97941709927,87645.93191558964,49402.69014500899,1.607141682792945e-06,0.0,0.0,0.0,1.607141682792945e-06,0.0,22.926940201444456,1.179117689695645,0.0017393556199536975,0.0
12935,7.586206896551724,9.655172413793103,1.7857142857142858,0,199782.8499165603,333837.552174271,329297.9077717368,131823.56649805585,89488.48343697519,1.331885666110402e-06,0.0,0.0,0.0,1.331885666110402e-06,0.0,23.59754998339577,1.4959226257073368,0.0035345712317457283,0.0
12936,7.586206896551724,9.655172413793103,2.142857142857143,0,151684.07287686272,442546.7377902725,390063.3854885603,271590.92527778045,128678.9099343688,1.011227152512418e-06,0.0,0.0,0.0,1.011227152512418e-06,0.0,23.050255351015778,1.8125773199550328,0.006897845245443316,0.0
12937,7.586206896551724,9.655172413793103,2.5,0,714334.0779356561,988586.6114837816,616815.0247009954,165039.00306349646,349730.0825006222,4.762227186237707e-06,0.0,0.0,0.0,4.762227186237707e-06,0.0,22.898744310392704,2.1217467406500674,0.03497300825006222,0.0
12938,7.586206896551724,9.655172413793103,2.857142857142857,0,396135.371372411,696974.2301843088,240755.14408506264,497523.74436681496,250914.87423271232,2.6409024758160737e-06,0.0,0.0,0.0,2.6409024758160737e-06,0.0,23.827691197342936,2.4197201770978896,0.013450315775288138,0.0
12939,7.586206896551724,9.655172413793103,3.2142857142857144,0,198462.72570379818,399285.6993092423,299007.82622609765,170693.08636614113,92032.58323854834,1.3230848380253211e-06,0.0,0.0,0.0,1.3230848380253211e-06,0.0,24.432619428837018,2.710208339993051,0.0036350568095984753,0.0
12940,7.586206896551724,9.655172413793103,3.5714285714285716,0,141442.01763515596,294082.8852654748,323360.66230562335,169570.94489332047,-20487.263041658825,9.429467842343731e-07,0.0,0.0,0.0,9.429467842343731e-07,0.0,23.33230988206208,3.0005462611242164,-0.0007213096291797587,0.0
12941,7.586206896551724,9.655172413793103,3.928571428571429,0,154230.5977880583,278857.2049969312,185255.0570231605,100846.16296232445,9494.723556571285,1.028203985253722e-06,0.0,0.0,0.0,1.028203985253722e-06,0.0,23.82093878850261,3.295359172760732,0.0003219023405596557,0.0
12942,7.586206896551724,9.655172413793103,4.285714285714286,0,133844.68018268424,293648.1428554859,177357.66939381167,147345.13420549378,-11178.40198625417,8.922978678845616e-07,0.0,0.0,0.0,8.922978678845616e-07,0.0,23.777168169083673,3.594784151788718,-0.00037455072355838966,0.0
12943,7.586206896551724,9.655172413793103,4.642857142857143,0,197579.02053704663,207971.50595799595,172523.04910726333,-4932.189974982436,42928.542382806,1.3171934702469775e-06,0.0,0.0,0.0,1.3171934702469775e-06,0.0,23.627029440228988,3.896902313527663,0.0014332137192494836,0.0
12944,7.586206896551724,9.655172413793103,5.0,0,173082.07428782762,262907.2120958807,152102.01064194748,63459.27150037814,15247.198156002583,1.153880495252184e-06,0.0,0.0,0.0,1.153880495252184e-06,0.0,23.20039815016763,4.2000902424388435,0.000508484269269261,0.0
12945,7.931034482758621,9.655172413793103,0.0,0,139254.97729487857,228403.85654683257,193898.7359161291,75140.28127646848,-4911.964349382751,9.283665152991904e-07,0.0,0.0,0.0,9.283665152991904e-07,0.0,22.921618817948726,-0.049913149907751274,-0.0001638108573993485,0.0
12946,7.931034482758621,9.655172413793103,0.35714285714285715,0,158010.4214916811,244602.80372139718,217364.30857472177,74743.86341094763,-37996.04102774519,1.0534028099445407e-06,0.0,0.0,0.0,1.0534028099445407e-06,0.0,23.034412801758545,0.2540273620051394,-0.001268537067774793,0.0
12947,7.931034482758621,9.655172413793103,0.7142857142857143,0,121623.07578083835,263218.657542535,161591.49440842564,128463.95168365068,-27065.925080004206,8.10820505205589e-07,0.0,0.0,0.0,8.10820505205589e-07,0.0,23.34836712519251,0.5589974269618576,-0.0009068882864436862,0.0
12948,7.931034482758621,9.655172413793103,1.0714285714285714,0,182607.4958922549,262388.2198271388,53033.80898368817,135949.91261038362,-66179.18808387709,1.217383305948366e-06,0.0,0.0,0.0,1.217383305948366e-06,0.0,23.23282979589637,0.8665594339126985,-0.0022436920267987974,0.0
12949,7.931034482758621,9.655172413793103,1.4285714285714286,0,201639.19334711574,350248.81566516194,242164.87388822457,117610.20303574327,12150.539742334597,1.3442612889807716e-06,0.0,0.0,0.0,1.3442612889807716e-06,0.0,22.872663289781084,1.1785601338282001,0.00042779268748860936,0.0
12950,7.931034482758621,9.655172413793103,1.7857142857142858,0,315930.4547217453,479989.252703312,492764.22865256,170640.058911609,75203.3495447789,2.1062030314783016e-06,0.0,0.0,0.0,2.1062030314783016e-06,0.0,23.349364548335963,1.4948676027448986,0.002970344178634999,0.0
12951,7.931034482758621,9.655172413793103,2.142857142857143,0,152509.23817987723,452556.8837801713,404850.4889493238,575510.1666351667,290836.727849472,1.016728254532515e-06,0.0,0.0,0.0,1.016728254532515e-06,0.0,23.138826761461047,1.811030477707467,0.01559033054771745,0.0
12952,7.931034482758621,9.655172413793103,2.5,0,226863.70883420846,555414.8167118939,309388.0341257961,354489.5580701397,393133.45884184394,1.5124247255613896e-06,0.0,0.0,0.0,1.5124247255613896e-06,0.0,23.73989508548727,2.1199894616084696,0.03931334588418439,0.0
12953,7.931034482758621,9.655172413793103,2.857142857142857,0,602095.7403504594,600105.4214279081,541411.4016370893,-29187.869044991,327360.5033302524,4.013971602336396e-06,0.0,0.0,0.0,4.013971602336396e-06,0.0,23.270677388458484,2.418173334850324,0.01754819101742641,0.0
12954,7.931034482758621,9.655172413793103,3.2142857142857144,0,309907.5819535624,597341.9047427423,458710.30148153554,242318.79084095376,115334.11563149183,2.066050546357083e-06,0.0,0.0,0.0,2.066050546357083e-06,0.0,23.892759530289474,2.709153317030613,0.004555409048104051,0.0
12955,7.931034482758621,9.655172413793103,3.5714285714285716,0,93608.00278244946,253327.19037624737,246058.20936077528,156296.60990128305,-16477.61497797876,6.240533518829964e-07,0.0,0.0,0.0,6.240533518829964e-07,0.0,23.590479475045193,2.9999887052567717,-0.000580139100345653,0.0
12956,7.931034482758621,9.655172413793103,3.928571428571429,0,99132.77467481098,251797.5122225359,274546.6652607635,166016.72840698098,31211.334640969322,6.608851644987398e-07,0.0,0.0,0.0,6.608851644987398e-07,0.0,23.232025388221597,3.2951308624841276,0.0010581668453069567,0.0
12957,7.931034482758621,9.655172413793103,4.285714285714286,0,91111.37180818742,227666.52399061745,218996.499023858,132530.05186546437,3570.274755858481,6.074091453879161e-07,0.0,0.0,0.0,6.074091453879161e-07,0.0,23.403379313306278,3.5947117126761436,0.00011962792130336986,0.0
12958,7.931034482758621,9.655172413793103,4.642857142857143,0,164616.19322405872,226042.1885972838,213885.58187623284,55684.69070393589,-13390.852966265122,1.0974412881603915e-06,0.0,0.0,0.0,1.0974412881603915e-06,0.0,23.422268136620936,3.8968845048622827,-0.0004470674548547144,0.0
12959,7.931034482758621,9.655172413793103,5.0,0,114049.67783158366,263221.0239463941,151581.41617910788,146905.12517504033,31292.17086674114,7.603311855438911e-07,0.0,0.0,0.0,7.603311855438911e-07,0.0,23.5776388993832,4.200086850092249,0.0010435738077398558,0.0
12960,8.275862068965518,9.655172413793103,0.0,0,202362.71377934495,345035.1803077947,204053.11616555636,113163.50775961448,-32518.763076717012,1.3490847585289663e-06,0.0,0.0,0.0,1.3490847585289663e-06,0.0,23.554147671638436,-0.04991684118825477,-0.0010844798704275377,0.0
12961,8.275862068965518,9.655172413793103,0.35714285714285715,0,120132.0771719592,294163.2869095401,187116.5952334446,164236.60137647795,-40030.93125086664,8.00880514479728e-07,0.0,0.0,0.0,8.00880514479728e-07,0.0,23.153237583208767,0.25400798403844793,-0.0013364739792808406,0.0
12962,8.275862068965518,9.655172413793103,0.7142857142857143,0,38456.08341094708,226978.60486480873,185860.65211571273,191898.75308269486,-10711.1989092764,2.5637388940631385e-07,0.0,0.0,0.0,2.5637388940631385e-07,0.0,23.26384487618542,0.5589186045076956,-0.00035889631689579936,0.0
12963,8.275862068965518,9.655172413793103,1.0714285714285714,0,296709.5658390263,432045.70548980415,180889.60593198592,104658.27361590686,-6188.938140491607,1.9780637722601755e-06,0.0,0.0,0.0,1.9780637722601755e-06,0.0,23.445020451021954,0.8663110049124959,-0.00020982534785063322,0.0
12964,8.275862068965518,9.655172413793103,1.4285714285714286,0,124605.58372297038,328877.5940489982,241262.7996534883,186230.49153391353,-49138.39660300698,8.307038914864692e-07,0.0,0.0,0.0,8.307038914864692e-07,0.0,21.91399542949528,1.1779534460839314,-0.0017300504494002452,0.0
12965,8.275862068965518,9.655172413793103,1.7857142857142858,0,180152.90398402017,410277.0155399963,204421.01996769774,281415.4366459681,71615.66901018545,1.2010193598934678e-06,0.0,0.0,0.0,1.2010193598934678e-06,0.0,23.673812220579222,1.4937196110572373,0.002828639772445133,0.0
12966,8.275862068965518,9.655172413793103,2.142857142857143,0,506272.9102132311,881276.6610495248,592601.3229169109,296697.9540491219,205547.7879378554,3.3751527347548742e-06,0.0,0.0,0.0,3.3751527347548742e-06,0.0,22.925187692031066,1.809347327571829,0.011018408785570833,0.0
12967,8.275862068965518,9.655172413793103,2.5,0,274334.5481446294,732716.5047076797,424056.3340352521,640080.167726294,360675.6965895608,1.8288969876308627e-06,0.0,0.0,0.0,1.8288969876308627e-06,0.0,23.262252052726325,2.1180773309682097,0.03606756965895608,0.0
12968,8.275862068965518,9.655172413793103,2.857142857142857,0,483749.61358557816,915748.9151157474,446641.7777896258,418578.5935094201,303829.8483688473,3.2249974239038546e-06,0.0,0.0,0.0,3.2249974239038546e-06,0.0,23.07283554342882,2.4164901847146862,0.016286828012948982,0.0
12969,8.275862068965518,9.655172413793103,3.2142857142857144,0,239180.75745909123,383057.87721081905,355340.08487932384,131225.81505800958,28940.560593016096,1.5945383830606081e-06,0.0,0.0,0.0,1.5945383830606081e-06,0.0,23.790498919585836,2.7080053253429517,0.0011430797458391521,0.0
12970,8.275862068965518,9.655172413793103,3.5714285714285716,0,260504.71901762902,416395.0842024476,166604.2983906924,146357.92913586998,38312.97580171472,1.7366981267841935e-06,0.0,0.0,0.0,1.7366981267841935e-06,0.0,23.933350092665673,2.9993820175125028,0.0013489121661645978,0.0
12971,8.275862068965518,9.655172413793103,3.928571428571429,0,179231.9606568615,289826.3625847304,85455.75069302467,159381.80209881405,12974.063744936717,1.19487973771241e-06,0.0,0.0,0.0,1.19487973771241e-06,0.0,23.369566469085512,3.294882433483925,0.00043986341057553307,0.0
12972,8.275862068965518,9.655172413793103,4.285714285714286,0,154607.47243394697,340270.4144329958,168589.762017056,212029.78490132757,-5349.638343560253,1.0307164828929798e-06,0.0,0.0,0.0,1.0307164828929798e-06,0.0,23.38076824916336,3.5946328902219813,-0.0001792484216277171,0.0
12973,8.275862068965518,9.655172413793103,4.642857142857143,0,247036.50350877972,372114.7077016855,111546.68012561947,141305.76506671318,29599.15117405252,1.6469100233918649e-06,0.0,0.0,0.0,1.6469100233918649e-06,0.0,23.415738721181285,3.896865126895591,0.0009881982286401277,0.0
12974,8.275862068965518,9.655172413793103,5.0,0,95719.26741015824,208472.57813494056,227065.46399787973,123413.80605418538,11330.06134032991,6.381284494010549e-07,0.0,0.0,0.0,6.381284494010549e-07,0.0,23.432068298573512,4.200083158811745,0.00037785027140514206,0.0
12975,8.620689655172415,9.655172413793103,0.0,0,207475.98578886734,365711.8439749551,136738.80438542957,190194.22526404582,-574.7704448098073,1.383173238592449e-06,0.0,0.0,0.0,1.383173238592449e-06,0.0,23.815514803026833,-0.049920802329415565,-1.916822531171893e-05,0.0
12976,8.620689655172415,9.655172413793103,0.35714285714285715,0,162211.9441990228,209307.53729960247,290560.4880307224,103779.35711515426,14912.694902396872,1.0814129613268188e-06,0.0,0.0,0.0,1.0814129613268188e-06,0.0,24.824951316610104,0.2539871893951252,0.0004978757194806947,0.0
12977,8.620689655172415,9.655172413793103,0.7142857142857143,0,160351.78419991757,231125.93261795322,204310.53451937754,59056.97328529276,15915.795981060439,1.069011894666117e-06,0.0,0.0,0.0,1.069011894666117e-06,0.0,23.238497756328748,0.55883401953311,0.0005332848924241891,0.0
12978,8.620689655172415,9.655172413793103,1.0714285714285714,0,78157.12783776688,252804.5392182899,214406.28616045997,162875.52329720088,-32770.27846801687,5.210475189184458e-07,0.0,0.0,0.0,5.210475189184458e-07,0.0,23.613460842098828,0.8660444138644016,-0.0011110201657578002,0.0
12979,8.620689655172415,9.655172413793103,1.4285714285714286,0,275405.27904030244,385286.2755408425,106364.5613430258,113537.56663769459,86943.24904896964,1.8360351936020163e-06,0.0,0.0,0.0,1.8360351936020163e-06,0.0,22.91057796374706,1.1773024048549334,0.003061072755481052,0.0
12980,8.620689655172415,9.655172413793103,1.7857142857142858,0,126340.55436905002,504721.10217554483,365514.2618847136,472906.93169800617,56208.5968197481,8.422703624603334e-07,0.0,0.0,0.0,8.422703624603334e-07,0.0,22.961054523797475,1.4924876924528565,0.002220098963190022,0.0
12981,8.620689655172415,9.655172413793103,2.142857142857143,0,332463.5871388596,718055.497889185,508108.7850278606,334740.9477909638,286699.4582903511,2.216423914259064e-06,0.0,0.0,0.0,2.216423914259064e-06,0.0,22.833298002162877,1.8075411263699004,0.015368551818226694,0.0
12982,8.620689655172415,9.655172413793103,2.5,0,476681.4560521753,899662.3299232922,384762.17651067674,473737.9686636118,350765.0027144036,3.177876373681169e-06,0.0,0.0,0.0,3.177876373681169e-06,0.0,24.01788655873937,2.1160254090465966,0.03507650027144036,0.0
12983,8.620689655172415,9.655172413793103,2.857142857142857,0,543173.7430175792,830740.5918726921,532987.8510826336,203800.2151796219,289737.2187798115,3.6211582867838615e-06,0.0,0.0,0.0,3.6211582867838615e-06,0.0,23.704678889777476,2.414683983512757,0.015531391259124255,0.0
12984,8.620689655172415,9.655172413793103,3.2142857142857144,0,249591.20524389757,568423.4881179116,311082.61036763986,327380.7919274527,61431.65562628543,1.6639413682926505e-06,0.0,0.0,0.0,1.6639413682926505e-06,0.0,23.165183970307186,2.706773406738571,0.0024263967200662444,0.0
12985,8.620689655172415,9.655172413793103,3.5714285714285716,0,255312.77327034756,426626.7920349666,229843.7700516351,138124.93443027014,-35846.50865437483,1.7020851551356504e-06,0.0,0.0,0.0,1.7020851551356504e-06,0.0,23.468825965386436,2.998730976283505,-0.0012620735045134933,0.0
12986,8.620689655172415,9.655172413793103,3.928571428571429,0,262665.3550650184,410842.02563376416,212400.73476063996,112978.7883169906,-31118.828991744536,1.7511023671001227e-06,0.0,0.0,0.0,1.7511023671001227e-06,0.0,23.749337276315124,3.2946158424358307,-0.0010550305997045412,0.0
12987,8.620689655172415,9.655172413793103,4.285714285714286,0,157757.87964623157,291106.9901183208,177082.75122553573,111064.77964064563,-26287.358632314754,1.0517191976415437e-06,0.0,0.0,0.0,1.0517191976415437e-06,0.0,23.969831710955496,3.594548305247396,-0.0008808011385061759,0.0
12988,8.620689655172415,9.655172413793103,4.642857142857143,0,201823.0424913768,261053.95516306395,218362.74756133274,41300.59930697872,-8599.805932138623,1.345486949942512e-06,0.0,0.0,0.0,1.345486949942512e-06,0.0,23.58081705650529,3.8968443322522686,-0.0002871134019626251,0.0
12989,8.620689655172415,9.655172413793103,5.0,0,195630.07045485248,327120.9833081987,198913.71523842137,101948.11950941707,6214.856115053869,1.3042004696990165e-06,0.0,0.0,0.0,1.3042004696990165e-06,0.0,23.427278093209786,4.2000791976705845,0.00020726146128248883,0.0
12990,8.965517241379311,9.655172413793103,0.0,0,87783.07252234692,246726.48229023247,254214.72178537113,162927.39828439098,-7134.2498884421075,5.852204834823128e-07,0.0,0.0,0.0,5.852204834823128e-07,0.0,23.912285418666865,-0.049925006169381975,-0.0002379226533420923,0.0
12991,8.965517241379311,9.655172413793103,0.35714285714285715,0,217547.83974913668,276571.4869459679,190170.70593388105,29096.18030998914,9688.439025691496,1.450318931660911e-06,0.0,0.0,0.0,1.450318931660911e-06,0.0,22.705781243798608,0.2539651206656509,0.0003234585420094463,0.0
12992,8.965517241379311,9.655172413793103,0.7142857142857143,0,212536.90434195017,385198.08331835596,156347.50523055313,194010.20319704158,21682.945027724327,1.416912695613001e-06,0.0,0.0,0.0,1.416912695613001e-06,0.0,22.30134074401512,0.5587442520438219,0.0007265226960881878,0.0
12993,8.965517241379311,9.655172413793103,1.0714285714285714,0,183285.93893958168,322534.4393401807,184630.78881230412,114547.82421673268,18167.748570520635,1.2219062595972112e-06,0.0,0.0,0.0,1.2219062595972112e-06,0.0,23.895095521781343,0.8657614888038767,0.0006159463993559214,0.0
12994,8.965517241379311,9.655172413793103,1.4285714285714286,0,180254.58357236546,291484.6125376016,379952.9320391738,172557.09715518524,18826.052075305575,1.2016972238157697e-06,0.0,0.0,0.0,1.2016972238157697e-06,0.0,23.047112420716648,1.1766114743813294,0.0006628221941479005,0.0
12995,8.965517241379311,9.655172413793103,1.7857142857142858,0,473056.3999863114,386536.22967989906,490682.58353971166,-25769.221560450787,73727.0455977443,3.153709333242076e-06,0.0,0.0,0.0,3.153709333242076e-06,0.0,23.94495468280002,1.491180294293025,0.002912033865842893,0.0
12996,8.965517241379311,9.655172413793103,2.142857142857143,0,435920.8347774024,823701.783767394,768991.2200737823,363008.25082997326,331261.29613535,2.906138898516016e-06,0.0,0.0,0.0,2.906138898516016e-06,0.0,24.240952978128664,1.8056242593631924,0.017757293387953375,0.0
12997,8.965517241379311,9.655172413793103,2.5,0,893925.8303426395,1179038.4171084792,918120.8867297816,183683.74956463982,539736.522577928,5.959505535617597e-06,0.0,0.0,0.0,5.959505535617597e-06,0.0,24.212894877852616,2.113847766031144,0.0539736522577928,0.0
12998,8.965517241379311,9.655172413793103,2.857142857142857,0,648174.9849194583,999876.68340674,494947.4067119567,268960.7620349402,253844.42545550308,4.321166566129722e-06,0.0,0.0,0.0,4.321166566129722e-06,0.0,21.784602380221717,2.4127671165060494,0.013607354648120655,0.0
12999,8.965517241379311,9.655172413793103,3.2142857142857144,0,460182.7673770171,562800.4686689246,417987.6119228009,47629.87419664032,52867.743186052045,3.0678851158467807e-06,0.0,0.0,0.0,3.0678851158467807e-06,0.0,23.695902639388294,2.7054660085787394,0.0020881436021244638,0.0
13000,8.965517241379311,9.655172413793103,3.5714285714285716,0,393957.05105047603,538790.3325525082,274882.6344152043,85952.23142356955,29936.06278396107,2.626380340336507e-06,0.0,0.0,0.0,2.626380340336507e-06,0.0,23.045683714612576,2.998040045809901,0.0010539802364958834,0.0
13001,8.965517241379311,9.655172413793103,3.928571428571429,0,182922.3981085419,323811.64643190004,275149.66131114087,121478.93440549912,21627.222816551195,1.2194826540569461e-06,0.0,0.0,0.0,1.2194826540569461e-06,0.0,22.978675926567963,3.2943329173753058,0.0007332339486213614,0.0
13002,8.965517241379311,9.655172413793103,4.285714285714286,0,174301.99797471616,312134.6102842582,206155.64319821892,110964.3911528696,16308.701476423954,1.162013319831441e-06,0.0,0.0,0.0,1.162013319831441e-06,0.0,23.495605931263174,3.5944585377581078,0.0005464498365512151,0.0
13003,8.965517241379311,9.655172413793103,4.642857142857143,0,64840.00098840078,155688.91557143134,229957.45618100328,184615.6506207897,-15206.84039846135,4.322666732560052e-07,0.0,0.0,0.0,4.322666732560052e-07,0.0,23.00101751703858,3.896822263522794,-0.0005076960706273926,0.0
13004,8.965517241379311,9.655172413793103,5.0,0,257312.37316412388,291320.11353754456,228587.19481171103,8442.038012557048,-6925.620305308997,1.7154158210941592e-06,0.0,0.0,0.0,1.7154158210941592e-06,0.0,23.693715997785947,4.2000749938306186,-0.00023096499069207772,0.0
13005,9.310344827586208,9.655172413793103,0.0,0,240529.90428770983,416075.38269426045,286691.86787125794,138546.6820006089,-7559.4424373580605,1.6035326952513988e-06,0.0,0.0,0.0,1.6035326952513988e-06,0.0,23.848017566272137,-0.04992942771909295,-0.0002521025518599814,0.0
13006,9.310344827586208,9.655172413793103,0.35714285714285715,0,287230.8304115844,466786.79594344035,295527.9330452355,135181.04175566704,-21585.11463041187,1.914872202743896e-06,0.0,0.0,0.0,1.914872202743896e-06,0.0,23.091083776611708,0.253941909034093,-0.0007206413426296474,0.0
13007,9.310344827586208,9.655172413793103,0.7142857142857143,0,170656.105513152,297473.60860017315,256374.6868693352,110020.98622084544,31892.349947178747,1.13770737008768e-06,0.0,0.0,0.0,1.13770737008768e-06,0.0,23.37629962846636,0.5586498356484576,0.0010686055809571028,0.0
13008,9.310344827586208,9.655172413793103,1.0714285714285714,0,279689.5943076796,401471.51424185303,266360.6475802856,79878.5650862122,-67405.58968137216,1.8645972953845309e-06,0.0,0.0,0.0,1.8645972953845309e-06,0.0,22.9725546319,0.8654639115341454,-0.002285271072502191,0.0
13009,9.310344827586208,9.655172413793103,1.4285714285714286,0,229565.2208783216,516487.4509370665,318243.4377968015,264969.0071466223,91722.02873701778,1.5304348058554772e-06,0.0,0.0,0.0,1.5304348058554772e-06,0.0,23.440293592724448,1.175884761789918,0.003229322647997621,0.0
13010,9.310344827586208,9.655172413793103,1.7857142857142858,0,126979.67595585712,613140.9355713563,629700.714186946,495253.60090633616,191315.70525000713,8.465311730390474e-07,0.0,0.0,0.0,8.465311730390474e-07,0.0,23.919636090139107,1.489805188199091,0.0075564917628095345,0.0
13011,9.310344827586208,9.655172413793103,2.142857142857143,0,384709.7466851414,492484.9455750421,320864.71488240577,51834.77963226103,346390.01799112983,2.5647316445676093e-06,0.0,0.0,0.0,2.5647316445676093e-06,0.0,23.420746763203866,1.8036081210641106,0.01856826996659979,0.0
13012,9.310344827586208,9.655172413793103,2.5,0,782231.6109814815,1119230.8508496643,539709.5616836848,229468.03979455697,658575.7535214653,5.21487740654321e-06,0.0,0.0,0.0,5.21487740654321e-06,0.0,23.16096361450293,2.1115573465759514,0.06585757535214654,0.0
13013,9.310344827586208,9.655172413793103,2.857142857142857,0,761951.7207410587,1044427.9591489888,756601.6060062062,180488.79862448003,418825.1823974104,5.0796781382737246e-06,0.0,0.0,0.0,5.0796781382737246e-06,0.0,23.880474557880216,2.4107509782069676,0.022451163866288606,0.0
13014,9.310344827586208,9.655172413793103,3.2142857142857144,0,269953.96597401414,495848.6739447766,461247.879262888,210262.54738843866,18073.504760955846,1.7996931064934275e-06,0.0,0.0,0.0,1.7996931064934275e-06,0.0,23.02650946916612,2.7040909024848054,0.0007138582254540581,0.0
13015,9.310344827586208,9.655172413793103,3.5714285714285716,0,112076.70063125422,405361.1153435202,321391.070217149,278094.43903526367,29608.83002710099,7.471780042083615e-07,0.0,0.0,0.0,7.471780042083615e-07,0.0,23.043604843650133,2.99731333321849,0.0010424591202771742,0.0
13016,9.310344827586208,9.655172413793103,3.928571428571429,0,110584.03102135219,282568.2030832003,306307.8429189122,185781.91391240724,48710.47222764098,7.372268734756813e-07,0.0,0.0,0.0,7.372268734756813e-07,0.0,22.907354457601695,3.294035340105575,0.0016514451343864164,0.0
13017,9.310344827586208,9.655172413793103,4.285714285714286,0,118074.36768253322,173347.15831396834,264958.5219238849,131705.28528302064,-64298.51128381408,7.871624512168882e-07,0.0,0.0,0.0,7.871624512168882e-07,0.0,22.45982649378468,3.5943641213627435,-0.002154427256659247,0.0
13018,9.310344827586208,9.655172413793103,4.642857142857143,0,258685.5937967772,428601.86618059454,209124.95354766,143390.7622696158,-51225.61265354776,1.724570625311848e-06,0.0,0.0,0.0,1.724570625311848e-06,0.0,22.818880875658476,3.8967990518912363,-0.0017102199785248267,0.0
13019,9.310344827586208,9.655172413793103,5.0,0,211724.15972378652,355231.0150323563,293556.29348087724,119517.37121754927,26669.35058387754,1.4114943981585768e-06,0.0,0.0,0.0,1.4114943981585768e-06,0.0,23.281146883113276,4.200070572280907,0.0008894057193183377,0.0
13020,9.655172413793103,9.655172413793103,0.0,0,281441.39077000174,525507.8485564291,280440.2822148181,218134.47984155547,-10756.049637326547,1.8762759384666782e-06,0.0,0.0,0.0,1.8762759384666782e-06,0.0,23.233627030414883,-0.049934044257699296,-0.0003587073496455293,0.0
13021,9.655172413793103,9.655172413793103,0.35714285714285715,0,231486.8726103756,466630.7585161939,243175.00893072327,227872.10724063593,-15400.287894981415,1.543245817402504e-06,0.0,0.0,0.0,1.543245817402504e-06,0.0,22.639927805872155,0.25391767377717905,-0.0005141545150696634,0.0
13022,9.655172413793103,9.655172413793103,0.7142857142857143,0,149361.20568576377,371294.16266977374,334895.97239000566,207097.9834077286,-13068.224214834037,9.95741371238425e-07,0.0,0.0,0.0,9.95741371238425e-07,0.0,22.87336420077579,0.558551255520954,-0.00043787232211798036,0.0
13023,9.655172413793103,9.655172413793103,1.0714285714285714,0,393310.3254291854,404845.13898254547,341791.26038686506,-16182.97924129316,-46132.9064117053,2.6220688361945693e-06,0.0,0.0,0.0,2.6220688361945693e-06,0.0,22.18695152299897,0.8651532112041963,-0.0015640571799975806,0.0
13024,9.655172413793103,9.655172413793103,1.4285714285714286,0,294516.1476550759,532607.4495353177,355452.614570194,192630.18208075152,-13611.308263710842,1.9634409843671724e-06,0.0,0.0,0.0,1.9634409843671724e-06,0.0,24.231524512143025,1.1751260014110303,-0.0004792230029157524,0.0
13025,9.655172413793103,9.655172413793103,1.7857142857142858,0,525512.1357308867,817875.356170517,715105.8413970675,248569.92442780547,-18297.87865856818,3.5034142382059116e-06,0.0,0.0,0.0,3.5034142382059116e-06,0.0,23.87606874360646,1.4883694403763954,-0.0007227204331169444,0.0
13026,9.655172413793103,9.655172413793103,2.142857142857143,0,432002.068555024,1080934.6672948103,980238.0632955426,607477.7117638635,515860.1697694346,2.8800137903668265e-06,0.0,0.0,0.0,2.8800137903668265e-06,0.0,22.7895450060895,1.8015030717257878,0.027652733623346352,0.0
13027,9.655172413793103,9.655172413793103,2.5,0,803981.5710083012,1458929.0343246092,1075716.971717218,535033.6115743915,705291.1901003236,5.3598771400553415e-06,0.0,0.0,0.0,5.3598771400553415e-06,0.0,23.2209356006994,2.1091659203722872,0.07052911901003237,0.0
13028,9.655172413793103,9.655172413793103,2.857142857142857,0,622357.1754703592,955158.4471405329,1231965.1744482606,519225.689131017,393791.11071642936,4.149047836469061e-06,0.0,0.0,0.0,4.149047836469061e-06,0.0,22.717081545782126,2.4086459288686446,0.021109210065103814,0.0
13029,9.655172413793103,9.655172413793103,3.2142857142857144,0,307728.11893306475,548667.9424938601,459666.2525397984,206248.2837922287,117880.12026151773,2.0515207928870982e-06,0.0,0.0,0.0,2.0515207928870982e-06,0.0,23.67384486822813,2.70265515466211,0.004655969861915571,0.0
13030,9.655172413793103,9.655172413793103,3.5714285714285716,0,186555.72767001926,472230.61212345015,290427.31518294493,281260.4349208221,139506.59129205026,1.2437048511334617e-06,0.0,0.0,0.0,1.2437048511334617e-06,0.0,23.487908320073497,2.9965545728396017,0.004911707699968754,0.0
13031,9.655172413793103,9.655172413793103,3.928571428571429,0,141051.1867059333,428588.82030119165,359027.1846330063,266268.51288239413,-43066.60136840387,9.40341244706222e-07,0.0,0.0,0.0,9.40341244706222e-07,0.0,22.51398901638505,3.2937246397756255,-0.0014600993591692459,0.0
13032,9.655172413793103,9.655172413793103,4.285714285714286,0,254615.5898430379,303575.42262748355,259531.28904954423,29811.058410877446,-73610.08678821615,1.6974372656202526e-06,0.0,0.0,0.0,1.6974372656202526e-06,0.0,22.68878281018851,3.59426554123524,-0.002466426891931897,0.0
13033,9.655172413793103,9.655172413793103,4.642857142857143,0,229977.99756272568,291839.52948539885,279782.0301009382,56069.96519026356,-1222.2904808384042,1.5331866504181711e-06,0.0,0.0,0.0,1.5331866504181711e-06,0.0,23.14577589910375,3.896774816634322,-4.080742994775643e-05,0.0
13034,9.655172413793103,9.655172413793103,5.0,0,224402.63070536862,433886.8244260577,200247.63125753394,220030.7077621836,-72749.872114814,1.4960175380357908e-06,0.0,0.0,0.0,1.4960175380357908e-06,0.0,23.877468758222744,4.200065955742301,-0.002426161527071788,0.0
13035,10.0,9.655172413793103,0.0,0,229388.78094519128,412006.74985774094,368328.87562232715,163919.28721947406,-15187.417771293158,1.5292585396346085e-06,0.0,0.0,0.0,1.5292585396346085e-06,0.0,22.858567291368217,-0.049938835309792644,-0.0005064906318202953,0.0
13036,10.0,9.655172413793103,0.35714285714285715,0,220908.90783824897,433664.6037203762,182017.66256431886,271701.0125367403,39224.52478325742,1.472726052254993e-06,0.0,0.0,0.0,1.472726052254993e-06,0.0,23.706622900721634,0.25389252238383625,0.0013095512665932567,0.0
13037,10.0,9.655172413793103,0.7142857142857143,0,186963.143779111,417603.4308230837,306302.7884718392,201752.16585836007,68761.95838360522,1.2464209585274068e-06,0.0,0.0,0.0,1.2464209585274068e-06,0.0,23.213028199438924,0.5584489488868041,0.0023039823847399088,0.0
13038,10.0,9.655172413793103,1.0714285714285714,0,324482.6515329733,604576.2544543165,323088.80854044814,249676.9700694001,-72290.02002128909,2.1632176768864886e-06,0.0,0.0,0.0,2.1632176768864886e-06,0.0,22.6460219182631,0.8648307658413091,-0.0024508693176066164,0.0
13039,10.0,9.655172413793103,1.4285714285714286,0,473333.8457160685,674691.875150914,330135.5075425657,134982.59351237238,-44045.905028958965,3.155558971440457e-06,0.0,0.0,0.0,3.155558971440457e-06,0.0,22.858001521799615,1.1743385585211081,-0.0015507554795739485,0.0
13040,10.0,9.655172413793103,1.7857142857142858,0,277412.10309355415,580753.3911888815,268993.77609366714,361140.2976789801,109341.49728623894,1.8494140206236944e-06,0.0,0.0,0.0,1.8494140206236944e-06,0.0,23.387980905473142,1.4868794186960859,0.004318715614575478,0.0
13041,10.0,9.655172413793103,2.142857142857143,0,568157.0827299802,1021561.9241731546,396844.57952225074,535713.6264360247,517454.42601076525,3.7877138848665348e-06,0.0,0.0,0.0,3.7877138848665348e-06,0.0,23.497019639183314,1.799318447725221,0.027738193881285195,0.0
13042,10.0,9.655172413793103,2.5,0,1080799.7261822128,1574059.980053068,740972.0759277752,352779.14172532584,885348.2509726282,7.205331507881419e-06,0.0,0.0,0.0,7.205331507881419e-06,0.0,23.54712602984444,2.1066840939442795,0.08853482509726282,0.0
13043,10.0,9.655172413793103,2.857142857142857,0,518453.56228097546,1281052.1281950152,923651.0021797412,686427.9873703783,599911.3143824768,3.4563570818731695e-06,0.0,0.0,0.0,3.4563570818731695e-06,0.0,23.193051683916668,2.406461304868078,0.03215830325040371,0.0
13044,10.0,9.655172413793103,3.2142857142857144,0,677209.652268272,765336.3793737974,584809.4083191084,16156.79701266136,137520.58372657397,4.514731015121813e-06,0.0,0.0,0.0,4.514731015121813e-06,0.0,23.313621075417593,2.7011651329818003,0.005431719036284273,0.0
13045,10.0,9.655172413793103,3.5714285714285716,0,161789.49598263795,416165.62713656743,375346.91914237355,237875.88861188083,313.88789466626076,1.078596639884253e-06,0.0,0.0,0.0,1.078596639884253e-06,0.0,24.2237538273344,2.9957671299496798,1.1051274171925876e-05,0.0
13046,10.0,9.655172413793103,3.928571428571429,0,290151.5340002965,400305.7090868989,242495.3958695241,65451.64846727269,49529.52999190844,1.9343435600019764e-06,0.0,0.0,0.0,1.9343435600019764e-06,0.0,24.303728287858167,3.2934021944127383,0.0016792138850825625,0.0
13047,10.0,9.655172413793103,4.285714285714286,0,290923.45309366746,403467.5098201761,345681.84352513205,87987.74721132696,3147.438755624108,1.9394896872911165e-06,0.0,0.0,0.0,1.9394896872911165e-06,0.0,23.128621923682324,3.5941632346010897,0.00010546010643778636,0.0
13048,10.0,9.655172413793103,4.642857142857143,0,281460.871895033,473390.63749883097,152591.33588366734,267868.0604748606,12322.315816714628,1.8764058126335534e-06,0.0,0.0,0.0,1.8764058126335534e-06,0.0,22.22564843445789,3.8967496652409794,0.000411393238651257,0.0
13049,10.0,9.655172413793103,5.0,0,511656.69361932715,601261.514570167,98969.172547152,80728.30882194858,-22163.600148109555,3.411044624128848e-06,0.0,0.0,0.0,3.411044624128848e-06,0.0,23.17906520135445,4.200061164690208,-0.00073914183513453,0.0
13050,0.0,10.0,0.0,0,275058.49793883646,386846.43075556925,292115.96575660055,76942.09347514322,7029.74077679145,1.833723319592243e-06,0.0,0.0,0.0,1.833723319592243e-06,0.0,23.03766268001582,-0.04994345830742686,0.00023443734156704049,0.0
13051,0.0,10.0,0.35714285714285715,0,112086.47417973886,356497.9587838125,264993.9591688181,231476.5371612825,-73095.61030012413,7.472431611982591e-07,0.0,0.0,0.0,7.472431611982591e-07,0.0,22.35320552608683,0.2538682532192236,-0.0024403724348444574,0.0
13052,0.0,10.0,0.7142857142857143,0,344420.87843089877,440201.67667613813,406161.8513624799,80024.78941646974,46566.39664173143,2.296139189539325e-06,0.0,0.0,0.0,2.296139189539325e-06,0.0,23.05146620267667,0.558350230835231,0.0015602836234655782,0.0
13053,0.0,10.0,1.0714285714285714,0,254977.39611479297,559250.0163135596,339160.4799218028,279841.97137910896,-46484.78598658433,1.6998493074319532e-06,0.0,0.0,0.0,1.6998493074319532e-06,0.0,22.47148772029802,0.8645196308085966,-0.0015759870543192297,0.0
13054,0.0,10.0,1.4285714285714286,0,236781.66233959663,382841.0462138501,554981.1268257645,284950.7644242656,-41071.390731746564,1.5785444155973108e-06,0.0,0.0,0.0,1.5785444155973108e-06,0.0,23.1870192065393,1.1735787365558568,-0.00144602964087361,0.0
13055,0.0,10.0,1.7857142857142858,0,712509.7377432684,996099.4496588809,455599.32231132203,188667.07463081324,-98255.2272170692,4.750064918288456e-06,0.0,0.0,0.0,4.750064918288456e-06,0.0,23.300854008517515,1.485441662109685,-0.003880835680209975,0.0
13056,0.0,10.0,2.142857142857143,0,366389.89333054237,1104061.0311585248,911696.048030055,681553.0289699229,337201.4067648933,2.4425992888702824e-06,0.0,0.0,0.0,2.4425992888702824e-06,0.0,23.27156739483609,1.797210453199281,0.01807571358504939,0.0
13057,0.0,10.0,2.5,0,1022189.456940283,1147766.0296480118,873864.421754384,16529.191516449406,647326.3298245837,6.814596379601886e-06,0.0,0.0,0.0,6.814596379601886e-06,0.0,23.507445128319013,2.104289321881345,0.06473263298245838,0.0
13058,0.0,10.0,2.857142857142857,0,481325.91536124307,777469.5329102301,1116352.8425099645,565409.9247313406,456090.4084873834,3.2088394357416206e-06,0.0,0.0,0.0,3.2088394357416206e-06,0.0,23.252249563384343,2.404353310342138,0.024448769866651805,0.0
13059,0.0,10.0,3.2142857142857144,0,662104.749330972,880784.6972702374,508720.1193885516,116341.94723716844,-18611.85041055917,4.41403166220648e-06,0.0,0.0,0.0,4.41403166220648e-06,0.0,23.41662539081407,2.6997273763953995,-0.0007351215318901706,0.0
13060,0.0,10.0,3.5714285714285716,0,338532.9277951877,520296.36353292625,469178.36698215327,159111.44846466437,-17151.302925717442,2.256886185301251e-06,0.0,0.0,0.0,2.256886185301251e-06,0.0,23.673009096144778,2.9950073079844284,-0.0006038581106779827,0.0
13061,0.0,10.0,3.928571428571429,0,304011.89140221424,479416.8207419051,224598.02023662234,142905.13858938016,-31231.01621042602,2.0267459426814283e-06,0.0,0.0,0.0,2.0267459426814283e-06,0.0,22.810814196946286,3.2930910593800258,-0.0010588341152107355,0.0
13062,0.0,10.0,4.285714285714286,0,83855.78754757326,368905.53948662017,277614.75496801105,295308.62487688893,-79195.03362351358,5.590385836504884e-07,0.0,0.0,0.0,5.590385836504884e-07,0.0,22.964563812765466,3.594064516549517,-0.0026535597111638485,0.0
13063,0.0,10.0,4.642857142857143,0,248948.24499943553,419916.33368815575,306439.94771035714,134447.81682994036,10680.502456970644,1.6596549666629035e-06,0.0,0.0,0.0,1.6596549666629035e-06,0.0,22.863587869282195,3.896725396076367,0.00035657960415490773,0.0
13064,0.0,10.0,5.0,0,244465.26085448565,404811.3732977112,427233.92204310023,172329.83746568876,-9831.88018749657,1.629768405696571e-06,0.0,0.0,0.0,1.629768405696571e-06,0.0,22.673340454849193,4.2000565416925735,-0.00032788689184274483,0.0
13065,0.3448275862068966,10.0,0.0,0,314379.9360878818,443329.411440189,117886.78896899088,141323.9703694843,1806.8600478824135,2.0958662405858788e-06,0.0,0.0,0.0,2.0958662405858788e-06,0.0,22.898965350852556,-0.049938835309792644,6.025762252965863e-05,0.0
13066,0.3448275862068966,10.0,0.35714285714285715,0,263488.76912830595,391923.9384952203,286659.15321516216,92075.39510506902,37568.042386431596,1.7565917941887064e-06,0.0,0.0,0.0,1.7565917941887064e-06,0.0,23.47032592674272,0.25389252238383625,0.0012542478911453888,0.0
13067,0.3448275862068966,10.0,0.7142857142857143,0,213152.95099452152,314672.76366746135,284502.2626511832,88042.0424704111,348.35836847066474,1.4210196732968102e-06,0.0,0.0,0.0,1.4210196732968102e-06,0.0,23.421162484720202,0.5584489488868041,1.1672319453957132e-05,0.0
13068,0.3448275862068966,10.0,1.0714285714285714,0,553066.0618890156,722927.2938343876,133110.52784030722,215959.47169907737,-15273.078403455207,3.687107079260104e-06,0.0,0.0,0.0,3.687107079260104e-06,0.0,22.2151955444287,0.8648307658413091,-0.0005178075650470835,0.0
13069,0.3448275862068966,10.0,1.4285714285714286,0,158552.51083764446,395311.9725216853,330021.01238384773,214539.12635814224,56977.947462458054,1.0570167389176297e-06,0.0,0.0,0.0,1.0570167389176297e-06,0.0,23.92478645588469,1.1743385585211081,0.00200606308768522,0.0
13070,0.3448275862068966,10.0,1.7857142857142858,0,452361.91015051206,806838.0728337565,305100.23408296413,430169.0992879311,56655.737462884485,3.0157460676700803e-06,0.0,0.0,0.0,3.0157460676700803e-06,0.0,23.495326342060718,1.4868794186960859,0.002237759900028752,0.0
13071,0.3448275862068966,10.0,2.142857142857143,0,423696.2275431148,744722.33981971,269776.4988003221,405571.84406327514,376864.93867192406,2.8246415169540986e-06,0.0,0.0,0.0,2.8246415169540986e-06,0.0,23.19033756330643,1.799318447725221,0.020201880997579885,0.0
13072,0.3448275862068966,10.0,2.5,0,365225.06923236564,815172.5088254012,878892.8625015796,486000.6391754766,874032.0699837306,2.4348337948824376e-06,0.0,0.0,0.0,2.4348337948824376e-06,0.0,22.390664536592393,2.1066840939442795,0.08740320699837305,0.0
13073,0.3448275862068966,10.0,2.857142857142857,0,495289.60138984944,1176114.6228077973,739158.2626044953,638084.1876627378,345093.10892881395,3.3019306759323297e-06,0.0,0.0,0.0,3.3019306759323297e-06,0.0,22.49333049349733,2.406461304868078,0.0184987490325646,0.0
13074,0.3448275862068966,10.0,3.2142857142857144,0,478798.2646344458,805733.8226655062,506864.0656213995,253489.5233744565,172891.96743699652,3.191988430896305e-06,0.0,0.0,0.0,3.191988430896305e-06,0.0,23.842239317768435,2.7011651329818003,0.006828800207940845,0.0
13075,0.3448275862068966,10.0,3.5714285714285716,0,537987.5893229576,680649.0699947644,407950.1535726613,60918.683320264565,15550.036464570156,3.5865839288197172e-06,0.0,0.0,0.0,3.5865839288197172e-06,0.0,23.597711647012016,2.9957671299496798,0.0005474811844404694,0.0
13076,0.3448275862068966,10.0,3.928571428571429,0,250006.27875412296,505076.0062563334,245132.38341773557,266360.8082535606,73681.69905342994,1.6667085250274864e-06,0.0,0.0,0.0,1.6667085250274864e-06,0.0,23.664523993268837,3.2934021944127383,0.0024980518116607888,0.0
13077,0.3448275862068966,10.0,4.285714285714286,0,342021.9728665533,440364.15292622655,480373.6909033075,120106.58550846615,-2712.998307635659,2.280146485777022e-06,0.0,0.0,0.0,2.280146485777022e-06,0.0,23.03862355587154,3.5941632346010897,-9.090346548524253e-05,0.0
13078,0.3448275862068966,10.0,4.642857142857143,0,159792.1426072121,366578.4104712604,313751.64147890167,187062.02731935715,42910.88263439698,1.0652809507147473e-06,0.0,0.0,0.0,1.0652809507147473e-06,0.0,23.762974591546005,3.8967496652409794,0.0014326241303118344,0.0
13079,0.3448275862068966,10.0,5.0,0,408954.9203388085,588071.8334122109,433106.5873336171,124281.74700963411,-74160.66905683483,2.7263661355920565e-06,0.0,0.0,0.0,2.7263661355920565e-06,0.0,22.42960132398526,4.200061164690208,-0.0024732106993073013,0.0
13080,0.6896551724137931,10.0,0.0,0,415993.527093989,541220.0192820966,166149.3815135083,93796.01827217465,58518.492840919265,2.7732901806265936e-06,0.0,0.0,0.0,2.7732901806265936e-06,0.0,22.49717502944788,-0.049934392449232125,0.0019515541653296442,0.0
13081,0.6896551724137931,10.0,0.35714285714285715,0,296556.5778030012,342724.7027181615,243367.79902791663,9247.099878813839,31467.508479708813,1.977043852020008e-06,0.0,0.0,0.0,1.977043852020008e-06,0.0,23.62294134458992,0.25391584589010324,0.0010505752667200208,0.0
13082,0.6896551724137931,10.0,0.7142857142857143,0,218880.14137733515,461454.16548870935,383447.06493566616,214256.7500603952,-29554.371504357652,1.4592009425155677e-06,0.0,0.0,0.0,1.4592009425155677e-06,0.0,22.664535304574493,0.5585438203474118,-0.0009902677721630214,0.0
13083,0.6896551724137931,10.0,1.0714285714285714,0,550363.6391936865,485428.2617028546,308903.98112892895,-131539.39124915685,41112.74076462903,3.6690909279579104e-06,0.0,0.0,0.0,3.6690909279579104e-06,0.0,23.108137392548464,0.8651297773648284,0.0013938570617779622,0.0
13084,0.6896551724137931,10.0,1.4285714285714286,0,213214.06837720785,510415.5546667999,266135.542497574,361710.615024717,-62589.19303398945,1.421427122514719e-06,0.0,0.0,0.0,1.421427122514719e-06,0.0,22.245336832199982,1.1750687736995553,-0.0022036221981534066,0.0
13085,0.6896551724137931,10.0,1.7857142857142858,0,569460.9241985108,906712.6031971273,260988.2589957172,476306.0325055788,43674.43009773746,3.7964061613234056e-06,0.0,0.0,0.0,3.7964061613234056e-06,0.0,21.715367517742223,1.4882611524841511,0.0017250307330894967,0.0
13086,0.6896551724137931,10.0,2.142857142857143,0,972416.4809488014,1357320.8023401184,985267.2042023366,253810.54156447935,339871.8556917948,6.482776539658676e-06,0.0,0.0,0.0,6.482776539658676e-06,0.0,22.631488239283424,1.8013443033457748,0.01821886325458748,0.0
13087,0.6896551724137931,10.0,2.5,0,289930.63619691716,1317111.4847517738,1136938.7149174372,982662.4521913609,916045.8197930646,1.9328709079794477e-06,0.0,0.0,0.0,1.9328709079794477e-06,0.0,22.957604530496102,2.108985552692839,0.09160458197930646,0.0
13088,0.6896551724137931,10.0,2.857142857142857,0,200649.2164826102,1098365.4755258837,871248.2076524957,945140.5076221951,584188.9243258765,1.3376614432174013e-06,0.0,0.0,0.0,1.3376614432174013e-06,0.0,22.6893242743681,2.4084871604886318,0.03131550303120509,0.0
13089,0.6896551724137931,10.0,3.2142857142857144,0,672204.6361561365,1020935.5838730792,471919.6598558689,271248.48800919787,47474.56344171966,4.48136424104091e-06,0.0,0.0,0.0,4.48136424104091e-06,0.0,23.46671907707132,2.702546866769866,0.0018751264937791605,0.0
13090,0.6896551724137931,10.0,3.5714285714285716,0,387549.20234305254,650620.523393498,261758.7707490098,264397.34473763866,-62822.24976988363,2.5836613489536836e-06,0.0,0.0,0.0,2.5836613489536836e-06,0.0,23.666669999841385,2.9964973451281267,-0.0022118275922757866,0.0
13091,0.6896551724137931,10.0,3.928571428571429,0,240408.15351011042,478662.9248655515,325284.44577030436,201593.1426323607,-45789.90406796139,1.6027210234007362e-06,0.0,0.0,0.0,1.6027210234007362e-06,0.0,23.471000423142762,3.293701205936258,-0.0015524282729935221,0.0
13092,0.6896551724137931,10.0,4.285714285714286,0,115739.04488176272,308748.8544624085,200106.70679671285,321830.96544364473,4223.107448858062,7.715936325450848e-07,0.0,0.0,0.0,7.715936325450848e-07,0.0,22.592419024472388,3.5942581060616976,0.00014150215322187166,0.0
13093,0.6896551724137931,10.0,4.642857142857143,0,375106.9417819576,487927.9726076252,250941.05179198054,55455.02673179902,1336.8185618438333,2.5007129452130507e-06,0.0,0.0,0.0,2.5007129452130507e-06,0.0,23.43779876731636,3.8967729887472466,4.463106820392142e-05,0.0
13094,0.6896551724137931,10.0,5.0,0,324152.62534406397,520154.194256135,434634.6407642909,161816.01363034378,-15522.70291710148,2.16101750229376e-06,0.0,0.0,0.0,2.16101750229376e-06,0.0,22.56604529927851,4.200065607550768,-0.000517672176168236,0.0
13095,1.0344827586206897,10.0,0.0,0,101159.61722462974,206362.98855519042,151560.78314653123,268297.24765565764,-38125.49521533887,6.743974481641982e-07,0.0,0.0,0.0,6.743974481641982e-07,0.0,24.10831673899822,-0.04993014921654327,-0.0012714607875328387,0.0
13096,1.0344827586206897,10.0,0.35714285714285715,0,194559.30867516057,482750.59135060717,383997.3648746434,258619.36504734258,74842.27678924102,1.2970620578344038e-06,0.0,0.0,0.0,1.2970620578344038e-06,0.0,23.20581173691622,0.2539381214179671,0.0024986866993455116,0.0
13097,1.0344827586206897,10.0,0.7142857142857143,0,263160.9866239604,422641.57158252044,460530.8697627486,180478.95211533533,-28579.70016320454,1.7544065774930692e-06,0.0,0.0,0.0,1.7544065774930692e-06,0.0,22.75820933876905,0.5586344290166255,-0.0009576098075890658,0.0
13098,1.0344827586206897,10.0,1.0714285714285714,0,116185.26013611056,454035.27404182433,410059.51259814575,322281.214662886,-39257.38237319405,7.745684009074037e-07,0.0,0.0,0.0,7.745684009074037e-07,0.0,23.217323151236553,0.8654153536177088,-0.0013309543131911888,0.0
13099,1.0344827586206897,10.0,1.4285714285714286,0,195411.024596693,451841.5437149715,430378.32360846736,246584.95796213433,70273.65175169348,1.3027401639779533e-06,0.0,0.0,0.0,1.3027401639779533e-06,0.0,23.279718673401,1.1757661786423577,0.002474174397187674,0.0
13100,1.0344827586206897,10.0,1.7857142857142858,0,381606.493004373,767322.729011635,480216.502575559,334285.54618125357,60958.01512371484,2.54404328669582e-06,0.0,0.0,0.0,2.54404328669582e-06,0.0,23.554109662387773,1.4895808018174934,0.0024076891050718013,0.0
13101,1.0344827586206897,10.0,2.142857142857143,0,847987.8813380217,1497754.6992462273,668768.0244409916,631964.0467145856,501852.54464804457,5.653252542253478e-06,0.0,0.0,0.0,5.653252542253478e-06,0.0,22.26106582447773,1.8032791326466158,0.026901853542120813,0.0
13102,1.0344827586206897,10.0,2.5,0,831903.308763697,1255440.0290515316,345143.64541327616,534616.310351732,674759.3256614944,5.546022058424647e-06,0.0,0.0,0.0,5.546022058424647e-06,0.0,22.861737527665344,2.1111836016437184,0.06747593256614944,0.0
13103,1.0344827586206897,10.0,2.857142857142857,0,802139.5376199892,1397837.5479523719,828782.127369528,480411.9122083758,501168.9415066645,5.347596917466595e-06,0.0,0.0,0.0,5.347596917466595e-06,0.0,23.45534494451767,2.410421989789473,0.026865208930498412,0.0
13104,1.0344827586206897,10.0,3.2142857142857144,0,413024.07988341997,663236.3804580297,489916.3332983366,191791.98673957295,141432.09950032036,2.7534938658894664e-06,0.0,0.0,0.0,2.7534938658894664e-06,0.0,23.608685410431978,2.703866516103208,0.005586214124315804,0.0
13105,1.0344827586206897,10.0,3.5714285714285716,0,291755.45202451013,635789.7615036385,309348.2299732315,544667.4607365746,-54682.86058550013,1.9450363468300677e-06,0.0,0.0,0.0,1.9450363468300677e-06,0.0,24.859269173437024,2.9971947500709293,-0.0019252583330048305,0.0
13106,1.0344827586206897,10.0,3.928571428571429,0,286646.73040374334,475174.50192578917,330604.26618234406,145031.02515529084,-25064.983537263863,1.9109782026916222e-06,0.0,0.0,0.0,1.9109782026916222e-06,0.0,23.91793407577074,3.293986782189138,-0.0008497853379996824,0.0
13107,1.0344827586206897,10.0,4.285714285714286,0,214045.3328984458,493527.42130171147,328497.54616834247,251672.40788872592,-41712.417326173556,1.4269688859896387e-06,0.0,0.0,0.0,1.4269688859896387e-06,0.0,22.88915861351908,3.5943487147309114,-0.0013976430718898444,0.0
13108,1.0344827586206897,10.0,4.642857142857143,0,170588.30456095905,460256.3371293092,263298.89236466994,359288.96715832164,-24267.94786851826,1.137255363739727e-06,0.0,0.0,0.0,1.137255363739727e-06,0.0,24.125354279494985,3.8967952642751102,-0.0008102105008140782,0.0
13109,1.0344827586206897,10.0,5.0,0,435826.19375649863,518474.2182328554,469900.15336900327,60395.88652070074,73570.84638734444,2.9055079583766576e-06,0.0,0.0,0.0,2.9055079583766576e-06,0.0,23.53292689149816,4.200069850783457,0.002453540491966539,0.0
13110,1.3793103448275863,10.0,0.0,0,158167.10729837228,224225.79209632735,389987.0314827213,240704.28479836715,11840.54245935688,1.0544473819891486e-06,0.0,0.0,0.0,1.0544473819891486e-06,0.0,23.919452330790577,-0.0499261269373935,0.0003948744889779945,0.0
13111,1.3793103448275863,10.0,0.35714285714285715,0,192542.53596568276,330094.3514856783,405339.64030624164,186536.8699471442,89804.85323710536,1.2836169064378851e-06,0.0,0.0,0.0,1.2836169064378851e-06,0.0,23.474318635605755,0.25395923701492984,0.0029982277657337217,0.0
13112,1.3793103448275863,10.0,0.7142857142857143,0,171457.79654696258,501052.7386490319,314177.43252009194,350993.61469099676,68581.08375771531,1.1430519769797505e-06,0.0,0.0,0.0,1.1430519769797505e-06,0.0,23.9642141696274,0.5587203195127853,0.002297921883240345,0.0
13113,1.3793103448275863,10.0,1.0714285714285714,0,244092.35190030042,281732.24355763017,382245.5954325618,103945.33631992807,54188.73657228908,1.6272823460020028e-06,0.0,0.0,0.0,1.6272823460020028e-06,0.0,23.791841124332514,0.8656860593488953,0.001837176304360948,0.0
13114,1.3793103448275863,10.0,1.4285714285714286,0,310254.72461869166,494949.57282971876,288403.1928138178,138176.99657997582,87490.11534485512,2.068364830791278e-06,0.0,0.0,0.0,2.068364830791278e-06,0.0,23.531292082733664,1.1764272683270574,0.0030803266657907884,0.0
13115,1.3793103448275863,10.0,1.7857142857142858,0,427024.324048464,784554.9723334038,660914.7029179874,309352.9486135981,175553.27141290694,2.8468288269897603e-06,0.0,0.0,0.0,2.8468288269897603e-06,0.0,23.040713184833933,1.4908317343936055,0.006933915057482446,0.0
13116,1.3793103448275863,10.0,2.142857142857143,0,553027.4348190328,980526.1738107303,774575.2754078098,354074.3505026711,643536.483648344,3.6868495654602185e-06,0.0,0.0,0.0,3.6868495654602185e-06,0.0,23.04384236309383,1.8051132115496138,0.03449683461157006,0.0
13117,1.3793103448275863,10.0,2.5,0,674260.298101931,1191477.4868280338,685283.255949294,426079.19037761487,873144.1403796561,4.495068654012874e-06,0.0,0.0,0.0,4.495068654012874e-06,0.0,22.794369914993048,2.113267193827696,0.08731441403796561,0.0
13118,1.3793103448275863,10.0,2.857142857142857,0,374173.303950522,1238997.592236413,817265.7768436306,946815.214477796,523881.40368021524,2.49448869300348e-06,0.0,0.0,0.0,2.49448869300348e-06,0.0,23.23689094327417,2.412256068692471,0.02808271263251177,0.0
13119,1.3793103448275863,10.0,3.2142857142857144,0,550532.1450067448,953284.9082877986,508892.7240331487,337423.5616411506,135735.79760065457,3.670214300044965e-06,0.0,0.0,0.0,3.670214300044965e-06,0.0,23.832431591896256,2.70511744867932,0.005361224449123942,0.0
13120,1.3793103448275863,10.0,3.5714285714285716,0,445675.97355893406,447566.77857384045,644854.5684689642,134585.57786222507,-17373.35640447342,2.9711731570595604e-06,0.0,0.0,0.0,2.9711731570595604e-06,0.0,23.57407100183529,2.997855839755629,-0.0006116761053068338,0.0
13121,1.3793103448275863,10.0,3.928571428571429,0,248232.24132084608,421669.1881130951,375018.377921188,153421.30127546936,40623.145643786316,1.6548816088056406e-06,0.0,0.0,0.0,1.6548816088056406e-06,0.0,22.900743141604607,3.2942574879203246,0.0013772581777360164,0.0
13122,1.3793103448275863,10.0,4.285714285714286,0,219724.80302706338,394836.92012307135,469848.3527361077,222440.39061433694,58176.71673426021,1.4648320201804225e-06,0.0,0.0,0.0,1.4648320201804225e-06,0.0,23.77708397038204,3.5944346052270713,0.0019493064727734318,0.0
13123,1.3793103448275863,10.0,4.642857142857143,0,201302.82303869876,237750.40411615986,427007.5758213563,215506.75724446212,-27679.134019921337,1.3420188202579917e-06,0.0,0.0,0.0,1.3420188202579917e-06,0.0,22.70973877526867,3.896816379872073,-0.0009240964731703837,0.0
13124,1.3793103448275863,10.0,5.0,0,297827.4661830244,473975.228245447,326121.0343273222,131151.21308422912,-39511.250843711,1.9855164412201626e-06,0.0,0.0,0.0,1.9855164412201626e-06,0.0,23.4687087455021,4.200073873062607,-0.0013176748480355654,0.0
13125,1.7241379310344829,10.0,0.0,0,443348.997807576,546056.447284488,281209.9758450841,34224.99633802695,-25349.647631806387,2.9556599853838397e-06,0.0,0.0,0.0,2.9556599853838397e-06,0.0,23.989543540504847,-0.04992234871934774,-0.0008453944731621246,0.0
13126,1.7241379310344829,10.0,0.35714285714285715,0,383324.25740726397,553704.0355549618,161949.71349920298,179406.30486146064,62429.53693127901,2.55549504938176e-06,0.0,0.0,0.0,2.55549504938176e-06,0.0,22.708816269036056,0.25397907137413783,0.0020842745606973693,0.0
13127,1.7241379310344829,10.0,0.7142857142857143,0,180206.15617523037,381221.30297319766,242721.14793586524,177481.3038454098,-10939.285909508691,1.2013743745015359e-06,0.0,0.0,0.0,1.2013743745015359e-06,0.0,23.38685240758081,0.5588009984041468,-0.00036653874656296636,0.0
13128,1.7241379310344829,10.0,1.0714285714285714,0,249803.30934616213,356523.71958835836,395944.7146198803,128774.76138795979,-52205.64730465546,1.665355395641081e-06,0.0,0.0,0.0,1.665355395641081e-06,0.0,22.95701485183884,0.8659403393828203,-0.0017699430591815043,0.0
13129,1.7241379310344829,10.0,1.4285714285714286,0,197215.414805491,555062.606903626,353476.1597959599,362530.08918538934,-50450.060411470295,1.3147694320366066e-06,0.0,0.0,0.0,1.3147694320366066e-06,0.0,24.125250394714538,1.1770482448638897,-0.0017762311292386086,0.0
13130,1.7241379310344829,10.0,1.7857142857142858,0,449280.0400086756,923003.181431955,613694.7214469112,407656.8919392861,11838.885346562267,2.995200266724504e-06,0.0,0.0,0.0,2.995200266724504e-06,0.0,24.44061686629888,1.4920067637381913,0.0004676063550832868,0.0
13131,1.7241379310344829,10.0,2.142857142857143,0,798021.7815805655,1209302.9296634346,344790.32575181243,500818.04096200847,358782.541431316,5.320145210537103e-06,0.0,0.0,0.0,5.320145210537103e-06,0.0,23.598181088358942,1.8068360034669901,0.019232572368093028,0.0
13132,1.7241379310344829,10.0,2.5,0,882918.9259191897,1460004.0784666545,1091286.7004883944,452492.0312696367,603269.3238546164,5.886126172794598e-06,0.0,0.0,0.0,5.886126172794598e-06,0.0,23.764376160320502,2.1152243592297943,0.06032693238546164,0.0
13133,1.7241379310344829,10.0,2.857142857142857,0,495878.44748941285,1440843.7662519172,1078312.2942173765,875750.421114534,513437.7764092201,3.305856316596086e-06,0.0,0.0,0.0,3.305856316596086e-06,0.0,24.013177315176208,2.413978860609847,0.027522880996129727,0.0
13134,1.7241379310344829,10.0,3.2142857142857144,0,486376.3938767698,674662.1831361705,273015.2450611577,133880.18814028215,68405.11621099079,3.2425092925117986e-06,0.0,0.0,0.0,3.2425092925117986e-06,0.0,23.71720021631019,2.706292478023906,0.002701830968382359,0.0
13135,1.7241379310344829,10.0,3.5714285714285716,0,323866.93826948514,528360.0712208548,427942.8828668178,166178.58572737448,36484.873210914106,2.1591129217965675e-06,0.0,0.0,0.0,2.1591129217965675e-06,0.0,22.927785161537503,2.9984768162924613,0.0012845488591093,0.0
13136,1.7241379310344829,10.0,3.928571428571429,0,425096.4952059079,631057.5470369061,460697.9408310026,147204.652709611,-108956.06485837078,2.833976634706053e-06,0.0,0.0,0.0,2.833976634706053e-06,0.0,23.121793862848985,3.2945117679542495,-0.0036939687698232227,0.0
13137,1.7241379310344829,10.0,4.285714285714286,0,250414.53650207794,443442.5583556022,478238.7149780788,212245.86458830588,49510.924917789845,1.6694302433471863e-06,0.0,0.0,0.0,1.6694302433471863e-06,0.0,23.12295738218969,3.5945152841184327,0.0016589448809236655,0.0
13138,1.7241379310344829,10.0,4.642857142857143,0,87385.66101252261,343512.2399809319,275764.17610947613,244877.85264278692,-3778.353710413865,5.825710734168174e-07,0.0,0.0,0.0,5.825710734168174e-07,0.0,22.48722819376618,3.896836214231281,-0.00012614424048348926,0.0
13139,1.7241379310344829,10.0,5.0,0,335113.9469962323,398464.78397359146,393798.60318485775,61042.11221473525,23003.28949276668,2.234092979974882e-06,0.0,0.0,0.0,2.234092979974882e-06,0.0,23.847345954464163,4.200077651280653,0.0007671449356689761,0.0
13140,2.0689655172413794,10.0,0.0,0,298374.31047739804,370847.28696900944,450093.5819686953,120096.11105254234,69449.10000066263,1.9891620698493202e-06,0.0,0.0,0.0,1.9891620698493202e-06,0.0,22.718199175275853,-0.04991883929012872,0.002316082896275752,0.0
13141,2.0689655172413794,10.0,0.35714285714285715,0,230097.61720728612,489209.8625234082,356269.6153611718,223516.0419135394,16795.834045525688,1.5339841147152408e-06,0.0,0.0,0.0,1.5339841147152408e-06,0.0,23.763103082010968,0.25399749468346045,0.0005607462644696374,0.0
13142,2.0689655172413794,10.0,0.7142857142857143,0,289960.27536428464,375973.8267769136,438362.74388580397,122286.41761104076,96728.76668899566,1.9330685024285644e-06,0.0,0.0,0.0,1.9330685024285644e-06,0.0,22.99009966383747,0.5588759376626208,0.0032410562437122045,0.0
13143,2.0689655172413794,10.0,1.0714285714285714,0,300219.31479732244,497492.62203776505,326953.5325532752,150844.13553523857,-88403.95126149329,2.0014620986488164e-06,0.0,0.0,0.0,2.0014620986488164e-06,0.0,23.247123727511145,0.8661765295047404,-0.002997184557953882,0.0
13144,2.0689655172413794,10.0,1.4285714285714286,0,212033.94982879492,467677.9293613961,427137.1088884671,238300.5434246068,-10522.009296391094,1.4135596655252996e-06,0.0,0.0,0.0,1.4135596655252996e-06,0.0,23.64205661775166,1.1776250440788345,-0.00037045585876322666,0.0
13145,2.0689655172413794,10.0,1.7857142857142858,0,291835.8730977987,451968.7567251858,452246.7473216751,160271.97822646142,-58927.07781778237,1.9455724873186583e-06,0.0,0.0,0.0,1.9455724873186583e-06,0.0,24.131513426612813,1.4930981995063628,-0.0023274721620717143,0.0
13146,2.0689655172413794,10.0,2.142857142857143,0,619828.7270507957,1235304.2998965771,776432.8202309941,530194.9590099237,475581.94510363153,4.132191513671972e-06,0.0,0.0,0.0,4.132191513671972e-06,0.0,23.807205604590045,1.808436233051387,0.025493615546828503,0.0
13147,2.0689655172413794,10.0,2.5,0,601704.4949245396,1410165.508058316,1077445.8565441847,715580.8018434746,800679.2027617132,4.011363299496931e-06,0.0,0.0,0.0,4.011363299496931e-06,0.0,23.31826181923545,2.1170422885725118,0.08006792027617132,0.0
13148,2.0689655172413794,10.0,2.857142857142857,0,737218.9791171654,1284454.1778278898,652586.4563565216,474506.9467341841,311866.1143949675,4.914793194114436e-06,0.0,0.0,0.0,4.914793194114436e-06,0.0,23.364844662505117,2.4155790901942438,0.016717612820091536,0.0
13149,2.0689655172413794,10.0,3.2142857142857144,0,154698.74149505945,679851.211914028,514783.26683430374,538189.1517125218,253500.01522730832,1.0313249433003964e-06,0.0,0.0,0.0,1.0313249433003964e-06,0.0,22.79814664238138,2.707383913792077,0.010012616446903934,0.0
13150,2.0689655172413794,10.0,3.5714285714285716,0,166239.4891382563,462909.0269645833,467342.1809921902,298930.45330312167,-12818.085409267413,1.1082632609217086e-06,0.0,0.0,0.0,1.1082632609217086e-06,0.0,23.709778440493185,2.999053615507406,-0.00045129544217559545,0.0
13151,2.0689655172413794,10.0,3.928571428571429,0,332260.4796697461,509803.1584251993,524063.45200580865,184902.41904583466,-103810.02217204835,2.2150698644649742e-06,0.0,0.0,0.0,2.2150698644649742e-06,0.0,23.35512366511696,3.2947479580761696,-0.0035195010061777393,0.0
13152,2.0689655172413794,10.0,4.285714285714286,0,454239.4789495794,597209.816164978,132886.4811802084,153774.90219341524,31162.399855862375,3.028263192997196e-06,0.0,0.0,0.0,3.028263192997196e-06,0.0,22.93568063488223,3.5945902233769065,0.0010441474039117383,0.0
13153,2.0689655172413794,10.0,4.642857142857143,0,140880.75533898172,457614.0398567688,500114.61770290404,342876.5981312942,31764.274353841032,9.392050355932115e-07,0.0,0.0,0.0,9.392050355932115e-07,0.0,23.794734967732744,3.8968546375406037,0.0010604831018945437,0.0
13154,2.0689655172413794,10.0,5.0,0,323336.3416992838,495268.7692010319,295826.1866805638,122209.99044292324,-21889.044908100965,2.155575611328559e-06,0.0,0.0,0.0,2.155575611328559e-06,0.0,24.119981269149516,4.200081160709871,-0.000729985594154291,0.0
13155,2.413793103448276,10.0,0.0,0,256486.2321433597,421059.0786466796,401842.8685398105,155505.19763485203,35476.536219162575,1.7099082142890647e-06,0.0,0.0,0.0,1.7099082142890647e-06,0.0,23.30247256230773,-0.04991562469392928,0.0011831197057344976,0.0
13156,2.413793103448276,10.0,0.35714285714285715,0,241246.29980388904,311136.2859775504,419583.3461816904,143145.49719157568,-42769.61799747481,1.6083086653592602e-06,0.0,0.0,0.0,1.6083086653592602e-06,0.0,23.11513816238476,0.25401437021974665,-0.001427907864525863,0.0
13157,2.413793103448276,10.0,0.7142857142857143,0,290306.73141891626,538892.4121721723,457352.5200292859,216535.1212161807,-18828.977514679085,1.935378209459442e-06,0.0,0.0,0.0,1.935378209459442e-06,0.0,23.112011157371285,0.558944581148625,-0.0006308958257772344,0.0
13158,2.413793103448276,10.0,1.0714285714285714,0,252832.32538046647,549707.7592368327,257905.21960662634,395891.7464495647,18612.93916942746,1.6855488358697764e-06,0.0,0.0,0.0,1.6855488358697764e-06,0.0,23.6066708398627,0.8663928768993978,0.0006310398241333156,0.0
13159,2.413793103448276,10.0,1.4285714285714286,0,333171.47504600324,617449.4702878714,354064.0002958495,242910.48262952094,56764.99690313983,2.221143166973355e-06,0.0,0.0,0.0,2.221143166973355e-06,0.0,22.81439064466669,1.1781533854268094,0.001998565586010003,0.0
13160,2.413793103448276,10.0,1.7857142857142858,0,422305.54330684565,746221.1207001547,533779.6300380554,259877.45881231688,64209.87706795575,2.8153702887123043e-06,0.0,0.0,0.0,2.8153702887123043e-06,0.0,23.45307896454964,1.4940979419297968,0.002536129517025118,0.0
13161,2.413793103448276,10.0,2.142857142857143,0,698877.19224327,1284357.026530228,721124.9724499241,502234.6860631647,377386.3317796719,4.6591812816218e-06,0.0,0.0,0.0,4.6591812816218e-06,0.0,23.217044399456366,1.8099020246713888,0.02022983032487151,0.0
13162,2.413793103448276,10.0,2.5,0,1285474.3905770222,1591311.270979335,1301061.8540463382,185527.66106212768,773383.6394337132,8.569829270513482e-06,0.0,0.0,0.0,8.569829270513482e-06,0.0,23.677515623490006,2.11870749062995,0.07733836394337132,0.0
13163,2.413793103448276,10.0,2.857142857142857,0,972642.259186073,1519128.479731774,785515.6919786704,415849.2943765227,197943.2757495574,6.484281727907153e-06,0.0,0.0,0.0,6.484281727907153e-06,0.0,23.72044575300752,2.417044881814246,0.010610768184102252,0.0
13164,2.413793103448276,10.0,3.2142857142857144,0,552042.0880748789,927503.9549603465,291399.6618642697,573689.2129440295,59923.64356163715,3.6802805871658594e-06,0.0,0.0,0.0,3.6802805871658594e-06,0.0,22.87290658475832,2.7083836562155112,0.002366834015949293,0.0
13165,2.413793103448276,10.0,3.5714285714285716,0,249344.0479086939,547500.8675261987,309978.8380578952,287814.6301899989,-100274.17340060319,1.662293652724626e-06,0.0,0.0,0.0,1.662293652724626e-06,0.0,23.77285278863904,2.9995819568553808,-0.0035304240827494916,0.0
13166,2.413793103448276,10.0,3.928571428571429,0,147988.824750073,343473.1805372567,178782.05094120026,300603.1287211901,-38853.1177469821,9.865921650004867e-07,0.0,0.0,0.0,9.865921650004867e-07,0.0,23.67261111223484,3.294964305470827,-0.0013172484134240455,0.0
13167,2.413793103448276,10.0,4.285714285714286,0,182918.17134491372,465584.91792964656,295449.39356800885,272122.1147146081,-64218.8433446699,1.219454475632758e-06,0.0,0.0,0.0,1.219454475632758e-06,0.0,23.353165464609607,3.5946588668629107,-0.002151757851471676,0.0
13168,2.413793103448276,10.0,4.642857142857143,0,319542.5826311389,473187.8285144162,375605.5644565148,116231.58097013213,23776.428768424972,2.1302838842075927e-06,0.0,0.0,0.0,2.1302838842075927e-06,0.0,23.237944894099478,3.89687151307689,0.0007938006280714851,0.0
13169,2.413793103448276,10.0,5.0,0,225597.6385197647,513815.084053126,256098.2978432432,352080.5889144641,-32891.89281081324,1.5039842567984314e-06,0.0,0.0,0.0,1.5039842567984314e-06,0.0,23.245556453721544,4.200084375306071,-0.0010969235074973335,0.0
13170,2.7586206896551726,10.0,0.0,0,467945.5494907064,559711.8910847785,272810.6354923354,19727.797559913917,54523.17514277687,3.1196369966047092e-06,0.0,0.0,0.0,3.1196369966047092e-06,0.0,23.348879399378628,-0.04991273181431152,0.0018183128852300153,0.0
13171,2.7586206896551726,10.0,0.35714285714285715,0,199315.6132151082,432151.8333608364,284165.9250423843,205509.47083169024,-81377.03434695084,1.328770754767388e-06,0.0,0.0,0.0,1.328770754767388e-06,0.0,22.97353555278773,0.25402955685344253,-0.0027168563287767256,0.0
13172,2.7586206896551726,10.0,0.7142857142857143,0,548224.7676394854,627644.4309347948,321799.1653331638,-5272.369523471163,-10755.144377832206,3.654831784263236e-06,0.0,0.0,0.0,3.654831784263236e-06,0.0,23.10175414628162,0.5590063547989481,-0.0003603687820178204,0.0
13173,2.7586206896551726,10.0,1.0714285714285714,0,310387.92327126145,295108.4687067869,365715.8305385216,26107.017799317462,4141.413015888042,2.0692528218084096e-06,0.0,0.0,0.0,2.0692528218084096e-06,0.0,23.550831930745343,0.8665875722606593,0.00014040751530000316,0.0
13174,2.7586206896551726,10.0,1.4285714285714286,0,228044.2369001597,573499.6650803123,455813.5661986294,310654.9965751011,32581.928147168077,1.5202949126677314e-06,0.0,0.0,0.0,1.5202949126677314e-06,0.0,23.167617632223738,1.1786288504065299,0.0011471350986223515,0.0
13175,2.7586206896551726,10.0,1.7857142857142858,0,592546.6214143299,636910.276235045,872489.7544803593,198383.35137774705,243074.45795446017,3.950310809428865e-06,0.0,0.0,0.0,3.950310809428865e-06,0.0,23.89721915862995,1.4949976301955474,0.009600833015156773,0.0
13176,2.7586206896551726,10.0,2.142857142857143,0,106316.35829842264,694632.3841761264,813830.6782283795,728795.4728772481,202686.9648053838,7.087757219894842e-07,0.0,0.0,0.0,7.087757219894842e-07,0.0,23.397222942591,1.811221119959975,0.01086505408857784,0.0
13177,2.7586206896551726,10.0,2.5,0,1246439.705465023,1268012.1005475833,1119379.8018441312,-46079.54025262636,662309.1258173708,8.309598036433486e-06,0.0,0.0,0.0,8.309598036433486e-06,0.0,23.230157987180952,2.12020603937217,0.06623091258173709,0.0
13178,2.7586206896551726,10.0,2.857142857142857,0,366288.22331068706,795712.6489429568,429531.3196835066,429317.6250840079,647808.2319127698,2.441921488737914e-06,0.0,0.0,0.0,2.441921488737914e-06,0.0,23.63809376089667,2.418363977102832,0.03472582208489051,0.0
13179,2.7586206896551726,10.0,3.2142857142857144,0,534350.3270858071,733488.3378498794,473090.58052901673,118856.77238620621,10026.93788018437,3.5623355139053805e-06,0.0,0.0,0.0,3.5623355139053805e-06,0.0,23.2741073542765,2.709283344481262,0.0003960389629215412,0.0
13180,2.7586206896551726,10.0,3.5714285714285716,0,308511.91213503847,532802.4224143045,341769.32799908915,176883.55655759515,30025.37363089183,2.0567460809002563e-06,0.0,0.0,0.0,2.0567460809002563e-06,0.0,23.091949888808944,3.0000574218351015,0.0010571246669525219,0.0
13181,2.7586206896551726,10.0,3.928571428571429,0,294803.0045844201,557171.6462377998,226080.31193226142,323122.6377589659,-42497.02317748138,1.9653533638961344e-06,0.0,0.0,0.0,1.9653533638961344e-06,0.0,23.3175705076918,3.2951590008320886,-0.001440788786123358,0.0
13182,2.7586206896551726,10.0,4.285714285714286,0,64168.09983699496,308688.73328258976,261983.66588750033,335151.0823652511,-61599.616607082746,4.277873322466331e-07,0.0,0.0,0.0,4.277873322466331e-07,0.0,22.470078744398158,3.5947206405132337,-0.002063996356498324,0.0
13183,2.7586206896551726,10.0,4.642857142857143,0,268929.4129331967,520575.6908386806,298904.5234871328,221406.76090063332,-35927.21705762934,1.7928627528879779e-06,0.0,0.0,0.0,1.7928627528879779e-06,0.0,22.510606394097653,3.8968866997105858,-0.0011994672430823573,0.0
13184,2.7586206896551726,10.0,5.0,0,358638.55624785443,449087.94686856435,263858.0517894168,35709.80239974273,87104.06304894356,2.3909237083190297e-06,0.0,0.0,0.0,2.3909237083190297e-06,0.0,23.040587957262435,4.200087268185689,0.0029048645788333906,0.0
13185,3.1034482758620694,10.0,0.0,0,451219.68882015307,515957.1793156079,522203.33864607936,67892.99553120954,-49917.65090144379,3.0081312588010206e-06,0.0,0.0,0.0,3.0081312588010206e-06,0.0,22.875273636368522,-0.04991018770100537,-0.0016647216086888778,0.0
13186,3.1034482758620694,10.0,0.35714285714285715,0,186941.9377996095,391034.3900068269,343443.99809350824,184897.05943387648,-12763.322791819346,1.24627958533073e-06,0.0,0.0,0.0,1.24627958533073e-06,0.0,23.801895266970437,0.25404291258266964,-0.00042611671193783083,0.0
13187,3.1034482758620694,10.0,0.7142857142857143,0,321471.5171857881,314955.9700688647,472381.54071986943,102538.49478816251,-10926.921265816984,2.1431434479052538e-06,0.0,0.0,0.0,2.1431434479052538e-06,0.0,24.11150376128106,0.5590606810020822,-0.00036612444886218896,0.0
13188,3.1034482758620694,10.0,1.0714285714285714,0,178916.62840120037,334637.5297795069,441699.44743573695,235150.61625513763,40817.852405260026,1.1927775226746692e-06,0.0,0.0,0.0,1.1927775226746692e-06,0.0,23.648714116435283,0.8667587950990354,0.0013838593770092486,0.0
13189,3.1034482758620694,10.0,1.4285714285714286,0,85515.87758571621,381244.3569200303,294118.0250302166,377926.89929072803,64492.87665119622,5.701058505714415e-07,0.0,0.0,0.0,5.701058505714415e-07,0.0,22.54269970967174,1.179046993205869,0.0022706465401170373,0.0
13190,3.1034482758620694,10.0,1.7857142857142858,0,570510.2523444621,806747.8515150145,520996.00808357727,149827.80619530665,85502.31530632058,3.803401682296414e-06,0.0,0.0,0.0,3.803401682296414e-06,0.0,22.790901164504163,1.4957888518123204,0.003377127562366347,0.0
13191,3.1034482758620694,10.0,2.142857142857143,0,1027418.3880535433,1413284.107151049,668830.6009873399,241100.93214299888,63484.03309993923,6.849455920356955e-06,0.0,0.0,0.0,6.849455920356955e-06,0.0,23.67560316591461,1.8123811847809177,0.0034030676519044914,0.0
13192,3.1034482758620694,10.0,2.5,0,824343.5368535152,1138664.1066451243,857050.9721517583,210416.87584798766,626549.5831032608,5.4956235790234345e-06,0.0,0.0,0.0,5.4956235790234345e-06,0.0,23.41941313495611,2.1215239226921696,0.06265495831032608,0.0
13193,3.1034482758620694,10.0,2.857142857142857,0,776544.1626094789,1228294.4625154529,550649.8575163529,380926.01808818453,280782.6803422251,5.1769610840631925e-06,0.0,0.0,0.0,5.1769610840631925e-06,0.0,22.581698902358866,2.4195240419237747,0.015051382371744432,0.0
13194,3.1034482758620694,10.0,3.2142857142857144,0,186756.50702513038,512011.83026100625,450436.9321859754,302242.84066269797,162890.32084777328,1.2450433801675359e-06,0.0,0.0,0.0,1.2450433801675359e-06,0.0,23.0860632101735,2.7100745660980348,0.006433760187743681,0.0
13195,3.1034482758620694,10.0,3.5714285714285716,0,282499.096682942,532595.926075861,396802.42480018316,207841.5623813957,-40885.773656814796,1.8833273112196133e-06,0.0,0.0,0.0,1.8833273112196133e-06,0.0,22.982057845638305,3.0004755646344408,-0.0014394944886077258,0.0
13196,3.1034482758620694,10.0,3.928571428571429,0,215997.5025050514,501497.277840213,339115.9994679448,256357.98384391994,74752.72408714173,1.439983350033676e-06,0.0,0.0,0.0,1.439983350033676e-06,0.0,24.25270600931427,3.2953302236704647,0.0025343630810827616,0.0
13197,3.1034482758620694,10.0,4.285714285714286,0,109202.97682725497,305005.1546319101,322310.7212034745,205488.26484727088,17531.91143839777,7.280198455150331e-07,0.0,0.0,0.0,7.280198455150331e-07,0.0,23.881568999539912,3.594774966716368,0.0005874354959401426,0.0
13198,3.1034482758620694,10.0,4.642857142857143,0,211718.27936841105,410539.4810935896,294486.02907175355,166170.7924867976,48568.44495879964,1.411455195789407e-06,0.0,0.0,0.0,1.411455195789407e-06,0.0,23.389921327620087,3.8969000554398128,0.0016215076910099156,0.0
13199,3.1034482758620694,10.0,5.0,0,275485.1829151811,489176.02843669424,373198.31764244096,174664.33983557345,96525.9932985491,1.8365678861012074e-06,0.0,0.0,0.0,1.8365678861012074e-06,0.0,23.652770858615714,4.2000898122989945,0.0032190799034496394,0.0
13200,3.4482758620689657,10.0,0.0,0,96318.9434243741,170507.2441066823,267611.94522692723,172098.4764129907,-38942.758505523074,6.421262894958273e-07,0.0,0.0,0.0,6.421262894958273e-07,0.0,23.57711127540639,-0.04990801869620095,-0.0012987159935489228,0.0
13201,3.4482758620689657,10.0,0.35714285714285715,0,320114.1986480477,522911.20261150703,403735.532677883,160303.61589906094,-66852.87522650912,2.134094657653651e-06,0.0,0.0,0.0,2.134094657653651e-06,0.0,23.548540658272433,0.2540542991198927,-0.0022319522776129237,0.0
13202,3.4482758620689657,10.0,0.7142857142857143,0,320981.7339606997,443288.9467837258,136820.24775542834,109535.9668644455,7747.614334463463,2.1398782264046645e-06,0.0,0.0,0.0,2.1398782264046645e-06,0.0,24.427004357051064,0.5591069972551037,0.0002595965468403276,0.0
13203,3.4482758620689657,10.0,1.0714285714285714,0,371481.7010114058,487672.42552914534,354601.8350791964,67983.03128462959,40967.688606790674,2.476544673409372e-06,0.0,0.0,0.0,2.476544673409372e-06,0.0,24.22280885615291,0.8669047725435793,0.00138893931679748,0.0
13204,3.4482758620689657,10.0,1.4285714285714286,0,218825.35342563273,454759.2391689126,395386.4441525825,212374.2551332045,-26725.929064644246,1.4588356895042183e-06,0.0,0.0,0.0,1.4588356895042183e-06,0.0,24.28560436749668,1.179403484301805,-0.0009409587773585882,0.0
13205,3.4482758620689657,10.0,1.7857142857142858,0,227110.1822009913,465402.60355232673,401236.7195094971,213112.73758636593,77377.35080693442,1.514067881339942e-06,0.0,0.0,0.0,1.514067881339942e-06,0.0,23.69328247831196,1.4964634143343525,0.0030562117900177037,0.0
13206,3.4482758620689657,10.0,2.142857142857143,0,579012.133395227,1164367.2138290252,661659.6009658353,531282.0324805431,524805.9757291735,3.860080889301513e-06,0.0,0.0,0.0,3.860080889301513e-06,0.0,23.36371683928934,1.8133702076219869,0.028132274405417913,0.0
13207,3.4482758620689657,10.0,2.5,0,621044.3061174896,1217359.130182907,981527.8303814834,512942.21968130575,852607.6899806214,4.140295374116597e-06,0.0,0.0,0.0,4.140295374116597e-06,0.0,22.917026437730335,2.1226474949976244,0.08526076899806215,0.0
13208,3.4482758620689657,10.0,2.857142857142857,0,580949.6141291074,1058757.4262810992,929113.0695039915,423938.13410718046,335570.8525412235,3.872997427527383e-06,0.0,0.0,0.0,3.872997427527383e-06,0.0,23.044438904354646,2.420513064764844,0.017988307570303737,0.0
13209,3.4482758620689657,10.0,3.2142857142857144,0,549651.6571847261,864494.4239168868,248591.82491877535,423821.8538676879,94060.32776624442,3.6643443812315074e-06,0.0,0.0,0.0,3.6643443812315074e-06,0.0,24.05387876119267,2.710749128620067,0.0037151476458452655,0.0
13210,3.4482758620689657,10.0,3.5714285714285716,0,453453.64901331044,571221.1531847268,409252.9223934128,59023.71359298791,-40150.42393775573,3.023024326755403e-06,0.0,0.0,0.0,3.023024326755403e-06,0.0,22.914431666799853,3.0008320557303767,-0.0014136045084725858,0.0
13211,3.4482758620689657,10.0,3.928571428571429,0,304659.0208961064,590424.6007246654,259531.276820103,321540.39645859506,-61572.00778855156,2.031060139307376e-06,0.0,0.0,0.0,2.031060139307376e-06,0.0,23.466545878793607,3.2954762011150085,-0.0020874934696097163,0.0
13212,3.4482758620689657,10.0,4.285714285714286,0,421882.95416902186,426743.2643207058,382977.7034933271,-15316.453563949213,56236.78127476799,2.8125530277934792e-06,0.0,0.0,0.0,2.8125530277934792e-06,0.0,22.868432959122757,3.5948212829693893,0.0018843057480810404,0.0
13213,3.4482758620689657,10.0,4.642857142857143,0,193150.8692943079,355635.700242557,137071.74320329662,284819.36641597823,-88034.40283104834,1.2876724619620525e-06,0.0,0.0,0.0,1.2876724619620525e-06,0.0,23.517103050888096,3.896911441977036,-0.0029391194506042505,0.0
13214,3.4482758620689657,10.0,5.0,0,274450.7824178033,397056.4942965697,490611.8193383887,181615.19709682112,7880.435235341452,1.8296718827853553e-06,0.0,0.0,0.0,1.8296718827853553e-06,0.0,23.03981689233294,4.2000919813038,0.00026280745558414684,0.0
13215,3.793103448275862,10.0,0.0,0,277381.2448199766,427752.4207290718,206453.92709779306,116577.39623067416,-14623.721238500368,1.8492082987998442e-06,0.0,0.0,0.0,1.8492082987998442e-06,0.0,23.862394986679607,-0.049906249384656744,-0.0004876917143645058,0.0
13216,3.793103448275862,10.0,0.35714285714285715,0,397620.95393607946,475252.31846607506,389466.6497733824,41740.69643248944,21676.060580811143,2.650806359573863e-06,0.0,0.0,0.0,2.650806359573863e-06,0.0,23.413164522303425,0.25406358740349455,0.0007236776671025376,0.0
13217,3.793103448275862,10.0,0.7142857142857143,0,165102.79455233866,279995.1536090574,271899.4935695487,110993.45735578531,-27138.210171576306,1.1006852970155912e-06,0.0,0.0,0.0,1.1006852970155912e-06,0.0,23.135389978838703,0.5591447785827378,-0.0009093103171940658,0.0
13218,3.793103448275862,10.0,1.0714285714285714,0,232329.3621738113,408948.0518048905,218931.37245060527,149936.11855898474,46868.25883535048,1.5488624144920752e-06,0.0,0.0,0.0,1.5488624144920752e-06,0.0,23.066440021286706,0.8670238500012687,0.0015889880444821787,0.0
13219,3.793103448275862,10.0,1.4285714285714286,0,367769.04078495025,627153.808193926,357257.08517847536,208267.27288946862,-4579.376524862323,2.4517936052330018e-06,0.0,0.0,0.0,2.4517936052330018e-06,0.0,23.616240870035245,1.179694283017494,-0.00016122936364444137,0.0
13220,3.793103448275862,10.0,1.7857142857142858,0,165199.10688628556,646963.8151568109,615611.1051473645,468335.01126799127,170230.34414799046,1.1013273792419038e-06,0.0,0.0,0.0,1.1013273792419038e-06,0.0,23.57943099425377,1.497013671878776,0.006723672746330763,0.0
13221,3.793103448275862,10.0,2.142857142857143,0,789859.2403662739,1194403.7850378603,392151.76322183234,417549.96079809574,401805.6415865136,5.265728269108492e-06,0.0,0.0,0.0,5.265728269108492e-06,0.0,23.282684501112787,1.8141769783246733,0.021538829757133112,0.0
13222,3.793103448275862,10.0,2.5,0,654958.7909091733,1301600.5492528267,995571.3357435097,549644.7031863658,559226.3416566319,4.3663919393944886e-06,0.0,0.0,0.0,4.3663919393944886e-06,0.0,23.40446041405578,2.1235640210683577,0.05592263416566319,0.0
13223,3.793103448275862,10.0,2.857142857142857,0,642960.2228232726,1199407.896268371,702387.2662335697,473272.50012267655,434400.2946691798,4.286401485488484e-06,0.0,0.0,0.0,4.286401485488484e-06,0.0,23.321856908426835,2.4213198354675303,0.023286069245778276,0.0
13224,3.793103448275862,10.0,3.2142857142857144,0,334795.4897858618,569548.7959359469,554162.9711754124,227325.64982742054,99968.39953148278,2.2319699319057453e-06,0.0,0.0,0.0,2.2319699319057453e-06,0.0,22.48356954789619,2.7112993861644905,0.003948501700964635,0.0
13225,3.793103448275862,10.0,3.5714285714285716,0,202009.52882886317,398009.189284845,333142.8531788416,171534.48297831227,886.6732102028445,1.3467301921924211e-06,0.0,0.0,0.0,1.3467301921924211e-06,0.0,23.558268263155203,3.0011228544460655,3.121773382586761e-05,0.0
13226,3.793103448275862,10.0,3.928571428571429,0,225301.1444442259,409906.15775595367,239082.4679426191,154567.69357850763,-30290.164529715334,1.5020076296281728e-06,0.0,0.0,0.0,1.5020076296281728e-06,0.0,22.804580162104955,3.295595278572698,-0.0010269361503741875,0.0
13227,3.793103448275862,10.0,4.285714285714286,0,77924.87366083829,274828.8774977594,189165.11302172675,208152.17345492114,34109.18433281595,5.19499157738922e-07,0.0,0.0,0.0,5.19499157738922e-07,0.0,23.143520832712962,3.5948590642970237,0.001142884259087533,0.0
13228,3.793103448275862,10.0,4.642857142857143,0,268509.86623276584,373690.2195981985,329638.72349276673,85878.56610184805,-38126.1734547001,1.7900657748851056e-06,0.0,0.0,0.0,1.7900657748851056e-06,0.0,23.75237910086522,3.896920730260638,-0.0012728816732349058,0.0
13229,3.793103448275862,10.0,5.0,0,264694.6639125207,414894.8247849289,329149.0921570949,117956.97248150317,-33963.904674930294,1.7646310927501378e-06,0.0,0.0,0.0,1.7646310927501378e-06,0.0,23.476888235943314,4.200093750615343,-0.0011326744148966014,0.0
13230,4.137931034482759,10.0,0.0,0,289541.0647806814,509357.68227887474,312483.303145387,176902.57176389766,19800.051761103554,1.9302737652045428e-06,0.0,0.0,0.0,1.9302737652045428e-06,0.0,24.314363677374594,-0.04990490142894272,0.0006603190139084448,0.0
13231,4.137931034482759,10.0,0.35714285714285715,0,296884.60468123073,405690.2856808415,294923.33618981787,69346.88377120468,-7915.15990355975,1.9792306978748714e-06,0.0,0.0,0.0,1.9792306978748714e-06,0.0,23.156442840311023,0.25407066371235354,-0.0002642557872726391,0.0
13232,4.137931034482759,10.0,0.7142857142857143,0,233149.0686575271,423747.0965988616,334818.0881808487,159220.75605239745,-73997.48888773863,1.5543271243835139e-06,0.0,0.0,0.0,1.5543271243835139e-06,0.0,23.354225854664723,0.559173562409212,-0.002479407435739734,0.0
13233,4.137931034482759,10.0,1.0714285714285714,0,327817.8479018708,478419.5058653903,380755.6877186874,112868.67507789512,-37076.93928464201,2.1854523193458055e-06,0.0,0.0,0.0,2.1854523193458055e-06,0.0,23.645682519648904,0.8671145695469745,-0.0012570301247216624,0.0
13234,4.137931034482759,10.0,1.4285714285714286,0,190630.33668036474,363947.4078065894,146430.8243511961,225951.6879380847,23970.121256110957,1.2708689112024315e-06,0.0,0.0,0.0,1.2708689112024315e-06,0.0,23.550711761917352,1.1799158289581873,0.0008439330934289263,0.0
13235,4.137931034482759,10.0,1.7857142857142858,0,414252.6711124831,624649.8906519287,149634.63685497871,435882.9758839869,50619.906389890064,2.7616844740832205e-06,0.0,0.0,0.0,2.7616844740832205e-06,0.0,24.09785203106393,1.4974328873660738,0.001999359671855166,0.0
13236,4.137931034482759,10.0,2.142857142857143,0,1000788.6749569876,1421341.668291008,998797.832962474,278581.42416121165,351297.0835220549,6.6719244997132505e-06,0.0,0.0,0.0,6.6719244997132505e-06,0.0,23.898817483883278,1.8147916191900126,0.01883131368261226,0.0
13237,4.137931034482759,10.0,2.5,0,566787.2873036419,1108298.9698993855,486247.78587884066,621099.9622072917,679280.0799952742,3.7785819153576125e-06,0.0,0.0,0.0,3.7785819153576125e-06,0.0,24.277591503491454,2.124262279415303,0.06792800799952742,0.0
13238,4.137931034482759,10.0,2.857142857142857,0,730006.6398185856,1170781.7952171944,462031.29471753794,421230.330842152,404644.56615590217,4.866710932123904e-06,0.0,0.0,0.0,4.866710932123904e-06,0.0,22.780362244119125,2.42193447633287,0.0216910105795625,0.0
13239,4.137931034482759,10.0,3.2142857142857144,0,492123.8561648705,770488.5011911626,415025.9929372793,208803.22152734036,75545.67603254651,3.280825707765803e-06,0.0,0.0,0.0,3.280825707765803e-06,0.0,23.986098270239157,2.7117186016517882,0.0029838652185393126,0.0
13240,4.137931034482759,10.0,3.5714285714285716,0,144448.87768145083,317638.8156580756,166493.24647538175,180978.05392915796,-144407.46772214962,9.629925178763388e-07,0.0,0.0,0.0,9.629925178763388e-07,0.0,23.10702282488053,3.001344400386759,-0.005084256339250762,0.0
13241,4.137931034482759,10.0,3.928571428571429,0,163602.84318329702,412141.5891067832,242017.29204147813,255951.50683016935,-1894.199921353947,1.0906856212219803e-06,0.0,0.0,0.0,1.0906856212219803e-06,0.0,23.824735645277027,3.2956859981184037,-6.421960413473503e-05,0.0
13242,4.137931034482759,10.0,4.285714285714286,0,227677.33988921862,387703.23900035117,192233.60559545984,137716.3684153755,-19442.639053491937,1.517848932594791e-06,0.0,0.0,0.0,1.517848932594791e-06,0.0,23.485263739433485,3.594887848123498,-0.0006514575638203774,0.0
13243,4.137931034482759,10.0,4.642857142857143,0,153364.3577358022,400226.7798458565,245293.54102284912,248480.99205872524,1150.1055252135116,1.0224290515720147e-06,0.0,0.0,0.0,1.0224290515720147e-06,0.0,23.267552644199057,3.8969278065694968,3.839746065966692e-05,0.0
13244,4.137931034482759,10.0,5.0,0,162964.43873840515,318760.7340761396,283772.23449956346,141143.83764984983,40078.61791608483,1.0864295915893676e-06,0.0,0.0,0.0,1.0864295915893676e-06,0.0,24.203627690621843,4.200095098571057,0.0013365961756297681,0.0
13245,4.482758620689656,10.0,0.0,0,212690.3141447404,275393.2374313381,223860.47098273656,41671.44981079721,-38030.20575422059,1.4179354276316027e-06,0.0,0.0,0.0,1.4179354276316027e-06,0.0,22.72509155187804,-0.0499039923898561,-0.0012682829451837042,0.0
13246,4.482758620689656,10.0,0.35714285714285715,0,164172.63483654527,320910.9050561988,220321.90537767613,131461.65723136114,2492.143025800355,1.094484232243635e-06,0.0,0.0,0.0,1.094484232243635e-06,0.0,24.47498699006411,0.2540754358582593,8.320276852306023e-05,0.0
13247,4.482758620689656,10.0,0.7142857142857143,0,280863.1688929673,348849.8846007328,267425.8622927938,36270.780763598275,16978.614666587684,1.8724211259531153e-06,0.0,0.0,0.0,1.8724211259531153e-06,0.0,23.888857024036643,0.5591929737467328,0.0005688963785887694,0.0
13248,4.482758620689656,10.0,1.0714285714285714,0,289372.7187491379,453452.58309309947,333165.082558725,123337.05973164541,-11111.65435204017,1.9291514583275857e-06,0.0,0.0,0.0,1.9291514583275857e-06,0.0,23.662557935894053,0.8671757493113467,-0.00037672160986046513,0.0
13249,4.482758620689656,10.0,1.4285714285714286,0,388891.3454309562,580833.7976327519,434771.750795183,140058.45079576134,-50411.67649713489,2.592608969539708e-06,0.0,0.0,0.0,2.592608969539708e-06,0.0,23.508448431684187,1.1800652358841561,-0.0017748797194890758,0.0
13250,4.482758620689656,10.0,1.7857142857142858,0,352099.4602801313,780687.4679251013,400493.53158705845,465836.9105956956,-9185.83563680535,2.3473297352008755e-06,0.0,0.0,0.0,2.3473297352008755e-06,0.0,23.40217791558847,1.4977155993718982,-0.00036281752840591384,0.0
13251,4.482758620689656,10.0,2.142857142857143,0,368273.8635193824,1059667.9165200877,962873.0134565315,652663.8579560629,337877.02639811795,2.455159090129216e-06,0.0,0.0,0.0,2.455159090129216e-06,0.0,23.826462675183347,1.8152061228454521,0.01811193023995534,0.0
13252,4.482758620689656,10.0,2.5,0,452449.0227672325,850126.1867923411,931198.6846720162,443694.2536781467,547825.1756568473,3.0163268184482167e-06,0.0,0.0,0.0,3.0163268184482167e-06,0.0,22.900073088409417,2.1247331733202994,0.05478251756568473,0.0
13253,4.482758620689656,10.0,2.857142857142857,0,365930.3322098542,830186.2910109647,410109.54258607386,580693.486048697,166701.6512102656,2.439535548065695e-06,0.0,0.0,0.0,2.439535548065695e-06,0.0,22.065095232663587,2.422348979988309,0.008936057919629294,0.0
13254,4.482758620689656,10.0,3.2142857142857144,0,407061.0061634654,635857.3847716316,273238.47772743023,195551.1958852324,15575.97154217583,2.7137400410897692e-06,0.0,0.0,0.0,2.7137400410897692e-06,0.0,23.64927013058816,2.7120013136576127,0.0006152119111308713,0.0
13255,4.482758620689656,10.0,3.5714285714285716,0,282642.8550482905,372115.49935006123,249014.61030790454,48798.724206379826,-50049.43511022255,1.8842857003219368e-06,0.0,0.0,0.0,1.8842857003219368e-06,0.0,23.238205133625524,3.0014938073127277,-0.0017621260295532363,0.0
13256,4.482758620689656,10.0,3.928571428571429,0,204361.8088862916,408893.2366776523,362513.99944858643,185327.7869436585,27669.302452197095,1.362412059241944e-06,0.0,0.0,0.0,1.362412059241944e-06,0.0,23.157873543450638,3.295747177882776,0.000938080310389961,0.0
13257,4.482758620689656,10.0,4.285714285714286,0,219901.279657453,407080.2664388046,213388.1927219999,168040.3189180667,-52806.807915274156,1.4660085310496867e-06,0.0,0.0,0.0,1.4660085310496867e-06,0.0,22.832817945743866,3.5949072594610185,-0.0017693788555641864,0.0
13258,4.482758620689656,10.0,4.642857142857143,0,299891.98389783583,392718.78466568515,114038.76367045265,75366.73404226055,50378.33264686929,1.999279892652239e-06,0.0,0.0,0.0,1.999279892652239e-06,0.0,24.22747153694265,3.8969325787154023,0.0016819326605257941,0.0
13259,4.482758620689656,10.0,5.0,0,302811.4586609469,427310.56690658076,231991.88646506562,78488.45217632438,76585.0013862963,2.018743057739646e-06,0.0,0.0,0.0,2.018743057739646e-06,0.0,24.540399791496135,4.200096007610144,0.0025540606259888635,0.0
13260,4.827586206896552,10.0,0.0,0,148991.7534094153,273039.5870432793,101299.77840268843,195979.97103165695,-24687.336695555892,9.932783560627687e-07,0.0,0.0,0.0,9.932783560627687e-07,0.0,23.544716222982156,-0.04990353466181586,-0.0008233068286649099,0.0
13261,4.827586206896552,10.0,0.35714285714285715,0,327490.44208785053,395618.07944123633,163040.58836182093,21103.129496748872,-20464.024187468476,2.1832696139190038e-06,0.0,0.0,0.0,2.1832696139190038e-06,0.0,23.49748670611972,0.2540778387747294,-0.0006832125804551016,0.0
13262,4.827586206896552,10.0,0.7142857142857143,0,106938.52447709713,287943.07196923293,194865.4506805549,171131.46908799917,31571.50024284392,7.129234965139808e-07,0.0,0.0,0.0,7.129234965139808e-07,0.0,23.79162138036243,0.5592027479287373,0.0010578549844890315,0.0
13263,4.827586206896552,10.0,1.0714285714285714,0,151460.51771627544,279750.36008727254,251534.88097712674,116166.1893437983,37575.7461584752,1.0097367847751697e-06,0.0,0.0,0.0,1.0097367847751697e-06,0.0,23.76647919777167,0.867206555130437,0.0012739413174717685,0.0
13264,4.827586206896552,10.0,1.4285714285714286,0,209710.76385296555,443079.39551810175,362350.14961296704,205001.1005105005,-14685.769649114009,1.3980717590197703e-06,0.0,0.0,0.0,1.3980717590197703e-06,0.0,23.32941206284697,1.1801404666860311,-0.0005170523284775516,0.0
13265,4.827586206896552,10.0,1.7857142857142858,0,324087.76280519494,713151.5231219298,481196.15147671447,342850.40705001575,35200.596610604734,2.1605850853679665e-06,0.0,0.0,0.0,2.1605850853679665e-06,0.0,24.20073654503765,1.4978579532203558,0.0013903355084540607,0.0
13266,4.827586206896552,10.0,2.142857142857143,0,663703.2326384316,932878.5239661823,394479.3616130162,191347.76924950673,283875.6817949914,4.424688217589544e-06,0.0,0.0,0.0,4.424688217589544e-06,0.0,24.165167028938296,1.8154148376836474,0.01521718300975104,0.0
13267,4.827586206896552,10.0,2.5,0,721709.3586941018,1004198.6853914435,625681.1496695335,171971.9908110362,491849.51674021955,4.811395724627345e-06,0.0,0.0,0.0,4.811395724627345e-06,0.0,23.975177928973196,2.124970282315356,0.049184951674021954,0.0
13268,4.827586206896552,10.0,2.857142857142857,0,304504.14877956035,902645.0965589966,607929.2604910608,589215.7824267005,398028.50589186884,2.0300276585304025e-06,0.0,0.0,0.0,2.0300276585304025e-06,0.0,24.497517880038878,2.422557694826504,0.02133635603781121,0.0
13269,4.827586206896552,10.0,3.2142857142857144,0,319200.4005698643,589305.8543372763,371474.24213973974,222900.36442665436,69342.75318644555,2.128002670465762e-06,0.0,0.0,0.0,2.128002670465762e-06,0.0,24.000336349364648,2.71214366750607,0.0027388652833240973,0.0
13270,4.827586206896552,10.0,3.5714285714285716,0,107757.07520302318,310281.1462218559,258754.2784168699,186434.46361212636,-24013.307334765115,7.183805013534879e-07,0.0,0.0,0.0,7.183805013534879e-07,0.0,23.289826393922848,3.001569038114603,-0.0008454535763902872,0.0
13271,4.827586206896552,10.0,3.928571428571429,0,118599.23305443213,258958.31038209924,122488.38379852589,200610.0773286211,2447.4696454104787,7.906615536962142e-07,0.0,0.0,0.0,7.906615536962142e-07,0.0,23.66219665452067,3.2957779837018664,8.297726654306606e-05,0.0
13272,4.827586206896552,10.0,4.285714285714286,0,228871.64893107343,329205.6863669539,157022.13454237746,69485.42763795271,-12649.435400038938,1.5258109928738228e-06,0.0,0.0,0.0,1.5258109928738228e-06,0.0,24.097365000536655,3.594917033643023,-0.00042384011484966513,0.0
13273,4.827586206896552,10.0,4.642857142857143,0,139180.21729875938,338739.4623103308,206520.87729288088,193511.1631134693,83470.02404649928,9.278681153250626e-07,0.0,0.0,0.0,9.278681153250626e-07,0.0,23.10636060821817,3.8969349816318726,0.0027867329513019327,0.0
13274,4.827586206896552,10.0,5.0,0,265895.9747359269,334103.9184434366,27119.513467049568,176018.1653961574,-8293.74963878784,1.772639831572846e-06,0.0,0.0,0.0,1.772639831572846e-06,0.0,23.50047482033256,4.200096465338184,-0.00027659122557680997,0.0
13275,5.172413793103448,10.0,0.0,0,122389.79301801795,354646.2239402182,258709.93381084636,216809.10418374548,23123.941934519735,8.15931953453453e-07,0.0,0.0,0.0,8.15931953453453e-07,0.0,22.77899087617931,-0.04990353466181586,0.0007711686171383615,0.0
13276,5.172413793103448,10.0,0.35714285714285715,0,143809.2631238928,298999.05185471394,132942.59311602387,215762.15142526192,13582.982657327251,9.58728420825952e-07,0.0,0.0,0.0,9.58728420825952e-07,0.0,24.581083438987278,0.2540778387747294,0.00045348190300088993,0.0
13277,5.172413793103448,10.0,0.7142857142857143,0,191440.05793704907,348756.93250233674,262483.2444081458,129361.94299832801,-4717.837242806673,1.2762670529136604e-06,0.0,0.0,0.0,1.2762670529136604e-06,0.0,23.783665910421238,0.5592027479287373,-0.00015807888776024363,0.0
13278,5.172413793103448,10.0,1.0714285714285714,0,119127.98160852231,313608.456889448,264746.71907045273,177818.3767080432,14425.096878434999,7.941865440568154e-07,0.0,0.0,0.0,7.941865440568154e-07,0.0,23.882956091480803,0.867206555130437,0.0004890582037803795,0.0
13279,5.172413793103448,10.0,1.4285714285714286,0,329846.34585853876,512159.5826689088,221899.64586428,153463.49174043056,12617.171249061326,2.198975639056925e-06,0.0,0.0,0.0,2.198975639056925e-06,0.0,22.835264278217785,1.1801404666860311,0.0004442217145575856,0.0
13280,5.172413793103448,10.0,1.7857142857142858,0,289521.55728334637,546287.4019181199,483906.9832101193,230660.47789258687,190321.05410986097,1.930143715222309e-06,0.0,0.0,0.0,1.930143715222309e-06,0.0,24.150257764188424,1.4978579532203558,0.00751720553098888,0.0
13281,5.172413793103448,10.0,2.142857142857143,0,892819.9359892547,1169406.6425777809,675958.406755861,138776.2375233683,292682.8117339927,5.952132906595031e-06,0.0,0.0,0.0,5.952132906595031e-06,0.0,23.754513085089094,1.8154148376836474,0.015689290050498638,0.0
13282,5.172413793103448,10.0,2.5,0,584756.0746489567,1003183.1794042803,598129.5299543971,332801.33157992334,296455.73510044336,3.8983738309930444e-06,0.0,0.0,0.0,3.8983738309930444e-06,0.0,22.704525922473103,2.124970282315356,0.029645573510044335,0.0
13283,5.172413793103448,10.0,2.857142857142857,0,638788.0192829986,762480.4813422204,490376.0765723657,32694.72907306347,474777.8389718634,4.258586795219991e-06,0.0,0.0,0.0,4.258586795219991e-06,0.0,23.836842405907735,2.422557694826504,0.025450511360908076,0.0
13284,5.172413793103448,10.0,3.2142857142857144,0,271310.27013681695,440898.6673851619,494302.6687928562,200261.42264055676,29231.187844837455,1.8087351342454463e-06,0.0,0.0,0.0,1.8087351342454463e-06,0.0,23.124280609567567,2.71214366750607,0.0011545587952541817,0.0
13285,5.172413793103448,10.0,3.5714285714285716,0,26881.061606929583,266995.87601260986,280124.0065399048,249201.56253794074,7962.558668118676,1.7920707737953054e-07,0.0,0.0,0.0,1.7920707737953054e-07,0.0,23.64619191636012,3.001569038114603,0.000280343461620226,0.0
13286,5.172413793103448,10.0,3.928571428571429,0,101339.18374008541,258910.52713768728,293539.47804293956,179424.91488111755,-17354.14299175291,6.755945582672361e-07,0.0,0.0,0.0,6.755945582672361e-07,0.0,23.999045724852092,3.2957779837018664,-0.0005883624956711784,0.0
13287,5.172413793103448,10.0,4.285714285714286,0,166409.19355640537,258317.6778716419,69652.96491126355,132422.0632773619,-18769.392474126143,1.1093946237093691e-06,0.0,0.0,0.0,1.1093946237093691e-06,0.0,23.7248546451986,3.594917033643023,-0.0006288993311011792,0.0
13288,5.172413793103448,10.0,4.642857142857143,0,194664.15636862887,337138.3051849047,224880.0075353744,112359.54998250201,-34954.20869463365,1.2977610424575257e-06,0.0,0.0,0.0,1.2977610424575257e-06,0.0,22.71006708987397,3.8969349816318726,-0.0011669823540694832,0.0
13289,5.172413793103448,10.0,5.0,0,175659.72545082748,279527.8636081779,120124.63023008565,91201.6823081877,-62558.27280134254,1.1710648363388498e-06,0.0,0.0,0.0,1.1710648363388498e-06,0.0,23.769123974238237,4.200096465338184,-0.0020862782333300155,0.0
13290,5.517241379310345,10.0,0.0,0,209018.76881048759,303548.8484176623,203317.4723736334,63290.84748951849,-20994.45230462956,1.3934584587365838e-06,0.0,0.0,0.0,1.3934584587365838e-06,0.0,23.98992272553386,-0.0499039923898561,-0.0007001515051881971,0.0
13291,5.517241379310345,10.0,0.35714285714285715,0,176661.77611880412,367706.1094869361,246649.59754845238,164986.525267986,15050.413154939117,1.1777451741253608e-06,0.0,0.0,0.0,1.1777451741253608e-06,0.0,23.468362604381127,0.2540754358582593,0.000502473585561833,0.0
13292,5.517241379310345,10.0,0.7142857142857143,0,271251.97635100345,288445.64594994823,307644.17835078953,27302.9742471956,-48335.00517659571,1.8083465090066896e-06,0.0,0.0,0.0,1.8083465090066896e-06,0.0,23.831153068104687,0.5591929737467328,-0.0016195437580751172,0.0
13293,5.517241379310345,10.0,1.0714285714285714,0,355216.3911555597,428268.72886624665,154983.58427594695,26739.186609805925,15479.781980456519,2.368109274370398e-06,0.0,0.0,0.0,2.368109274370398e-06,0.0,23.84430151506497,0.8671757493113467,0.0005248154958038166,0.0
13294,5.517241379310345,10.0,1.4285714285714286,0,62354.981644048465,268855.98255493096,209105.00314387522,204188.12184088578,85962.42212455499,4.1569987762698975e-07,0.0,0.0,0.0,4.1569987762698975e-07,0.0,22.572129945882466,1.1800652358841561,0.003026540084928599,0.0
13295,5.517241379310345,10.0,1.7857142857142858,0,230727.93005965004,488381.5089263823,342861.6190254166,222351.4189922034,67483.45356595174,1.538186200397667e-06,0.0,0.0,0.0,1.538186200397667e-06,0.0,24.212654297853298,1.4977155993718982,0.002665427599530724,0.0
13296,5.517241379310345,10.0,2.142857142857143,0,330502.1699603904,665582.3117572726,376827.02215480263,305109.84657972207,177720.0353378653,2.203347799735936e-06,0.0,0.0,0.0,2.203347799735936e-06,0.0,23.312394751350308,1.8152061228454521,0.009526699452152346,0.0
13297,5.517241379310345,10.0,2.5,0,571516.5433457631,1042239.2457398638,786275.6707744191,387481.27662392514,541836.7960407982,3.810110288971754e-06,0.0,0.0,0.0,3.810110288971754e-06,0.0,23.23470669902646,2.1247331733202994,0.05418367960407981,0.0
13298,5.517241379310345,10.0,2.857142857142857,0,161647.50631488505,411852.66667032836,511778.6481118619,598347.7597426319,352825.27027022676,1.0776500420992336e-06,0.0,0.0,0.0,1.0776500420992336e-06,0.0,23.254216512102495,2.422348979988309,0.01891323227906605,0.0
13299,5.517241379310345,10.0,3.2142857142857144,0,154530.141940433,358211.49605874735,364764.88542247826,207062.3037138067,118716.01063596044,1.0302009462695534e-06,0.0,0.0,0.0,1.0302009462695534e-06,0.0,24.221649849123235,2.7120013136576127,0.004688985440646204,0.0
13300,5.517241379310345,10.0,3.5714285714285716,0,162544.66694647435,343973.34195241384,289664.8645242808,161227.61660646653,11016.611157319378,1.0836311129764957e-06,0.0,0.0,0.0,1.0836311129764957e-06,0.0,24.347999335027996,3.0014938073127277,0.00038786965796970725,0.0
13301,5.517241379310345,10.0,3.928571428571429,0,173062.73968615086,396339.610550936,207401.64593145432,245500.9022194907,18477.283539055108,1.1537515979076724e-06,0.0,0.0,0.0,1.1537515979076724e-06,0.0,23.852082579789503,3.295747177882776,0.000626440652323123,0.0
13302,5.517241379310345,10.0,4.285714285714286,0,175404.64512550744,306863.29674308,157515.05932515638,113706.61595545265,24966.390961056957,1.1693643008367162e-06,0.0,0.0,0.0,1.1693643008367162e-06,0.0,23.380088447869184,3.5949072594610185,0.0008365399464614404,0.0
13303,5.517241379310345,10.0,4.642857142857143,0,15179.277683734712,213556.65585779725,201178.41604320167,218114.38922572366,17626.44473094918,1.0119518455823142e-07,0.0,0.0,0.0,1.0119518455823142e-07,0.0,25.079918031968884,3.8969325787154023,0.000588477059964361,0.0
13304,5.517241379310345,10.0,5.0,0,203557.30798681988,222549.05261191106,154721.30138202445,-6262.5519717493435,9315.211833004485,1.3570487199121326e-06,0.0,0.0,0.0,1.3570487199121326e-06,0.0,23.621129467394947,4.200096007610144,0.0003106563339395519,0.0
13305,5.862068965517242,10.0,0.0,0,277852.995787077,366765.6102905238,198304.41400938891,46065.33908700277,-17556.49483238403,1.85235330524718e-06,0.0,0.0,0.0,1.85235330524718e-06,0.0,23.224061174229476,-0.04990490142894272,-0.0005854978307775091,0.0
13306,5.862068965517242,10.0,0.35714285714285715,0,170833.52367137166,240721.94789557144,247212.81838474842,73226.36797333878,26234.024223494052,1.1388901578091443e-06,0.0,0.0,0.0,1.1388901578091443e-06,0.0,24.06742094621269,0.25407066371235354,0.0008758499902688129,0.0
13307,5.862068965517242,10.0,0.7142857142857143,0,89239.36670491188,223741.89767083232,128222.84262367713,142504.8080784953,-14771.259097505263,5.949291113660792e-07,0.0,0.0,0.0,5.949291113660792e-07,0.0,23.49926677591208,0.559173562409212,-0.0004949353037797655,0.0
13308,5.862068965517242,10.0,1.0714285714285714,0,223363.41795511937,368030.16748291976,111796.38396667867,214429.89644913393,74115.70607983685,1.489089453034129e-06,0.0,0.0,0.0,1.489089453034129e-06,0.0,24.60980769882933,0.8671145695469745,0.002512766076566693,0.0
13309,5.862068965517242,10.0,1.4285714285714286,0,263361.93175305583,396902.46348855254,234350.90829407502,93045.7994149728,-16973.32052006407,1.7557462116870388e-06,0.0,0.0,0.0,1.7557462116870388e-06,0.0,23.146121307151642,1.1799158289581873,-0.0005975917576389601,0.0
13310,5.862068965517242,10.0,1.7857142857142858,0,323995.7202548606,593428.0589229185,258423.48689881133,281696.1667764986,87771.87752290654,2.1599714683657373e-06,0.0,0.0,0.0,2.1599714683657373e-06,0.0,23.48363292004588,1.4974328873660738,0.003466769592394171,0.0
13311,5.862068965517242,10.0,2.142857142857143,0,88702.61300357372,567544.9313535762,494924.6560248424,593787.7733308374,174756.52417173696,5.91350753357158e-07,0.0,0.0,0.0,5.91350753357158e-07,0.0,24.345164038611404,1.8147916191900126,0.009367840153316797,0.0
13312,5.862068965517242,10.0,2.5,0,51195.432980862104,572964.5817230309,629934.51859593,587782.3603378176,436395.1391010114,3.413028865390807e-07,0.0,0.0,0.0,3.413028865390807e-07,0.0,23.827562443867265,2.124262279415303,0.04363951391010114,0.0
13313,5.862068965517242,10.0,2.857142857142857,0,513295.5943454237,719341.4195164685,190068.38671882005,223674.7974186116,222983.77838477088,3.4219706289694912e-06,0.0,0.0,0.0,3.4219706289694912e-06,0.0,23.440071554937564,2.42193447633287,0.011953066717202315,0.0
13314,5.862068965517242,10.0,3.2142857142857144,0,202213.7064917283,504619.61238391267,396294.32208267885,271321.24577052356,-14844.934021389847,1.3480913766115221e-06,0.0,0.0,0.0,1.3480913766115221e-06,0.0,23.131679453493152,2.7117186016517882,-0.0005863377578202205,0.0
13315,5.862068965517242,10.0,3.5714285714285716,0,200048.74704506187,354215.4900422636,153867.806668628,154467.02548690437,-14813.750007297069,1.3336583136337457e-06,0.0,0.0,0.0,1.3336583136337457e-06,0.0,23.02972022464053,3.001344400386759,-0.0005215582238973354,0.0
13316,5.862068965517242,10.0,3.928571428571429,0,253988.01876528366,368076.2680394868,197592.59703232854,76167.06182573397,10419.957003906933,1.6932534584352245e-06,0.0,0.0,0.0,1.6932534584352245e-06,0.0,22.95506813037212,3.2956859981184037,0.00035327079594299254,0.0
13317,5.862068965517242,10.0,4.285714285714286,0,40069.6317204833,180129.78846527077,156657.49293717058,133863.01815837753,-6818.243798768496,2.6713087813655536e-07,0.0,0.0,0.0,2.6713087813655536e-07,0.0,24.09306687894078,3.594887848123498,-0.00022845646017799031,0.0
13318,5.862068965517242,10.0,4.642857142857143,0,210336.49299976774,322128.4835246067,162064.51152821814,83900.15136444873,32790.886306048065,1.4022432866651182e-06,0.0,0.0,0.0,1.4022432866651182e-06,0.0,24.004715234045804,3.8969278065694968,0.0010947576020890327,0.0
13319,5.862068965517242,10.0,5.0,0,146725.69377072967,214540.0729849319,285474.0136546506,116760.23751079424,-25596.498806546413,9.781712918048644e-07,0.0,0.0,0.0,9.781712918048644e-07,0.0,23.877175041966403,4.200095098571057,-0.0008536268013526339,0.0
13320,6.206896551724139,10.0,0.0,0,237488.14190556656,304308.7082524221,198478.29555808884,32303.200071813175,18119.127775771296,1.5832542793704437e-06,0.0,0.0,0.0,1.5832542793704437e-06,0.0,22.977888404367484,-0.049906249384656744,0.0006042612782094859,0.0
13321,6.206896551724139,10.0,0.35714285714285715,0,219818.86126141564,235202.34166847199,228946.5446065014,12322.354367880076,-15400.371547322115,1.4654590750761043e-06,0.0,0.0,0.0,1.4654590750761043e-06,0.0,23.38960423549189,0.25406358740349455,-0.0005141573078894444,0.0
13322,6.206896551724139,10.0,0.7142857142857143,0,117489.95302650111,218275.66913470282,190374.17528095518,89346.58058334565,29443.46838495432,7.832663535100074e-07,0.0,0.0,0.0,7.832663535100074e-07,0.0,23.702934676992793,0.5591447785827378,0.0009865517809445558,0.0
13323,6.206896551724139,10.0,1.0714285714285714,0,104810.15516928703,235843.26400170903,221333.92139533386,124534.38634693688,21214.081616362913,6.987343677952469e-07,0.0,0.0,0.0,6.987343677952469e-07,0.0,24.174950741298293,0.8670238500012687,0.0007192271038164707,0.0
13324,6.206896551724139,10.0,1.4285714285714286,0,179858.322577619,221901.32794764327,244562.7828503542,54447.65997617624,35544.75567050797,1.1990554838507932e-06,0.0,0.0,0.0,1.1990554838507932e-06,0.0,23.729847598497678,1.179694283017494,0.0012514494727697554,0.0
13325,6.206896551724139,10.0,1.7857142857142858,0,194733.8686473223,450766.5906390073,335761.78064322984,225927.1011179056,39885.84277243688,1.2982257909821485e-06,0.0,0.0,0.0,1.2982257909821485e-06,0.0,23.62002981860468,1.497013671878776,0.0015753910112542853,0.0
13326,6.206896551724139,10.0,2.142857142857143,0,317623.739098535,560119.0067110084,610446.2299891341,270663.45557264367,337938.00439541,2.117491593990233e-06,0.0,0.0,0.0,2.117491593990233e-06,0.0,23.0946711267966,1.8141769783246733,0.01811519897131864,0.0
13327,6.206896551724139,10.0,2.5,0,432375.86967046314,902093.9574039442,570055.5594443105,413178.8473574351,320380.6418917505,2.8825057978030877e-06,0.0,0.0,0.0,2.8825057978030877e-06,0.0,24.01438308611522,2.1235640210683577,0.03203806418917505,0.0
13328,6.206896551724139,10.0,2.857142857142857,0,366999.38223343884,747305.0705197589,766529.7648843011,390295.8759117689,279434.75158169394,2.4466625482229254e-06,0.0,0.0,0.0,2.4466625482229254e-06,0.0,23.429112611898358,2.4213198354675303,0.01497912652191816,0.0
13329,6.206896551724139,10.0,3.2142857142857144,0,263751.80753210944,598123.2526799254,398906.2505423878,299016.742796647,53282.14362192291,1.7583453835473963e-06,0.0,0.0,0.0,1.7583453835473963e-06,0.0,22.868142345584353,2.7112993861644905,0.0021045113826789704,0.0
13330,6.206896551724139,10.0,3.5714285714285716,0,180555.46797864427,335020.99152430164,147363.98744233607,162522.8407538177,29956.733899968483,1.2037031198576285e-06,0.0,0.0,0.0,1.2037031198576285e-06,0.0,23.135475656201372,3.0011228544460655,0.0010547080191670834,0.0
13331,6.206896551724139,10.0,3.928571428571429,0,178212.85410818923,296579.9109169687,178541.22860138022,91581.20999456111,-1862.2057893751958,1.188085694054595e-06,0.0,0.0,0.0,1.188085694054595e-06,0.0,23.92425704711458,3.295595278572698,-6.313489788638864e-05,0.0
13332,6.206896551724139,10.0,4.285714285714286,0,191296.32898762802,333725.9093438881,203208.66922578387,114135.75327191463,-25652.439563576252,1.2753088599175202e-06,0.0,0.0,0.0,1.2753088599175202e-06,0.0,23.945244940673728,3.5948590642970237,-0.0008595271319988546,0.0
13333,6.206896551724139,10.0,4.642857142857143,0,41952.8388385746,227265.00174848837,184235.57552011908,225021.8232244293,-28375.926257737952,2.79685592257164e-07,0.0,0.0,0.0,2.79685592257164e-07,0.0,22.2514308086796,3.896920730260638,-0.0009473596015990189,0.0
13334,6.206896551724139,10.0,5.0,0,54207.91128961215,182496.91087724475,217581.90422386082,155147.53659618745,-306.8575444452694,3.6138607526408104e-07,0.0,0.0,0.0,3.6138607526408104e-07,0.0,23.550920844066443,4.200093750615343,-1.0233502093995226e-05,0.0
13335,6.551724137931035,10.0,0.0,0,138586.2932692932,258401.41392105405,213525.98232762967,102938.10881311024,-6462.810979274886,9.23908621795288e-07,0.0,0.0,0.0,9.23908621795288e-07,0.0,22.857928977311328,-0.04990801869620095,-0.00021553059680858196,0.0
13336,6.551724137931035,10.0,0.35714285714285715,0,79639.79991391023,177800.54433208265,106381.77434305135,91921.27593857913,21295.2617279317,5.309319994260682e-07,0.0,0.0,0.0,5.309319994260682e-07,0.0,23.706836416281003,0.2540542991198927,0.0007109643041526724,0.0
13337,6.551724137931035,10.0,0.7142857142857143,0,261926.9886348044,371654.7927761282,238385.43112548016,69892.05044129712,23782.858792899937,1.7461799242320293e-06,0.0,0.0,0.0,1.7461799242320293e-06,0.0,23.80792403189772,0.5591069972551037,0.0007968837567410359,0.0
13338,6.551724137931035,10.0,1.0714285714285714,0,253109.1156777738,331611.70111801993,154270.11579572127,41752.69800279087,1393.0237306117187,1.687394104518492e-06,0.0,0.0,0.0,1.687394104518492e-06,0.0,22.981419818780466,0.8669047725435793,4.722808375276038e-05,0.0
13339,6.551724137931035,10.0,1.4285714285714286,0,234020.76633316983,427661.08573781804,173363.02834152596,221359.7192440125,4518.016647957688,1.5601384422211321e-06,0.0,0.0,0.0,1.5601384422211321e-06,0.0,23.528094252788122,1.179403484301805,0.0001590690228528676,0.0
13340,6.551724137931035,10.0,1.7857142857142858,0,205299.97892088853,432907.84449810203,248064.36055838253,211945.26785424745,90557.97909203947,1.368666526139257e-06,0.0,0.0,0.0,1.368666526139257e-06,0.0,23.945937573413243,1.4964634143343525,0.003576813634674923,0.0
13341,6.551724137931035,10.0,2.142857142857143,0,549105.9032506766,703239.2728996634,545882.3467217243,92633.7552979399,223408.70989535982,3.660706021671177e-06,0.0,0.0,0.0,3.660706021671177e-06,0.0,24.044446946282914,1.8133702076219869,0.01197584521137397,0.0
13342,6.551724137931035,10.0,2.5,0,344188.491958486,676873.8470406217,481945.9275203678,279463.1459408265,414861.4624442347,2.2945899463899064e-06,0.0,0.0,0.0,2.2945899463899064e-06,0.0,23.11467710403252,2.1226474949976244,0.04148614624442347,0.0
13343,6.551724137931035,10.0,2.857142857142857,0,361632.3028318489,745347.0696251496,359368.60318667686,414360.0464387559,155131.80151187076,2.4108820188789926e-06,0.0,0.0,0.0,2.4108820188789926e-06,0.0,24.08157642025012,2.420513064764844,0.008315855022563476,0.0
13344,6.551724137931035,10.0,3.2142857142857144,0,168880.68536794692,323622.3585589183,263043.1917366934,132807.67025548295,82603.26471331142,1.1258712357863128e-06,0.0,0.0,0.0,1.1258712357863128e-06,0.0,23.675789665821206,2.710749128620067,0.003262622316195287,0.0
13345,6.551724137931035,10.0,3.5714285714285716,0,66092.02610124329,146667.630553383,101800.17112503381,70770.46260800686,1071.140574796496,4.4061350734162193e-07,0.0,0.0,0.0,4.4061350734162193e-07,0.0,23.30482463047904,3.0008320557303767,3.77124074228363e-05,0.0
13346,6.551724137931035,10.0,3.928571428571429,0,88449.10019087607,216226.47064784364,136530.0640867065,121064.56734181046,29364.07676399679,5.896606679391738e-07,0.0,0.0,0.0,5.896606679391738e-07,0.0,23.511019450457137,3.2954762011150085,0.0009955387307892707,0.0
13347,6.551724137931035,10.0,4.285714285714286,0,56770.52358013719,176730.76325323858,112704.79201345211,132535.8811198939,-30087.472748398664,3.784701572009146e-07,0.0,0.0,0.0,3.784701572009146e-07,0.0,23.9611403328685,3.5948212829693893,-0.0010081302051772368,0.0
13348,6.551724137931035,10.0,4.642857142857143,0,215489.9325837924,321962.7874081956,160577.18624556725,77251.91816369977,-12211.973878192326,1.436599550558616e-06,0.0,0.0,0.0,1.436599550558616e-06,0.0,23.957315727081095,3.896911441977036,-0.0004077093590848712,0.0
13349,6.551724137931035,10.0,5.0,0,233056.49096747438,338682.46827785316,206925.7626196846,69591.28153404657,23506.031208843913,1.5537099397831626e-06,0.0,0.0,0.0,1.5537099397831626e-06,0.0,24.024268103657594,4.2000919813038,0.0007839110491224217,0.0
13350,6.8965517241379315,10.0,0.0,0,68603.48289502865,173652.91892802302,195705.72761579757,118787.7981183384,7873.610939681499,4.573565526335243e-07,0.0,0.0,0.0,4.573565526335243e-07,0.0,23.135850844782205,-0.04991018770100537,0.0002625798697053234,0.0
13351,6.8965517241379315,10.0,0.35714285714285715,0,233480.57623753976,303800.25244640105,229683.29977465802,42257.50611549274,-28564.126651517894,1.5565371749169318e-06,0.0,0.0,0.0,1.5565371749169318e-06,0.0,23.588961511453356,0.25404291258266964,-0.0009536428660976896,0.0
13352,6.8965517241379315,10.0,0.7142857142857143,0,192556.1525635233,288284.54949911986,219625.3778831162,70809.36449523242,22347.723790408552,1.283707683756822e-06,0.0,0.0,0.0,1.283707683756822e-06,0.0,23.36166844347067,0.5590606810020822,0.0007487972006976848,0.0
13353,6.8965517241379315,10.0,1.0714285714285714,0,68851.38112381112,171187.42933295446,148289.73018129324,93804.64150961504,-32398.366416159042,4.5900920749207417e-07,0.0,0.0,0.0,4.5900920749207417e-07,0.0,23.592328627649287,0.8667587950990354,-0.0010984111246138354,0.0
13354,6.8965517241379315,10.0,1.4285714285714286,0,94387.9207320879,267344.1670067664,204090.6318500454,158851.78749589084,27654.042519199837,6.29252804880586e-07,0.0,0.0,0.0,6.29252804880586e-07,0.0,23.237567804777733,1.179046993205869,0.0009736355273168897,0.0
13355,6.8965517241379315,10.0,1.7857142857142858,0,208579.82790056925,367189.75054696435,288067.2004010143,130625.2746095559,3062.1043738016233,1.390532186003795e-06,0.0,0.0,0.0,1.390532186003795e-06,0.0,24.2894920213175,1.4957888518123204,0.00012094546261770712,0.0
13356,6.8965517241379315,10.0,2.142857142857143,0,484351.3665782422,707507.5239034849,166038.820516736,315509.0854172126,306678.27471183817,3.229009110521615e-06,0.0,0.0,0.0,3.229009110521615e-06,0.0,23.491472727903222,1.8123811847809177,0.016439518178858973,0.0
13357,6.8965517241379315,10.0,2.5,0,187774.68370565385,546176.5468151643,330603.6478414716,458529.0089626868,426002.22538652224,1.251831224704359e-06,0.0,0.0,0.0,1.251831224704359e-06,0.0,23.435739680118473,2.1215239226921696,0.04260022253865222,0.0
13358,6.8965517241379315,10.0,2.857142857142857,0,363618.4619115477,603268.4879642413,410216.0122626605,183839.10354773904,253293.6412183402,2.4241230794103178e-06,0.0,0.0,0.0,2.4241230794103178e-06,0.0,23.73209097784514,2.4195240419237747,0.013577829806532262,0.0
13359,6.8965517241379315,10.0,3.2142857142857144,0,136438.21194880552,358402.5592231753,276408.0502574173,433908.7856084032,40389.23526509434,9.095880796587034e-07,0.0,0.0,0.0,9.095880796587034e-07,0.0,24.069239898937337,2.7100745660980348,0.0015952737554297066,0.0
13360,6.8965517241379315,10.0,3.5714285714285716,0,106179.90183526956,317429.66630591755,232697.1698627977,198320.50578208055,6187.41530990625,7.078660122351304e-07,0.0,0.0,0.0,7.078660122351304e-07,0.0,23.542049730723914,3.0004755646344408,0.00021784472790213526,0.0
13361,6.8965517241379315,10.0,3.928571428571429,0,110671.81320132347,238708.97046629761,197808.00227629373,113408.19625196003,2230.021611511332,7.378120880088232e-07,0.0,0.0,0.0,7.378120880088232e-07,0.0,23.36803811210519,3.2953302236704647,7.560506337725763e-05,0.0
13362,6.8965517241379315,10.0,4.285714285714286,0,130404.84146093168,216272.29366477372,83767.49855029158,88074.09616756451,17094.46205912687,8.693656097395445e-07,0.0,0.0,0.0,8.693656097395445e-07,0.0,23.974014389232043,3.594774966716368,0.0005727780358016036,0.0
13363,6.8965517241379315,10.0,4.642857142857143,0,146394.87691119517,231129.5995277736,194040.98636452222,69757.47329582907,-1520.2040283388742,9.759658460746344e-07,0.0,0.0,0.0,9.759658460746344e-07,0.0,24.404463261190003,3.8969000554398128,-5.0753581382867135e-05,0.0
13364,6.8965517241379315,10.0,5.0,0,162504.81949960947,339673.41768402414,177588.2151872157,176752.20684021272,35297.34765096381,1.0833654633307298e-06,0.0,0.0,0.0,1.0833654633307298e-06,0.0,24.248814076719178,4.2000898122989945,0.0011771438820303843,0.0
13365,7.241379310344828,10.0,0.0,0,104276.3761981982,219283.56568209676,197287.40418491964,105763.83213483969,-17610.674912313403,6.951758413213213e-07,0.0,0.0,0.0,6.951758413213213e-07,0.0,22.942462316348234,-0.04991273181431152,-0.0005873047016576511,0.0
13366,7.241379310344828,10.0,0.35714285714285715,0,178931.7857093829,189460.03194753407,218550.04814115743,26855.633735604257,20593.708301382176,1.192878571395886e-06,0.0,0.0,0.0,1.192878571395886e-06,0.0,23.825646840141154,0.25402955685344253,0.0006875422185213657,0.0
13367,7.241379310344828,10.0,0.7142857142857143,0,221098.2630068085,268051.53955708013,161169.71330841948,13820.566126117114,13545.919626696603,1.47398842004539e-06,0.0,0.0,0.0,1.47398842004539e-06,0.0,23.408874305350047,0.5590063547989481,0.00045387829169875424,0.0
13368,7.241379310344828,10.0,1.0714285714285714,0,133065.22100231217,240206.2443721518,234721.65514041667,104483.5282608117,30661.122118611762,8.871014733487478e-07,0.0,0.0,0.0,8.871014733487478e-07,0.0,24.085541122090397,0.8665875722606593,0.001039512832086156,0.0
13369,7.241379310344828,10.0,1.4285714285714286,0,73599.43615594575,206048.49279766608,150054.450248584,122685.62102182937,7087.7659967551845,4.90662907706305e-07,0.0,0.0,0.0,4.90662907706305e-07,0.0,24.370080952920535,1.1786288504065299,0.00024954401436817964,0.0
13370,7.241379310344828,10.0,1.7857142857142858,0,457861.6064210986,595423.7705649234,210311.69330401672,89173.98543105146,56927.8325988597,3.0524107094739907e-06,0.0,0.0,0.0,3.0524107094739907e-06,0.0,22.271377492507945,1.4949976301955474,0.0022485069772277223,0.0
13371,7.241379310344828,10.0,2.142857142857143,0,470055.3102126197,566956.380336666,479275.3887519005,59234.40458941766,249453.9079892024,3.1337020680841316e-06,0.0,0.0,0.0,3.1337020680841316e-06,0.0,23.46963537828093,1.811221119959975,0.013372000540400868,0.0
13372,7.241379310344828,10.0,2.5,0,581475.1943368982,663448.0803921074,449448.6126336627,5298.119733960153,326840.0285272661,3.876501295579321e-06,0.0,0.0,0.0,3.876501295579321e-06,0.0,23.2393130190706,2.12020603937217,0.032684002852726615,0.0
13373,7.241379310344828,10.0,2.857142857142857,0,419675.05667487835,629454.18428454,458885.83570109395,151350.73597332672,254073.1987595656,2.7978337111658555e-06,0.0,0.0,0.0,2.7978337111658555e-06,0.0,23.11693847202521,2.418363977102832,0.013619618062914242,0.0
13374,7.241379310344828,10.0,3.2142857142857144,0,378817.34488598595,554141.399969658,452278.7503220025,134807.33188577084,177983.91220116446,2.525448965906573e-06,0.0,0.0,0.0,2.525448965906573e-06,0.0,23.01554034154009,2.709283344481262,0.007029919288137816,0.0
13375,7.241379310344828,10.0,3.5714285714285716,0,59840.723576077224,190844.66265898614,223793.90346230974,154720.1115275151,49859.25087128007,3.9893815717384815e-07,0.0,0.0,0.0,3.9893815717384815e-07,0.0,23.25836738449518,3.0000574218351015,0.0017554300778983723,0.0
13376,7.241379310344828,10.0,3.928571428571429,0,146070.7034803455,260955.6643417237,183607.70779356617,92475.59750238823,-19128.427578121296,9.7380468986897e-07,0.0,0.0,0.0,9.7380468986897e-07,0.0,23.341823231249947,3.2951590008320886,-0.0006485165757523846,0.0
13377,7.241379310344828,10.0,4.285714285714286,0,204345.45675818124,340248.3777587057,126299.43904649443,147097.02974220438,-43216.66963838757,1.3623030450545417e-06,0.0,0.0,0.0,1.3623030450545417e-06,0.0,23.315922753571407,3.5947206405132337,-0.0014480455169483563,0.0
13378,7.241379310344828,10.0,4.642857142857143,0,143954.0913449702,245438.33808286645,86141.02875763866,124667.23400070747,1248.682778234986,9.596939422998013e-07,0.0,0.0,0.0,9.596939422998013e-07,0.0,22.48499695225483,3.8968866997105858,4.1688564051355615e-05,0.0
13379,7.241379310344828,10.0,5.0,0,53660.31960194202,180124.65865390075,163990.3427241583,120248.30472063019,25916.516606753496,3.5773546401294683e-07,0.0,0.0,0.0,3.5773546401294683e-07,0.0,23.56476854280534,4.200087268185689,0.000864299189526942,0.0
13380,7.586206896551724,10.0,0.0,0,72936.29235497677,212545.62126722882,221532.67679389057,144519.30783374538,-937.3810661045763,4.862419490331785e-07,0.0,0.0,0.0,4.862419490331785e-07,0.0,23.919310598584687,-0.04991562469392928,-3.1261056723223555e-05,0.0
13381,7.586206896551724,10.0,0.35714285714285715,0,193447.20637444578,252628.801986879,154145.4719839431,29756.50334685337,45830.28276454908,1.2896480424963053e-06,0.0,0.0,0.0,1.2896480424963053e-06,0.0,23.11746077012632,0.25401437021974665,0.0015300913184870513,0.0
13382,7.586206896551724,10.0,0.7142857142857143,0,205156.75091417157,308140.10111444845,189896.4278500898,71245.60700825504,-18985.167874107203,1.3677116727611438e-06,0.0,0.0,0.0,1.3677116727611438e-06,0.0,22.580224334960025,0.558944581148625,-0.000636129240375187,0.0
13383,7.586206896551724,10.0,1.0714285714285714,0,22803.69739099112,233713.24261645917,247043.68603104033,220712.9342399233,5801.421546917446,1.5202464927327415e-07,0.0,0.0,0.0,1.5202464927327415e-07,0.0,23.453504968887085,0.8663928768993978,0.00019668726144569593,0.0
13384,7.586206896551724,10.0,1.4285714285714286,0,310655.0675242726,339547.15271042293,285635.0380941668,5464.600449949314,497.5225695485283,2.0710337834951505e-06,0.0,0.0,0.0,2.0710337834951505e-06,0.0,23.94093299309413,1.1781533854268094,1.7516630670474987e-05,0.0
13385,7.586206896551724,10.0,1.7857142857142858,0,172690.27256825822,297567.1631764821,327968.46057647734,142096.34068988363,74494.69899093255,1.1512684837883882e-06,0.0,0.0,0.0,1.1512684837883882e-06,0.0,23.49381223257851,1.4940979419297968,0.00294235425451532,0.0
13386,7.586206896551724,10.0,2.142857142857143,0,141157.65646312578,439842.137920446,453920.03438842186,306250.9201108729,282704.20312019147,9.410510430875052e-07,0.0,0.0,0.0,9.410510430875052e-07,0.0,23.056506522998845,1.8099020246713888,0.015154385783607078,0.0
13387,7.586206896551724,10.0,2.5,0,555975.1160444649,657364.7218912455,288338.11504487693,17908.727307682224,506327.1253929707,3.7065007736297658e-06,0.0,0.0,0.0,3.7065007736297658e-06,0.0,22.900171305309662,2.11870749062995,0.05063271253929707,0.0
13388,7.586206896551724,10.0,2.857142857142857,0,568849.8484166849,796257.6115490414,354938.51564760075,154268.9265353395,225572.91347049174,3.792332322777899e-06,0.0,0.0,0.0,3.792332322777899e-06,0.0,23.782522445625307,2.417044881814246,0.012091857550525033,0.0
13389,7.586206896551724,10.0,3.2142857142857144,0,134286.8330184298,423137.92754265567,268735.0570933888,333576.5279212356,96465.11985629954,8.952455534561987e-07,0.0,0.0,0.0,8.952455534561987e-07,0.0,23.318273713561283,2.7083836562155112,0.0038101309175846377,0.0
13390,7.586206896551724,10.0,3.5714285714285716,0,169594.4718980126,308262.8570016573,154292.42966862777,126482.05407429155,13714.460331687806,1.1306298126534173e-06,0.0,0.0,0.0,1.1306298126534173e-06,0.0,23.179434580791753,2.9995819568553808,0.0004828547510780274,0.0
13391,7.586206896551724,10.0,3.928571428571429,0,168484.47325337245,264674.1013491251,187969.59781608084,71485.38074926166,34252.88455179692,1.1232298216891496e-06,0.0,0.0,0.0,1.1232298216891496e-06,0.0,23.14011380567708,3.294964305470827,0.0011612853857669151,0.0
13392,7.586206896551724,10.0,4.285714285714286,0,175271.58611498226,297354.3313879759,263401.9060889975,107590.52221749908,36499.63467054072,1.1684772407665484e-06,0.0,0.0,0.0,1.1684772407665484e-06,0.0,23.55843973222006,3.5946588668629107,0.0012229802249264956,0.0
13393,7.586206896551724,10.0,4.642857142857143,0,161318.7378628085,212984.38770093652,243452.98603636603,69072.57924344033,444.1224878081001,1.0754582524187234e-06,0.0,0.0,0.0,1.0754582524187234e-06,0.0,23.51166624927049,3.89687151307689,1.4827487895529488e-05,0.0
13394,7.586206896551724,10.0,5.0,0,95090.1585474887,275930.98958441574,181610.5303193573,180089.38285953348,-16345.019385180827,6.339343903165913e-07,0.0,0.0,0.0,6.339343903165913e-07,0.0,23.485085400161285,4.200084375306071,-0.0005450959024228064,0.0
13395,7.931034482758621,10.0,0.0,0,161973.13746017456,209929.56964803243,215484.40128768832,50805.30189791132,5128.037106285159,1.0798209164011638e-06,0.0,0.0,0.0,1.0798209164011638e-06,0.0,22.861642278062128,-0.04991883929012872,0.00017101674511579178,0.0
13396,7.931034482758621,10.0,0.35714285714285715,0,251140.40312085685,351701.6911430185,139577.04319182129,74397.28011405568,24946.15633155131,1.6742693541390458e-06,0.0,0.0,0.0,1.6742693541390458e-06,0.0,22.83612476571967,0.25399749468346045,0.0008328531907303188,0.0
13397,7.931034482758621,10.0,0.7142857142857143,0,208539.50708623658,212182.02031848158,250806.8093064582,25655.10789443677,-38017.07742702078,1.3902633805749105e-06,0.0,0.0,0.0,1.3902633805749105e-06,0.0,23.028189745381752,0.5588759376626208,-0.0012738246374907373,0.0
13398,7.931034482758621,10.0,1.0714285714285714,0,119992.68831408385,214334.04995160198,100880.4811836951,88727.21730104058,-12712.012484110295,7.999512554272257e-07,0.0,0.0,0.0,7.999512554272257e-07,0.0,23.50332608696034,0.8661765295047404,-0.0004309790113927626,0.0
13399,7.931034482758621,10.0,1.4285714285714286,0,199972.90531644845,335705.5702700833,266936.78076502075,110422.50330318708,24447.338329929495,1.3331527021096564e-06,0.0,0.0,0.0,1.3331527021096564e-06,0.0,23.637763412009082,1.1776250440788345,0.0008607348140811365,0.0
13400,7.931034482758621,10.0,1.7857142857142858,0,141927.8317986115,440176.04459287424,346227.5837255323,276910.04977088515,-66485.61134384698,9.461855453240766e-07,0.0,0.0,0.0,9.461855453240766e-07,0.0,24.101040552548803,1.4930981995063628,-0.002626015327955503,0.0
13401,7.931034482758621,10.0,2.142857142857143,0,485809.2708560405,683882.8699848024,352303.87761870184,126236.0317551998,175722.3495594961,3.2387284723736033e-06,0.0,0.0,0.0,3.2387284723736033e-06,0.0,22.95413330292555,1.808436233051387,0.00941961331538571,0.0
13402,7.931034482758621,10.0,2.5,0,368914.058522387,789634.4487828894,497168.42279705143,375175.2247133914,389504.4134144213,2.4594270568159134e-06,0.0,0.0,0.0,2.4594270568159134e-06,0.0,23.739986479758358,2.1170422885725118,0.03895044134144213,0.0
13403,7.931034482758621,10.0,2.857142857142857,0,218333.13273376497,501931.27191809984,303724.21228018723,267902.4739630025,236748.02864388452,1.4555542182250999e-06,0.0,0.0,0.0,1.4555542182250999e-06,0.0,22.522061865193095,2.4155790901942438,0.012690900665712943,0.0
13404,7.931034482758621,10.0,3.2142857142857144,0,495142.1339117525,573063.6647901417,208690.25787662278,9314.714740037854,31695.598136548833,3.3009475594116833e-06,0.0,0.0,0.0,3.3009475594116833e-06,0.0,23.56176425057337,2.707383913792077,0.0012518968368183327,0.0
13405,7.931034482758621,10.0,3.5714285714285716,0,262328.3988857261,356506.7857425007,115474.22222810723,77107.94875595057,-5359.437792287696,1.7488559925715074e-06,0.0,0.0,0.0,1.7488559925715074e-06,0.0,22.63520942946053,2.999053615507406,-0.0001886935350371727,0.0
13406,7.931034482758621,10.0,3.928571428571429,0,232281.63693330277,331002.5150055236,222136.96369288108,64282.251118123364,-34477.06905489005,1.5485442462220184e-06,0.0,0.0,0.0,1.5485442462220184e-06,0.0,22.78343195378895,3.2947479580761696,-0.0011688859773831858,0.0
13407,7.931034482758621,10.0,4.285714285714286,0,46876.7130961026,225927.65414775634,237733.94778019117,186082.7430413377,44711.52806949357,3.1251142064068397e-07,0.0,0.0,0.0,3.1251142064068397e-07,0.0,23.777375500035237,3.5945902233769065,0.001498133204587127,0.0
13408,7.931034482758621,10.0,4.642857142857143,0,182745.07758237427,272794.8033329545,67395.97042255983,128211.5838045665,-15307.283213064753,1.2183005172158286e-06,0.0,0.0,0.0,1.2183005172158286e-06,0.0,23.48205738883911,3.8968546375406037,-0.0005110494577190373,0.0
13409,7.931034482758621,10.0,5.0,0,157382.35685822897,261705.5929608578,268802.2641962078,107991.61842990262,-47911.946428416835,1.0492157123881932e-06,0.0,0.0,0.0,1.0492157123881932e-06,0.0,23.25185222026851,4.200081160709871,-0.0015978326522457101,0.0
13410,8.275862068965518,10.0,0.0,0,398891.46115695644,327569.2608527491,186448.82410789237,-122698.95655793673,30342.168611730198,2.659276407713043e-06,0.0,0.0,0.0,2.659276407713043e-06,0.0,22.59512549821464,-0.04992234871934774,0.0010118918424698487,0.0
13411,8.275862068965518,10.0,0.35714285714285715,0,283218.03811219713,329358.1115906697,202624.77550451475,4904.382865762904,-20719.99660570931,1.8881202540813143e-06,0.0,0.0,0.0,1.8881202540813143e-06,0.0,23.48141350932351,0.25397907137413783,-0.0006917584839777699,0.0
13412,8.275862068965518,10.0,0.7142857142857143,0,154467.0846159117,278533.2234274596,108751.17731621896,146306.9825794846,-32502.07365417654,1.029780564106078e-06,0.0,0.0,0.0,1.029780564106078e-06,0.0,23.344872665050598,0.5588009984041468,-0.0010890353754758142,0.0
13413,8.275862068965518,10.0,1.0714285714285714,0,99150.22926753157,192413.46003929013,266392.5171523387,153732.0410974363,18909.973469929835,6.610015284502104e-07,0.0,0.0,0.0,6.610015284502104e-07,0.0,23.66803653087576,0.8659403393828203,0.0006411102633607999,0.0
13414,8.275862068965518,10.0,1.4285714285714286,0,307770.445185027,435365.628047403,237616.82110021182,80768.3199629541,-12623.434483049967,2.0518029679001803e-06,0.0,0.0,0.0,2.0518029679001803e-06,0.0,22.44274851150248,1.1770482448638897,-0.00044444222868759043,0.0
13415,8.275862068965518,10.0,1.7857142857142858,0,291680.6116371142,511089.23586386134,426720.57604264305,186523.91131129736,56198.49171812785,1.944537410914095e-06,0.0,0.0,0.0,1.944537410914095e-06,0.0,23.625857466893564,1.4920067637381913,0.002219699836954902,0.0
13416,8.275862068965518,10.0,2.142857142857143,0,356405.72107751115,598528.5563060914,643408.4042092307,266688.3827981453,213843.48369924325,2.376038140516741e-06,0.0,0.0,0.0,2.376038140516741e-06,0.0,23.049423070511327,1.8068360034669901,0.01146310034842693,0.0
13417,8.275862068965518,10.0,2.5,0,479884.0150187601,867005.4111571516,775331.4742698994,347897.2891004834,425526.7023672805,3.199226766791734e-06,0.0,0.0,0.0,3.199226766791734e-06,0.0,23.47082625094261,2.1152243592297943,0.042552670236728055,0.0
13418,8.275862068965518,10.0,2.857142857142857,0,223252.4397814278,475504.99929373997,388662.39794503426,221880.40699053946,189378.10426093038,1.488349598542852e-06,0.0,0.0,0.0,1.488349598542852e-06,0.0,23.298645653080964,2.413978860609847,0.010151631349174399,0.0
13419,8.275862068965518,10.0,3.2142857142857144,0,278717.48067583074,557025.3369137234,302830.99123267335,258982.67567961957,-7388.968562416769,1.8581165378388716e-06,0.0,0.0,0.0,1.8581165378388716e-06,0.0,22.90910882950469,2.706292478023906,-0.00029184577400270085,0.0
13420,8.275862068965518,10.0,3.5714285714285716,0,36221.90421316172,226606.15540787,185476.15812793278,199463.25150545427,115501.23950963226,2.414793614210781e-07,0.0,0.0,0.0,2.414793614210781e-07,0.0,23.13352197716208,2.9984768162924613,0.004066534220363564,0.0
13421,8.275862068965518,10.0,3.928571428571429,0,196848.55490510789,264090.42673038685,242867.274303982,57490.23625848962,-22699.650491059132,1.312323699367386e-06,0.0,0.0,0.0,1.312323699367386e-06,0.0,22.90567882739152,3.2945117679542495,-0.0007695927721772225,0.0
13422,8.275862068965518,10.0,4.285714285714286,0,210686.89066504172,281290.2970514035,205579.92451892543,43210.435691537976,-39226.05498503027,1.404579271100278e-06,0.0,0.0,0.0,1.404579271100278e-06,0.0,23.08632621491087,3.5945152841184327,-0.0013143334168024077,0.0
13423,8.275862068965518,10.0,4.642857142857143,0,229531.9483187895,322867.00164891616,244289.66038234087,64365.839631979085,30220.066306451547,1.5302129887919301e-06,0.0,0.0,0.0,1.5302129887919301e-06,0.0,22.899135137099695,3.896836214231281,0.0010089281215470045,0.0
13424,8.275862068965518,10.0,5.0,0,151985.46633760873,272967.7461329704,246571.60454920572,109513.17877612158,7123.25597222442,1.0132364422507249e-06,0.0,0.0,0.0,1.0132364422507249e-06,0.0,23.55919908896106,4.200077651280653,0.00023755601329471034,0.0
13425,8.620689655172415,10.0,0.0,0,208704.66724359166,326109.56778817537,102592.98138727227,136326.34375133007,503.8544309201237,1.391364448290611e-06,0.0,0.0,0.0,1.391364448290611e-06,0.0,22.80626675768528,-0.0499261269373935,1.6803221779054253e-05,0.0
13426,8.620689655172415,10.0,0.35714285714285715,0,123028.88722832054,287789.525186272,280781.91824909224,161406.60560595503,-14121.199055770536,8.201925815221369e-07,0.0,0.0,0.0,8.201925815221369e-07,0.0,23.519825427704486,0.25395923701492984,-0.000471450813272647,0.0
13427,8.620689655172415,10.0,0.7142857142857143,0,104213.34119263261,288474.9117226206,258456.0752883211,172546.85014915073,-11799.12725353877,6.947556079508841e-07,0.0,0.0,0.0,6.947556079508841e-07,0.0,24.878554415679574,0.5587203195127853,-0.000395349143428986,0.0
13428,8.620689655172415,10.0,1.0714285714285714,0,145476.92583166112,304242.99461997964,187301.27972868705,141335.4939970301,-8703.885336771264,9.69846172211074e-07,0.0,0.0,0.0,9.69846172211074e-07,0.0,23.121958902170125,0.8656860593488953,-0.00029509032518702604,0.0
13429,8.620689655172415,10.0,1.4285714285714286,0,157101.25161480816,334475.65691232437,267652.7680810185,155010.01226566656,43877.82318557086,1.0473416774320544e-06,0.0,0.0,0.0,1.0473416774320544e-06,0.0,22.464131490188876,1.1764272683270574,0.001544837702666433,0.0
13430,8.620689655172415,10.0,1.7857142857142858,0,30759.653017956007,329990.5716148851,336254.96532942995,363400.2234894956,40085.83420024484,2.0506435345304004e-07,0.0,0.0,0.0,2.0506435345304004e-07,0.0,24.311897107640714,1.4908317343936055,0.0015832901723549825,0.0
13431,8.620689655172415,10.0,2.142857142857143,0,320367.989691114,624405.1935057441,607344.7577261155,295847.8596288894,362659.4755172966,2.13578659794076e-06,0.0,0.0,0.0,2.13578659794076e-06,0.0,23.43911567473885,1.8051132115496138,0.019440395789705148,0.0
13432,8.620689655172415,10.0,2.5,0,421994.8558668153,910578.4086517707,543176.5883692491,449674.3505885003,496224.3900651857,2.813299039112102e-06,0.0,0.0,0.0,2.813299039112102e-06,0.0,23.204270872281455,2.113267193827696,0.04962243900651857,0.0
13433,8.620689655172415,10.0,2.857142857142857,0,317415.5330145255,701016.1373914657,587110.765737101,342365.265739267,263124.92544222216,2.11610355343017e-06,0.0,0.0,0.0,2.11610355343017e-06,0.0,23.08684233948266,2.412256068692471,0.014104836735444654,0.0
13434,8.620689655172415,10.0,3.2142857142857144,0,261267.9000378556,482441.89472996123,355274.50496011315,181935.729774059,1594.9005400236347,1.7417860002523707e-06,0.0,0.0,0.0,1.7417860002523707e-06,0.0,22.75323214006535,2.70511744867932,6.299458153443271e-05,0.0
13435,8.620689655172415,10.0,3.5714285714285716,0,171683.84717427767,325138.8871092451,213285.97237858255,127466.04537996584,78924.49423635344,1.1445589811618513e-06,0.0,0.0,0.0,1.1445589811618513e-06,0.0,23.114271332255395,2.997855839755629,0.0027787507562657154,0.0
13436,8.620689655172415,10.0,3.928571428571429,0,42261.55950313597,247463.73840527504,220765.53417436616,198738.88428692162,639.7487645493577,2.817437300209065e-07,0.0,0.0,0.0,2.817437300209065e-07,0.0,22.89833921784949,3.2942574879203246,2.1689586163470537e-05,0.0
13437,8.620689655172415,10.0,4.285714285714286,0,217642.74592064752,261710.22552356267,360402.1295164261,110898.00027865084,-31.42735827963563,1.4509516394709835e-06,0.0,0.0,0.0,1.4509516394709835e-06,0.0,22.90768432333934,3.5944346052270713,-1.0530252712007477e-06,0.0
13438,8.620689655172415,10.0,4.642857142857143,0,154067.4293814673,271659.29326893337,162912.36291362203,95354.07812460081,53799.406475877346,1.0271161958764486e-06,0.0,0.0,0.0,1.0271161958764486e-06,0.0,23.59070330365943,3.896816379872073,0.00179614874320983,0.0
13439,8.620689655172415,10.0,5.0,0,187675.70620362827,289660.3052920632,188088.99268956462,73089.7822472395,12052.132103198022,1.2511713746908552e-06,0.0,0.0,0.0,1.2511713746908552e-06,0.0,23.78813426191153,4.200073873062607,0.0004019308677521597,0.0
13440,8.965517241379311,10.0,0.0,0,177532.11702150473,343337.9691385621,180275.60379398323,154216.5855634462,16781.258175580013,1.1835474468100315e-06,0.0,0.0,0.0,1.1835474468100315e-06,0.0,23.06379926035154,-0.04993014921654327,0.0005596441860020887,0.0
13441,8.965517241379311,10.0,0.35714285714285715,0,184226.54649953145,306862.8822683529,186990.20405404363,94734.8016032526,1901.6147353715294,1.228176976663543e-06,0.0,0.0,0.0,1.228176976663543e-06,0.0,23.432416190682215,0.2539381214179671,6.348737171549188e-05,0.0
13442,8.965517241379311,10.0,0.7142857142857143,0,117261.98377846771,253605.9280477893,275670.2580309612,148943.4654784686,-24718.317355122286,7.817465585231181e-07,0.0,0.0,0.0,7.817465585231181e-07,0.0,24.233941520785457,0.5586344290166255,-0.0008282278327341987,0.0
13443,8.965517241379311,10.0,1.0714285714285714,0,119177.2850178504,237034.27712065246,277437.92677136406,143311.19648015825,40247.02010989577,7.94515233452336e-07,0.0,0.0,0.0,7.94515233452336e-07,0.0,22.770548100083282,0.8654153536177088,0.0013645062857001687,0.0
13444,8.965517241379311,10.0,1.4285714285714286,0,407650.965642983,581018.5142697969,267216.15994211135,120266.43353076687,-49351.75372706155,2.717673104286553e-06,0.0,0.0,0.0,2.717673104286553e-06,0.0,22.378697714920683,1.1757661786423577,-0.00173756226528906,0.0
13445,8.965517241379311,10.0,1.7857142857142858,0,398593.88731070753,423978.6135986121,495855.6156786778,66213.72446979243,4197.218918593411,2.6572925820713836e-06,0.0,0.0,0.0,2.6572925820713836e-06,0.0,23.61674446991065,1.4895808018174934,0.00016577964753919892,0.0
13446,8.965517241379311,10.0,2.142857142857143,0,555179.0685051288,727367.3428966168,696864.3424400087,157565.59848066425,243022.24071602838,3.701193790034192e-06,0.0,0.0,0.0,3.701193790034192e-06,0.0,22.838195565746048,1.8032791326466158,0.013027230402519187,0.0
13447,8.965517241379311,10.0,2.5,0,725881.8239540951,1053615.0668692368,637414.3188237161,215445.5495441832,574958.1632685745,4.839212159693967e-06,0.0,0.0,0.0,4.839212159693967e-06,0.0,22.9461252331216,2.1111836016437184,0.05749581632685745,0.0
13448,8.965517241379311,10.0,2.857142857142857,0,644324.1818530827,870115.7431188165,319121.3810359529,161654.8672537679,304797.7860776048,4.295494545687218e-06,0.0,0.0,0.0,4.295494545687218e-06,0.0,23.276074409042405,2.410421989789473,0.016338714406186568,0.0
13449,8.965517241379311,10.0,3.2142857142857144,0,293241.89320927294,604810.6228773884,474327.5608913688,268974.4950535788,-44330.65584638467,1.954945954728486e-06,0.0,0.0,0.0,1.954945954728486e-06,0.0,23.838854427953496,2.703866516103208,-0.001750950008549481,0.0
13450,8.965517241379311,10.0,3.5714285714285716,0,58799.0510046263,348520.9137098365,280639.7773045394,315781.1324527916,93418.69651504137,3.9199367336417534e-07,0.0,0.0,0.0,3.9199367336417534e-07,0.0,23.289538830732834,2.9971947500709293,0.0032890584361953377,0.0
13451,8.965517241379311,10.0,3.928571428571429,0,213945.5482007436,344737.95327659434,231789.75807567948,97988.4592225788,25212.377549022065,1.426303654671624e-06,0.0,0.0,0.0,1.426303654671624e-06,0.0,22.16900703849245,3.293986782189138,0.0008547824795264206,0.0
13452,8.965517241379311,10.0,4.285714285714286,0,191593.01735588728,323293.5273388854,193793.80307995155,103204.51894493564,-15676.200092649071,1.2772867823725818e-06,0.0,0.0,0.0,1.2772867823725818e-06,0.0,23.412609524939157,3.5943487147309114,-0.0005252568385506172,0.0
13453,8.965517241379311,10.0,4.642857142857143,0,195783.85905338448,298484.8825232502,270264.3018102064,90122.13121964157,13795.630389763739,1.3052257270225633e-06,0.0,0.0,0.0,1.3052257270225633e-06,0.0,23.35400341552555,3.8967952642751102,0.0004605813671470878,0.0
13454,8.965517241379311,10.0,5.0,0,132269.89500961718,333918.4112470185,244992.0630732396,181917.32023678505,14227.42631664538,8.817993000641145e-07,0.0,0.0,0.0,8.817993000641145e-07,0.0,22.812845574559105,4.200069850783457,0.0004744755331558146,0.0
13455,9.310344827586208,10.0,0.0,0,233229.33203065683,429087.7040364702,231230.79064012808,171933.45081503733,-11696.926775372827,1.5548622135377122e-06,0.0,0.0,0.0,1.5548622135377122e-06,0.0,22.26274059154311,-0.049934392449232125,-0.0003900849981234085,0.0
13456,9.310344827586208,10.0,0.35714285714285715,0,202700.35506683585,352800.41567143094,161207.88646073916,140571.07583739844,13957.482482088657,1.3513357004455724e-06,0.0,0.0,0.0,1.3513357004455724e-06,0.0,22.92749285813679,0.25391584589010324,0.00046598496639210237,0.0
13457,9.310344827586208,10.0,0.7142857142857143,0,284800.73409935593,354399.7704056516,324784.49989129097,55948.59131607065,14424.453420191969,1.8986715606623729e-06,0.0,0.0,0.0,1.8986715606623729e-06,0.0,21.9718035784469,0.5585438203474118,0.0004833150097939541,0.0
13458,9.310344827586208,10.0,1.0714285714285714,0,322045.01660494803,444507.60016079666,300694.32224120747,75613.92690388238,40209.3103969738,2.14696677736632e-06,0.0,0.0,0.0,2.14696677736632e-06,0.0,22.234704667986694,0.8651297773648284,0.0013632278024690257,0.0
13459,9.310344827586208,10.0,1.4285714285714286,0,280385.4113318822,507473.0514610353,319686.38935944735,185176.33593377005,8289.697407311665,1.8692360755458811e-06,0.0,0.0,0.0,1.8692360755458811e-06,0.0,22.457313952955516,1.1750687736995553,0.0002918612676921162,0.0
13460,9.310344827586208,10.0,1.7857142857142858,0,632904.2224837793,802865.1654446684,102825.53484385945,271114.3909518098,83836.05220014285,4.2193614832251955e-06,0.0,0.0,0.0,4.2193614832251955e-06,0.0,22.511242810717874,1.4882611524841511,0.0033113143379891233,0.0
13461,9.310344827586208,10.0,2.142857142857143,0,249694.40664827172,586053.5352235354,625500.4074277485,358430.5443928665,321841.3032266202,1.6646293776551447e-06,0.0,0.0,0.0,1.6646293776551447e-06,0.0,23.581865232853055,1.8013443033457748,0.017252333769234712,0.0
13462,9.310344827586208,10.0,2.5,0,635160.0556171322,1255314.0488319746,692757.0208859007,566511.9294286281,567226.7213337425,4.234400370780881e-06,0.0,0.0,0.0,4.234400370780881e-06,0.0,23.071610919658863,2.108985552692839,0.056722672133374244,0.0
13463,9.310344827586208,10.0,2.857142857142857,0,756861.3735475036,1012040.3190572527,520602.85180716,140457.34248065038,271195.35274528747,5.045742490316691e-06,0.0,0.0,0.0,5.045742490316691e-06,0.0,23.326024453444727,2.4084871604886318,0.014537452761097485,0.0
13464,9.310344827586208,10.0,3.2142857142857144,0,229813.75957289958,501716.0171569492,518774.3444050057,280906.73177459266,15201.703790703024,1.5320917304859972e-06,0.0,0.0,0.0,1.5320917304859972e-06,0.0,23.26053337358774,2.702546866769866,0.0006004292712143327,0.0
13465,9.310344827586208,10.0,3.5714285714285716,0,224943.46668576452,447052.21374065336,358798.62211266166,191364.45536933834,-14435.272754366473,1.4996231112384301e-06,0.0,0.0,0.0,1.4996231112384301e-06,0.0,22.391882281959262,2.9964973451281267,-0.000508232906288574,0.0
13466,9.310344827586208,10.0,3.928571428571429,0,319050.3343478841,443259.43080903817,288382.01511714805,76333.4945246908,-8404.080312013491,2.127002228985894e-06,0.0,0.0,0.0,2.127002228985894e-06,0.0,22.884123962104564,3.293701205936258,-0.0002849259492990857,0.0
13467,9.310344827586208,10.0,4.285714285714286,0,211617.25547184786,296551.1292478453,322648.7536129819,99193.07767518934,35764.94342253012,1.4107817031456525e-06,0.0,0.0,0.0,1.4107817031456525e-06,0.0,23.056576745510082,3.5942581060616976,0.0011983631876368397,0.0
13468,9.310344827586208,10.0,4.642857142857143,0,202930.88689328733,385740.3618998317,175606.52364403612,190874.93292788617,-13440.980655453246,1.3528725792885822e-06,0.0,0.0,0.0,1.3528725792885822e-06,0.0,23.10893401934381,3.8967729887472466,-0.0004487410195245334,0.0
13469,9.310344827586208,10.0,5.0,0,308281.588520744,416048.48606660514,215866.33810787633,61040.036159577605,-11784.523682409319,2.0552105901382933e-06,0.0,0.0,0.0,2.0552105901382933e-06,0.0,23.419669976376593,4.200065607550768,-0.0003930062987328035,0.0
13470,9.655172413793103,10.0,0.0,0,61642.18161614664,312441.534835825,284275.6789465325,354969.3123797673,-11625.166681212359,4.109478774409776e-07,0.0,0.0,0.0,4.109478774409776e-07,0.0,23.51065522373087,-0.049938835309792644,-0.0003876918450556421,0.0
13471,9.655172413793103,10.0,0.35714285714285715,0,171718.3554194099,386373.04962091235,228910.3035360385,203280.25514073967,-1904.954800948302,1.1447890361293994e-06,0.0,0.0,0.0,1.1447890361293994e-06,0.0,23.237762744405497,0.25389252238383625,-6.359888325401878e-05,0.0
13472,9.655172413793103,10.0,0.7142857142857143,0,237038.70816532135,422974.6556116998,337294.11660722404,155008.90311028817,67756.17609333294,1.5802580544354758e-06,0.0,0.0,0.0,1.5802580544354758e-06,0.0,23.93841935556432,0.5584489488868041,0.002270281996703502,0.0
13473,9.655172413793103,10.0,1.0714285714285714,0,174851.00936494416,345584.62098708877,244793.9540998878,143684.1504118888,-15320.573904832156,1.1656733957662945e-06,0.0,0.0,0.0,1.1656733957662945e-06,0.0,23.281581416388626,0.8648307658413091,-0.0005194178186756594,0.0
13474,9.655172413793103,10.0,1.4285714285714286,0,169226.71301713094,393674.48733153753,458399.9218587998,266363.6501394442,32806.3797168906,1.1281780867808729e-06,0.0,0.0,0.0,1.1281780867808729e-06,0.0,22.799834331924245,1.1743385585211081,0.001155037524544065,0.0
13475,9.655172413793103,10.0,1.7857142857142858,0,398592.2586735688,665762.0575366544,351542.0928276808,217404.50178761434,96003.89176244209,2.6572817244904585e-06,0.0,0.0,0.0,2.6572817244904585e-06,0.0,23.713830028795616,1.4868794186960859,0.0037919135616835335,0.0
13476,9.655172413793103,10.0,2.142857142857143,0,829218.7847225278,1176308.4482641735,1141909.9204128056,330425.68088379304,388648.3321703601,5.528125231483519e-06,0.0,0.0,0.0,5.528125231483519e-06,0.0,22.466744038914683,1.799318447725221,0.02083353093042304,0.0
13477,9.655172413793103,10.0,2.5,0,509629.33351847535,1346397.9770396687,1319097.3870245095,823667.0735611874,573974.3161766053,3.397528890123169e-06,0.0,0.0,0.0,3.397528890123169e-06,0.0,23.348316947183793,2.1066840939442795,0.05739743161766053,0.0
13478,9.655172413793103,10.0,2.857142857142857,0,472749.62506768503,839117.1131072647,690429.0576237362,309898.2623437903,435443.1721412733,3.1516641671179e-06,0.0,0.0,0.0,3.1516641671179e-06,0.0,23.010923784252725,2.406461304868078,0.023341972792180157,0.0
13479,9.655172413793103,10.0,3.2142857142857144,0,429227.39828067645,773490.9393368863,635821.6563010471,292319.620071162,-59684.433091954284,2.861515988537843e-06,0.0,0.0,0.0,2.861515988537843e-06,0.0,22.661647517932536,2.7011651329818003,-0.0023573858008047273,0.0
13480,9.655172413793103,10.0,3.5714285714285716,0,244899.5686483653,397802.77040988446,296109.62338082644,118439.94668620694,-42743.81599011183,1.632663790989102e-06,0.0,0.0,0.0,1.632663790989102e-06,0.0,23.200110294545034,2.9957671299496798,-0.001504911905453771,0.0
13481,9.655172413793103,10.0,3.928571428571429,0,160486.31125391362,278665.51656305505,371020.74100414297,185707.43786025883,-21998.084598896865,1.0699087416927575e-06,0.0,0.0,0.0,1.0699087416927575e-06,0.0,22.957460459041677,3.2934021944127383,-0.0007458073821763144,0.0
13482,9.655172413793103,10.0,4.285714285714286,0,143596.7104301495,369664.6939395493,265230.2033517193,205912.2832129084,-8952.251956566657,9.573114028676635e-07,0.0,0.0,0.0,9.573114028676635e-07,0.0,22.1820620959465,3.5941632346010897,-0.00029995990946937213,0.0
13483,9.655172413793103,10.0,4.642857142857143,0,271978.40174988494,487008.95092898764,176141.75840916563,292930.27115830197,3343.4780047388726,1.8131893449992329e-06,0.0,0.0,0.0,1.8131893449992329e-06,0.0,23.201769561981685,3.8967496652409794,0.00011162546595851646,0.0
13484,9.655172413793103,10.0,5.0,0,415730.30524199083,449774.9540897513,-2609.777547157251,84504.4532789462,55316.82585020813,2.771535368279939e-06,0.0,0.0,0.0,2.771535368279939e-06,0.0,22.598311502336077,4.200061164690208,0.0018447806267713912,0.0
13485,10.0,10.0,0.0,0,347777.064267516,448312.1756325043,289816.12804221385,49520.51067981033,28260.115069856765,2.31851376178344e-06,0.0,0.0,0.0,2.31851376178344e-06,0.0,23.04093674748968,-0.04994345830742686,0.0009424566935994186,0.0
13486,10.0,10.0,0.35714285714285715,0,228318.75953114434,411159.94765671773,339013.5933223699,155483.415276019,7574.558736231195,1.5221250635409622e-06,0.0,0.0,0.0,1.5221250635409622e-06,0.0,22.92085149546691,0.2538682532192236,0.00025288446556656613,0.0
13487,10.0,10.0,0.7142857142857143,0,300837.1527879451,414897.33549276495,434703.25695107656,124452.5201290257,-15109.451874917026,2.005581018586301e-06,0.0,0.0,0.0,2.005581018586301e-06,0.0,23.204428551006522,0.558350230835231,-0.0005062670084042334,0.0
13488,10.0,10.0,1.0714285714285714,0,250865.16442777857,473675.6764798896,327908.3550059462,184003.5319249106,-14787.011752915078,1.6724344295185238e-06,0.0,0.0,0.0,1.6724344295185238e-06,0.0,21.857688306824116,0.8645196308085966,-0.0005013283077475309,0.0
13489,10.0,10.0,1.4285714285714286,0,190280.9840899019,423617.76774960704,485179.2977420139,271739.0505803149,-54348.31907520579,1.2685398939326794e-06,0.0,0.0,0.0,1.2685398939326794e-06,0.0,22.503184954945798,1.1735787365558568,-0.0019134798923099966,0.0
13490,10.0,10.0,1.7857142857142858,0,224049.15881308127,718005.9490494918,470150.1630720827,658293.76740147,-81349.9087301742,1.4936610587538752e-06,0.0,0.0,0.0,1.4936610587538752e-06,0.0,23.05709194585542,1.485441662109685,-0.0032131178902514374,0.0
13491,10.0,10.0,2.142857142857143,0,640850.7358225612,1094104.7281351506,723251.8071401609,354114.7015368606,285430.74568875536,4.272338238817075e-06,0.0,0.0,0.0,4.272338238817075e-06,0.0,24.449602835926253,1.797210453199281,0.015300542358158883,0.0
13492,10.0,10.0,2.5,0,1179212.8413474765,981815.9785955937,1225353.8608254506,-56613.29617245179,933786.0450793148,7.86141894231651e-06,0.0,0.0,0.0,7.86141894231651e-06,0.0,23.08225042006832,2.104289321881345,0.09337860450793148,0.0
13493,10.0,10.0,2.857142857142857,0,647999.2017074254,951664.6564935006,236758.4882534939,402939.92425816855,349868.9706023766,4.319994678049503e-06,0.0,0.0,0.0,4.319994678049503e-06,0.0,22.797557000125618,2.404353310342138,0.018754759553283817,0.0
13494,10.0,10.0,3.2142857142857144,0,412937.80856253015,835095.8097995925,542218.721548746,362797.0316416868,40799.18302673724,2.752918723750201e-06,0.0,0.0,0.0,2.752918723750201e-06,0.0,23.45887299361857,2.6997273763953995,0.0016114656664910003,0.0
13495,10.0,10.0,3.5714285714285716,0,371403.8480972141,539764.5886364799,334022.78313287225,111020.16673575038,61779.83001010695,2.4760256539814273e-06,0.0,0.0,0.0,2.4760256539814273e-06,0.0,22.73250722331403,2.9950073079844284,0.002175126378997798,0.0
13496,10.0,10.0,3.928571428571429,0,236103.3148384777,434961.6343282643,450665.5384772371,207102.28878726254,-122179.46042205165,1.5740220989231846e-06,0.0,0.0,0.0,1.5740220989231846e-06,0.0,23.248076452846064,3.2930910593800258,-0.004142285348682333,0.0
13497,10.0,10.0,4.285714285714286,0,152594.2427098685,367950.1822288547,267442.31650446646,192362.17736768452,-26362.723321229798,1.0172949513991234e-06,0.0,0.0,0.0,1.0172949513991234e-06,0.0,23.062511123840732,3.594064516549517,-0.000883326356225005,0.0
13498,10.0,10.0,4.642857142857143,0,337317.48462429305,589998.574246997,360321.34961755277,202727.64960837486,-49246.3826036364,2.2487832308286205e-06,0.0,0.0,0.0,2.2487832308286205e-06,0.0,23.577247030677,3.896725396076367,-0.0016441413393810023,0.0
13499,10.0,10.0,5.0,0,136077.11200600577,373294.26799552504,396568.644327521,250355.42573016233,13165.610828539808,9.071807467067051e-07,0.0,0.0,0.0,9.071807467067051e-07,0.0,23.37679424394772,4.2000565416925735,0.00043906466835010017,0.0
