cycle,time_min,temperature_C,phase,mean_exx,std_exx,max_exx,mean_eyy,std_eyy,max_eyy,mean_von_mises,max_von_mises,hotspot_count,timestamp
1,0,600.0,heating,-5.2084776009950156e-11,9.905931930821535e-10,3.560765199900446e-09,-3.5049854606899412e-12,9.521971724020619e-10,3.672344346193788e-09,1.4837020284415784e-09,6.229187188745899e-09,0,2025-10-03T05:48:27.813664
1,2,613.7931034482758,heating,3.4901208819265383e-05,0.0005704508038919439,0.01061253949656165,2.4845647892674654e-05,0.00039931596027267065,0.00742919912726887,3.113576502575886e-05,0.009432725714491984,0,2025-10-03T05:50:27.819204
1,4,627.5862068965517,heating,6.907067058516283e-05,0.0008663549615117133,0.012415233343132237,4.917750301122074e-05,0.0006064465646320765,0.008691462909486697,6.162053655906618e-05,0.011035078602296605,49,2025-10-03T05:52:27.822312
1,6,641.3793103448276,heating,1.24160693402443e-05,2.475263123732231e-08,1.2497887736496664e-05,9.928778056240381e-06,2.421840194243063e-08,9.996978166786722e-06,1.1378242193575677e-05,1.1430269490539128e-05,0,2025-10-03T05:54:27.825202
1,8,655.1724137931035,heating,1.6544677018717614e-05,3.112904096100776e-08,1.6660503695955364e-05,1.3245891737658839e-05,3.262233891679401e-08,1.3389807425315913e-05,1.5166840792477166e-05,1.5249050175984545e-05,0,2025-10-03T05:56:27.828035
1,10,668.9655172413793,heating,2.0686853679979488e-05,4.2158832133988965e-08,2.083375635046769e-05,1.6556102331897437e-05,4.012885791486779e-08,1.6673861713053988e-05,1.8962064710587785e-05,1.9082419222975915e-05,0,2025-10-03T05:58:27.830914
1,12,682.7586206896551,heating,2.4821362599195446e-05,4.6879043828011e-08,2.4985752634292118e-05,1.985447031258753e-05,4.709329855562496e-08,2.000629823636287e-05,2.2748413910383944e-05,2.284765450597441e-05,0,2025-10-03T06:00:27.833657
1,14,696.551724137931,heating,2.896863950564801e-05,6.213512024475824e-08,2.916136278404279e-05,2.3169070611472278e-05,6.310528214077531e-08,2.3355646487866745e-05,2.654844653391315e-05,2.6695859165884028e-05,0,2025-10-03T06:02:27.836434
1,16,710.3448275862069,heating,0.00025184840670938274,0.0017786816736967905,0.014714448682991184,0.0001796028505617421,0.0012450689235846961,0.010303470124231119,0.00022476188224094536,0.013079236124067027,149,2025-10-03T06:04:27.839479
1,18,724.1379310344828,heating,3.724238859221216e-05,7.804851361821039e-08,3.7551494603558813e-05,2.980145428300451e-05,7.82133585273209e-08,3.0085473345423127e-05,3.413589404718136e-05,3.438928437474445e-05,0,2025-10-03T06:06:27.842236
1,20,737.9310344827586,heating,4.1385729566188344e-05,8.169104218093154e-08,4.1697032790760346e-05,3.309113933293598e-05,7.786512888006824e-08,3.337141168625906e-05,3.792514117295007e-05,3.8117573761281665e-05,0,2025-10-03T06:08:27.845001
1,22,751.7241379310344,heating,4.5527845965176484e-05,8.77103014580924e-08,4.5879968621492204e-05,3.6411150248744735e-05,9.464683608890541e-08,3.670344102224335e-05,4.172352479576952e-05,4.196590996280734e-05,0,2025-10-03T06:10:27.847738
1,24,765.5172413793103,heating,0.00015291048139055657,0.0011425485320249007,0.012796466228431532,0.00011201120572761982,0.0007997743552646356,0.008962509272441351,0.00013728597661831642,0.011374820954483531,81,2025-10-03T06:12:27.855069
1,26,779.3103448275862,heating,8.84440845841069e-05,0.0006423720853418837,0.01199973498155722,6.728931142796142e-05,0.00044965493230177963,0.008405097267646598,8.009982311350316e-05,0.010666773242725911,29,2025-10-03T06:14:27.858212
1,28,793.1034482758621,heating,0.0001975235292224536,0.001305800280867147,0.012412090273646101,0.00014406359191643326,0.0009140580465470696,0.008694229208819971,0.0001771654520611722,0.011033364862085168,113,2025-10-03T06:16:27.861234
1,30,806.8965517241379,heating,6.208694343057417e-05,1.1750414492883028e-07,6.244821577361517e-05,4.9638101281661173e-05,1.1446867821491273e-07,5.010702277178255e-05,5.689360078645507e-05,5.720341494427699e-05,0,2025-10-03T06:18:27.864008
1,32,820.6896551724137,heating,6.619951561437216e-05,1.3730956465528198e-07,6.670404807185263e-05,5.2976216461605316e-05,1.3026402915831107e-07,5.33844772646609e-05,6.067862540312785e-05,6.108261553857554e-05,0,2025-10-03T06:20:27.866905
1,34,834.4827586206897,heating,7.03555477436424e-05,1.4137306165172744e-07,7.078797646140949e-05,5.6289992224921836e-05,1.3773929897693777e-07,5.679222418562572e-05,6.448408116275948e-05,6.484603369184659e-05,0,2025-10-03T06:22:27.869696
1,36,848.2758620689655,heating,7.445518773487579e-05,1.5483864596121014e-07,7.507606849905134e-05,5.957718242951464e-05,1.3399519484454457e-07,5.9964381066786684e-05,6.824390338256038e-05,6.875269714455269e-05,0,2025-10-03T06:24:27.872488
1,38,862.0689655172414,heating,7.861347620563034e-05,1.5737022117102847e-07,7.94010187546963e-05,6.292617379531686e-05,1.5366821109586668e-07,6.33867176850519e-05,7.206238691254659e-05,7.265080384764759e-05,0,2025-10-03T06:26:27.875368
1,40,875.8620689655172,heating,8.278288064559767e-05,1.4599184823733276e-07,8.328137766963513e-05,6.61904481564827e-05,1.68735400740787e-07,6.67145642559946e-05,7.586038545328448e-05,7.623944352438401e-05,0,2025-10-03T06:28:27.878134
1,42,889.655172413793,heating,0.00015613255158712305,0.0009863610042644487,0.01421268887475099,0.00011797187035016995,0.0006904612473065694,0.009957651361090123,0.000141174916750914,0.012634480693578344,49,2025-10-03T06:30:27.881157
1,44,903.448275862069,heating,9.100227152666601e-05,1.7377969763788262e-07,9.1689101493185e-05,7.280231559598467e-05,1.7163971357594118e-07,7.352735069091033e-05,8.340553813324825e-05,8.390594242228511e-05,0,2025-10-03T06:32:27.883923
1,46,917.2413793103449,heating,0.00024639415592098726,0.0014146588390748288,0.013479212641117006,0.00018199354059419165,0.0009902643829361795,0.009445117002451844,0.00022163084127567155,0.011982723989383336,113,2025-10-03T06:34:27.886903
1,48,931.0344827586207,heating,9.929429553674163e-05,2.0779868821386052e-07,0.00010023901977039013,7.944519272247438e-05,1.8366059585889613e-07,7.997364148488122e-05,9.100837402728421e-05,9.170308591666906e-05,0,2025-10-03T06:36:27.889704
1,50,944.8275862068965,heating,0.00020040552305906366,0.0010997302833371451,0.013527282593545902,0.00015063805625749237,0.0007698153290663957,0.009479631771599262,0.000180988991122094,0.01202563201394622,49,2025-10-03T06:38:27.892901
1,52,958.6206896551723,heating,0.00010758394112122846,2.1840428534349397e-07,0.00010831568746818251,8.605575442313628e-05,2.1684415785985784e-07,8.680006035893552e-05,9.85991290906147e-05,9.913773536053386e-05,0,2025-10-03T06:40:27.895666
1,54,972.4137931034483,heating,0.00011170166985762406,2.456305749885462e-07,0.00011247250447800703,8.933666380095021e-05,2.0810778551129496e-07,9.005896100465775e-05,0.00010236873102537181,0.0001029536725837592,0,2025-10-03T06:42:27.898432
1,56,986.2068965517242,heating,0.00032583022886029827,0.001706958383696685,0.014205602878754452,0.0002396529664496435,0.0011948890435776968,0.00995585806825374,0.00029279973760916906,0.01262888519102518,149,2025-10-03T06:44:27.901442
1,58,1000.0,heating,0.00011998874070342564,2.32817007436867e-07,0.0001211386571159101,9.596154491346445e-05,2.33325190324417e-07,9.681800883838057e-05,0.00010996241103680244,0.00011062241353358866,0,2025-10-03T06:46:27.904177
1,60,1000.0,cooling,0.00011999839449933631,2.1891094271034178e-07,0.0001207454769167884,9.606503191689584e-05,2.3583937980413562e-07,9.696279972483788e-05,0.00011000254214693083,0.00011057395624138093,0,2025-10-03T06:48:27.908148
1,62,986.2068965517242,cooling,0.00011588297823556318,2.3139681374951727e-07,0.00011661765462126888,9.269234617781382e-05,2.4758371975170367e-07,9.356850443696394e-05,0.00010620449583751665,0.00010669626857429556,0,2025-10-03T06:50:27.910953
1,64,972.4137931034483,cooling,0.00011176646671170214,2.283972284717278e-07,0.00011264679631621367,8.939856859536319e-05,2.1456845125633955e-07,9.009602693390839e-05,0.0001024314095453184,0.0001030303023522852,0,2025-10-03T06:52:27.913819
1,66,958.6206896551724,cooling,0.00010759631243842588,2.0098900044807588e-07,0.00010833890873328573,8.605196868364413e-05,2.1372807771884908e-07,8.683932877704698e-05,9.860593741487227e-05,9.92112294172919e-05,0,2025-10-03T06:54:27.916691
1,68,944.8275862068965,cooling,0.00010347053929079693,2.0670756306462557e-07,0.00010407995467731462,8.274254724945002e-05,2.1258006932127878e-07,8.346614105872056e-05,9.482170860467737e-05,9.537703292339757e-05,0,2025-10-03T06:56:27.919479
1,70,931.0344827586207,cooling,9.929536317913799e-05,2.0902496384775566e-07,0.00010002389104183227,7.944121240035092e-05,2.0436094376902997e-07,8.032739780239941e-05,9.100778542423709e-05,9.155224642193703e-05,0,2025-10-03T06:58:27.922232
1,72,917.2413793103449,cooling,9.521224702801594e-05,1.8940607528617366e-07,9.585653058329163e-05,7.615807678200123e-05,1.8525637033847817e-07,7.677939093401669e-05,8.726010518756344e-05,8.77106413193427e-05,0,2025-10-03T07:00:27.925051
1,74,903.448275862069,cooling,9.103884300661e-05,1.9124705811503784e-07,9.189719423329877e-05,7.283404609287983e-05,1.6949235369954953e-07,7.342254976096736e-05,8.343984591002463e-05,8.397119631757911e-05,0,2025-10-03T07:02:27.927864
1,76,889.6551724137931,cooling,8.689743120502217e-05,1.7066573481430014e-07,8.745477533512234e-05,6.951139547356724e-05,1.751939474391265e-07,7.001278169619549e-05,7.964109264742232e-05,8.008930262011465e-05,0,2025-10-03T07:04:27.930611
1,78,875.8620689655172,cooling,8.27499046712434e-05,1.7239769564083703e-07,8.332306555573662e-05,6.618088044579267e-05,1.401006811263271e-07,6.666652854341402e-05,7.583566140489032e-05,7.625480546271186e-05,0,2025-10-03T07:06:27.933353
1,80,862.0689655172414,cooling,7.865064749288472e-05,1.478784319400883e-07,7.914978093205337e-05,6.288911147503168e-05,1.5582537879668486e-07,6.336618908400278e-05,7.207461654865741e-05,7.245771538630151e-05,0,2025-10-03T07:08:27.936097
1,82,848.2758620689656,cooling,0.00026854904055746925,0.001618519779318542,0.01402036769619186,0.0001954751500137218,0.001132960174535131,0.009821865596012433,0.00024076338520379227,0.012463200582226653,142,2025-10-03T07:10:27.939182
1,84,834.4827586206897,cooling,7.036581829274526e-05,1.3770907157982317e-07,7.085211583784823e-05,5.628379452578224e-05,1.5711399125210658e-07,5.675425028154003e-05,6.448878535416774e-05,6.483952605011844e-05,0,2025-10-03T07:12:27.941893
1,86,820.6896551724138,cooling,6.620084873264632e-05,1.3032626729172465e-07,6.664289460466655e-05,5.2948517601210355e-05,1.1627937387808493e-07,5.339624427839389e-05,6.0670403161326704e-05,6.096913663911454e-05,0,2025-10-03T07:14:27.944675
1,88,806.8965517241379,cooling,6.207862605315182e-05,1.1717193528412389e-07,6.250714425006018e-05,4.968173405919599e-05,1.159137027917483e-07,5.00481907120109e-05,5.690243082750257e-05,5.7182944006661594e-05,0,2025-10-03T07:16:27.947460
1,90,793.1034482758621,cooling,5.791586510872756e-05,1.1747365976940001e-07,5.831481471344353e-05,4.632650179713515e-05,1.1295291761890889e-07,4.6641434580147756e-05,5.3078993323077704e-05,5.3400873843709026e-05,0,2025-10-03T07:18:27.950153
1,92,779.3103448275863,cooling,5.379018547623694e-05,1.078148183722354e-07,5.412901228599789e-05,4.3043871194071684e-05,9.844792678968427e-08,4.3359575243647315e-05,4.9303632452816666e-05,4.955873780426611e-05,0,2025-10-03T07:20:27.952879
1,94,765.5172413793103,cooling,4.9662614069708216e-05,9.143419693807403e-08,4.9974133943914634e-05,3.9716505881857486e-05,8.98392878135048e-08,3.9982043393061955e-05,4.551229829377557e-05,4.57279781149227e-05,0,2025-10-03T07:22:27.955653
1,96,751.7241379310345,cooling,0.00016212024111568278,0.001290209296921217,0.014439713447759277,0.00011802752008793542,0.0009031566193899194,0.010112448735903612,0.00014535165562672413,0.012835331288545557,81,2025-10-03T07:24:27.958748
1,98,737.9310344827586,cooling,0.00019397936339951796,0.00142737706977207,0.01354562187367068,0.00013992403464788467,0.00099916712602507,0.009486202925333254,0.00017355656107765743,0.012040566401422627,113,2025-10-03T07:26:27.961672
1,100,724.1379310344828,cooling,0.00010423306102131412,0.0009547523457548897,0.013710132131765376,7.6688359777616e-05,0.0006683226396627098,0.009600774587670509,9.367541642896347e-05,0.012186656945338433,49,2025-10-03T07:28:27.964627
1,102,710.344827586207,cooling,0.00014786703457497587,0.0010734480648846418,0.010188871422515478,0.00010681271562681012,0.0007514073653897875,0.007135461441403557,0.00013234070273042569,0.009056790373181205,0,2025-10-03T07:30:27.967605
1,104,696.551724137931,cooling,2.8965007147520316e-05,5.856374683503871e-08,2.9225854648936432e-05,2.3178839450793258e-05,5.6840640901254633e-08,2.3403371229797e-05,2.65492333135748e-05,2.6735355956041746e-05,0,2025-10-03T07:32:27.970411
1,106,682.7586206896551,cooling,2.482066201439087e-05,4.836250206088201e-08,2.49882317417267e-05,1.9864943173712903e-05,4.878104324313896e-08,2.0034954903596162e-05,2.2751390394809293e-05,2.2853937088236682e-05,0,2025-10-03T07:34:27.973129
1,108,668.9655172413793,cooling,2.0691548299772585e-05,3.9943399753696554e-08,2.083741686009634e-05,1.6543039869952636e-05,3.9121118166876596e-08,1.6696362495016985e-05,1.896087203992925e-05,1.905295912043832e-05,0,2025-10-03T07:36:27.975909
1,110,655.1724137931035,cooling,1.6549265537781478e-05,3.3577992455817164e-08,1.6675247973823308e-05,1.3243866489297363e-05,3.096282564075306e-08,1.3342699030012377e-05,1.5169178358567004e-05,1.5251434525905814e-05,0,2025-10-03T07:38:27.978689
1,112,641.3793103448277,cooling,0.00031790913888272396,0.0018779494012944942,0.013278055226777774,0.0002237766593856197,0.0013145665046325,0.009295888483161749,0.000282905616641576,0.011802074929239029,178,2025-10-03T07:40:27.981969
1,114,627.5862068965517,cooling,0.00016087591590383007,0.0012407911016820098,0.010249836461440485,0.0001134420947405891,0.0008685517415298718,0.0071757139448124785,0.00014321870837697467,0.00911043549217829,0,2025-10-03T07:42:27.985012
1,116,613.7931034482758,cooling,0.0001625961576512127,0.0012884353047764234,0.01063894625217489,0.00011423054476302359,0.0009019047025355042,0.007447675993801506,0.0001446327466318312,0.009456194088593162,0,2025-10-03T07:44:27.988508
1,118,600.0,cooling,5.301572025077071e-05,0.0007555083447466133,0.010819518684439281,3.7110963117760066e-05,0.000528855792397805,0.007573662564026727,4.712279427536002e-05,0.009616598119689313,0,2025-10-03T07:46:27.991515
2,120,600.0,heating,-6.837136520588888e-12,1.0269378888398412e-09,2.8618904309065957e-09,-9.691534281744037e-11,9.439165266960488e-10,3.8358452416387755e-09,1.5148390958571685e-09,5.150252565068224e-09,0,2025-10-03T07:48:27.996422
2,122,613.7931034482758,heating,5.183180789970189e-06,1.219487323609778e-08,5.231683638051775e-06,4.147475102182019e-06,1.3050415147202676e-08,4.198176281931357e-06,4.750804805397306e-06,4.784800444873039e-06,0,2025-10-03T07:50:28.004538
2,124,627.5862068965517,heating,8.245452305594518e-05,0.0010273994400635134,0.014723623406569537,5.8754967030538694e-05,0.0007191798848427131,0.01030758157171001,7.357418983634727e-05,0.013086867819681533,49,2025-10-03T07:52:28.007674
2,126,641.3793103448276,heating,1.5504436002538722e-05,3.857989366770603e-08,1.5614765493145207e-05,1.2400326445302617e-05,3.547886210984346e-08,1.260722495358717e-05,1.4209104169790665e-05,1.4282589535412246e-05,0,2025-10-03T07:54:28.010577
2,128,655.1724137931035,heating,2.062176622365474e-05,5.007532544629048e-08,2.0793323452919433e-05,1.6492763173437664e-05,5.266568094758129e-08,1.6651039474080482e-05,1.889879379915344e-05,1.902509431654549e-05,0,2025-10-03T07:56:28.013486
2,130,668.9655172413793,heating,2.5681991572389353e-05,5.752334671294872e-08,2.590146714069432e-05,2.055776392550526e-05,6.01468281461174e-08,2.075337254031517e-05,2.3542101860274744e-05,2.3687484987863873e-05,0,2025-10-03T07:58:28.016245
2,132,682.7586206896551,heating,3.0695771289373755e-05,6.779301526351859e-08,3.0906146455076194e-05,2.4560667310368566e-05,7.809937628959718e-08,2.4846688028513583e-05,2.813468426914799e-05,2.828993058762924e-05,0,2025-10-03T08:00:28.018974
2,134,696.551724137931,heating,3.566066059348693e-05,8.810937489028186e-08,3.5985226655065595e-05,2.8532483972004624e-05,8.29009743233697e-08,2.8835180441212432e-05,3.2685080495437e-05,3.2889171773939693e-05,0,2025-10-03T08:02:28.021833
2,136,710.3448275862069,heating,7.694987447622215e-05,0.0006752269483743528,0.01259745396610588,5.792113433711024e-05,0.0004726528580850108,0.00882221662235881,6.951776839849181e-05,0.011197746505304034,29,2025-10-03T08:04:28.024895
2,138,724.1379310344828,heating,4.531230996925803e-05,1.1302352505029044e-07,4.574134476777109e-05,3.625285123159352e-05,1.0741527994871995e-07,3.6640622247586975e-05,4.153072074789428e-05,4.184331671771889e-05,0,2025-10-03T08:06:28.027655
2,140,737.9310344827586,heating,5.004504987249578e-05,1.1739321100152174e-07,5.043830933359139e-05,4.0039109259725495e-05,1.2486242426704074e-07,4.048452822045992e-05,4.5868417622860605e-05,4.617087064030825e-05,0,2025-10-03T08:08:28.030476
2,142,751.7241379310344,heating,5.465757603287105e-05,1.5196311656003668e-07,5.5067881925578756e-05,4.371773284269492e-05,1.3897597150907574e-07,4.413755793055991e-05,5.0092179588785745e-05,5.045607803744762e-05,0,2025-10-03T08:10:28.033291
2,144,765.5172413793103,heating,5.915827300654801e-05,1.4098010622529763e-07,5.9663331653141915e-05,4.7325991570451566e-05,1.3930604464748675e-07,4.772025375164155e-05,5.4219649375706294e-05,5.4614034575663366e-05,0,2025-10-03T08:12:28.036022
2,146,779.3103448275862,heating,6.357455286317551e-05,1.5055366502262908e-07,6.429778987639672e-05,5.084560346294054e-05,1.6653563357403298e-07,5.136004931163485e-05,5.826297069207007e-05,5.879136086116592e-05,0,2025-10-03T08:14:28.038741
2,148,793.1034482758621,heating,6.786014822861386e-05,1.8212843348060698e-07,6.856589714134302e-05,5.4322343250998784e-05,1.598124144651161e-07,5.483705260010698e-05,6.220658435208821e-05,6.27233058265372e-05,0,2025-10-03T08:16:28.042416
2,150,806.8965517241379,heating,7.206784858377978e-05,1.721101094204421e-07,7.260731103538415e-05,5.7652225733589044e-05,1.7442262302916436e-07,5.838473697369861e-05,6.605111135912388e-05,6.648683900762009e-05,0,2025-10-03T08:18:28.046513
2,152,820.6896551724137,heating,7.617866503403995e-05,1.9270242017161622e-07,7.68931095715034e-05,6.093993561475892e-05,1.89426586118183e-07,6.16194699080222e-05,6.981853033290062e-05,7.04592808227565e-05,0,2025-10-03T08:20:28.049254
2,154,834.4827586206897,heating,8.01373842580878e-05,2.0621383399073256e-07,8.09143426672582e-05,6.41401704289932e-05,1.7991143974564973e-07,6.475826668155465e-05,7.34575735436809e-05,7.394342002990327e-05,0,2025-10-03T08:22:28.052445
2,156,848.2758620689655,heating,8.399877555810944e-05,1.9540201674339433e-07,8.470507668770712e-05,6.723937939016156e-05,2.0258077853151394e-07,6.785127797874575e-05,7.699994288051306e-05,7.758763852891632e-05,0,2025-10-03T08:24:28.056176
2,158,862.0689655172414,heating,8.777770897992567e-05,2.3605763035747182e-07,8.850163333059745e-05,7.020098116021587e-05,2.109880634831722e-07,7.114573161570652e-05,8.044333572189363e-05,8.09730901203915e-05,0,2025-10-03T08:26:28.058954
2,160,875.8620689655172,heating,0.00012548862648474775,0.0006312572987717812,0.011830759499787924,9.695920780316021e-05,0.00044187052201271156,0.00829054387728606,0.00011405976351336054,0.010517413813740493,29,2025-10-03T08:28:28.061908
2,162,889.655172413793,heating,9.497981141896427e-05,2.3761813667219494e-07,9.585068675663859e-05,7.597316021921978e-05,2.1855815728009704e-07,7.667034497324369e-05,8.704757536663865e-05,8.771388592244472e-05,0,2025-10-03T08:30:28.064818
2,164,903.448275862069,heating,0.00023533216140618675,0.0012804375411424613,0.012212674901051003,0.00017460359099297372,0.0008962947061792126,0.008558886383163364,0.0002118981431909425,0.010857053714431112,113,2025-10-03T08:32:28.067881
2,166,917.2413793103449,heating,0.00016000389545107958,0.0008288291239209602,0.011971616556676019,0.00012222444671416147,0.0005801736538035814,0.008390759488136203,0.00014504557145614218,0.010642852296884149,49,2025-10-03T08:34:28.070868
2,168,931.0344827586207,heating,0.00010516508040451603,2.589993539841726e-07,0.00010588555900754195,8.417139928373329e-05,2.5157786026642013e-07,8.498300417666185e-05,9.639897900784321e-05,9.705140614097835e-05,0,2025-10-03T08:36:28.073712
2,170,944.8275862068965,heating,0.00015023408303518987,0.0007745975106066968,0.014513716052533996,0.00011599415851833435,0.0005422317302954606,0.010170493998495575,0.00013652876938596083,0.012902481610538518,29,2025-10-03T08:38:28.076792
2,172,958.6206896551723,heating,0.00011166315167713567,2.7735780701083326e-07,0.00011284005796263587,8.930469227907368e-05,2.6167192363071474e-07,9.04196868622532e-05,0.0001023333314711979,0.00010310727439032782,0,2025-10-03T08:40:28.079570
2,174,972.4137931034483,heating,0.00011478312284893297,2.8372855376902773e-07,0.00011563026640039682,9.184929729299553e-05,2.6327253187523356e-07,9.28926217545932e-05,0.00010520870361692258,0.00010587037643031484,0,2025-10-03T08:42:28.082710
2,176,986.2068965517242,heating,0.00026284875142488693,0.001355088546607077,0.012938536088159643,0.00019577507919108688,0.000948591212534765,0.00906928488862403,0.00023688069930401663,0.011502698580057709,113,2025-10-03T08:44:28.086098
2,178,1000.0,heating,0.00012096743150259435,2.908686119896297e-07,0.00012247165490634145,9.679003422178024e-05,2.7075768896482643e-07,9.766896087214796e-05,0.00011087461805392405,0.00011203186077147153,0,2025-10-03T08:46:28.088845
2,180,1000.0,cooling,0.0001199787870994683,3.024681237722677e-07,0.00012120330038368608,9.5947415016071e-05,3.358068980975287e-07,9.736579999450527e-05,0.00010995168430954916,0.00011078497942076567,0,2025-10-03T08:48:28.092885
2,182,986.2068965517242,cooling,0.00011481190750677972,2.806002813653566e-07,0.00011573861364904583,9.18596022193297e-05,2.699902797665899e-07,9.273877070321497e-05,0.0001052309308605142,0.00010596746891701338,0,2025-10-03T08:50:28.095797
2,184,972.4137931034483,cooling,0.00028970418091823954,0.0014641468939116178,0.012195087131379637,0.00021375023199308578,0.0010249180856753048,0.008547588818323534,0.0002605212608424656,0.01084170654055372,149,2025-10-03T08:52:28.098918
2,186,958.6206896551724,cooling,0.0001044977745109942,2.6924443296736465e-07,0.00010531488927795533,8.354210204227037e-05,2.3554820193551025e-07,8.436859255664972e-05,9.575623690299404e-05,9.635175562134968e-05,0,2025-10-03T08:54:28.101657
2,188,944.8275862068965,cooling,0.00027611919407864575,0.0014369982223728568,0.0119607374903611,0.0002031774396514938,0.0010059263028506587,0.008382736957280718,0.0002481509792837369,0.010633068881323692,149,2025-10-03T08:56:28.104647
2,190,931.0344827586207,cooling,9.43390539942425e-05,2.352935944417488e-07,9.521039577328622e-05,7.544050976797612e-05,2.332433198625939e-07,7.616127367173685e-05,8.645384688687532e-05,8.697424641547582e-05,0,2025-10-03T08:58:28.107499
2,192,917.2413793103449,cooling,0.00019444272420401112,0.0011635865731277819,0.013071023026872547,0.0001450320800781515,0.0008145161719321041,0.009158885604519544,0.00017529200864386805,0.011619694238784192,81,2025-10-03T09:00:28.110597
2,194,903.448275862069,cooling,0.00012717408042384144,0.0007941535700619609,0.014852949962353633,9.745842693261251e-05,0.0005559056983598159,0.010405508531791242,0.00011537080483421116,0.0132034608048256,29,2025-10-03T09:02:28.113600
2,196,889.6551724137931,cooling,0.0002824698790006584,0.0016506967631064423,0.013704580438940057,0.0002056790369551234,0.0011554824328913694,0.009601357441852799,0.00025326136772034735,0.012182636182726957,149,2025-10-03T09:04:28.116542
2,198,875.8620689655172,cooling,7.467780464811023e-05,1.7535966101969396e-07,7.521659608846028e-05,5.9743339943566976e-05,1.9045225561130753e-07,6.0265626660076044e-05,6.844424309963033e-05,6.888911566860205e-05,0,2025-10-03T09:06:28.119432
2,200,862.0689655172414,cooling,6.994735618192948e-05,1.6653798995414941e-07,7.054633225477702e-05,5.5965501016546735e-05,1.8533678304397689e-07,5.6544434141919686e-05,6.411088108089625e-05,6.446974981070747e-05,0,2025-10-03T09:08:28.122203
2,202,848.2758620689656,cooling,6.536497616153348e-05,1.6812404906746572e-07,6.592739701779347e-05,5.231173082960587e-05,1.8204111656152713e-07,5.278764332790244e-05,5.9915069390952055e-05,6.0387066750276845e-05,0,2025-10-03T09:10:28.124927
2,204,834.4827586206897,cooling,6.083329429081303e-05,1.4238096619011114e-07,6.1340406473084e-05,4.863961038164285e-05,1.6933524818401526e-07,4.92068008483718e-05,5.5746245994822797e-05,5.616475280850252e-05,0,2025-10-03T09:12:28.127723
2,206,820.6896551724138,cooling,5.643522172417924e-05,1.3878913038378749e-07,5.694476997053406e-05,4.512349628279183e-05,1.414439443298187e-07,4.5562340637544974e-05,5.171611661886188e-05,5.210522558432085e-05,0,2025-10-03T09:14:28.130623
2,208,806.8965517241379,cooling,5.2112280341005535e-05,1.2739410111541984e-07,5.257375183193929e-05,4.16744024865445e-05,1.3297434206277192e-07,4.203380445732864e-05,4.775707988525749e-05,4.806385907143711e-05,0,2025-10-03T09:16:28.133457
2,210,793.1034482758621,cooling,4.792438534192496e-05,1.0723096887932484e-07,4.8288065412029135e-05,3.833870493241433e-05,1.1312108951268256e-07,3.885118471537583e-05,4.3923463085615955e-05,4.4166414989843186e-05,0,2025-10-03T09:18:28.136280
2,212,779.3103448275863,cooling,4.3842784060504095e-05,1.0653734675513736e-07,4.425176817771639e-05,3.507277380844437e-05,1.2526813258703863e-07,3.5655900433064e-05,4.018244923692187e-05,4.046055292223071e-05,0,2025-10-03T09:20:28.139087
2,214,765.5172413793103,cooling,3.985598798645132e-05,9.209420961284603e-08,4.0185159451869205e-05,3.189017659268082e-05,1.0421714638754065e-07,3.226091800652035e-05,3.653070479162713e-05,3.67668049420828e-05,0,2025-10-03T09:22:28.141899
2,216,751.7241379310345,cooling,3.599040408608627e-05,8.474500988677176e-08,3.623340123205145e-05,2.8808162327561077e-05,9.664000982529771e-08,2.912287621269614e-05,3.2991255390680876e-05,3.318994867276073e-05,0,2025-10-03T09:24:28.144758
2,218,737.9310344827586,cooling,0.0002527027224918253,0.0017926262059164673,0.014828778994498975,0.00018012047166625342,0.0012548355410535454,0.010383427537005338,0.00022549928311947629,0.013180846017483575,149,2025-10-03T09:26:28.147810
2,220,724.1379310344828,cooling,2.8588548692832317e-05,6.836934555088151e-08,2.8862948481371442e-05,2.287123033376414e-05,7.495075839975028e-08,2.3158196790980265e-05,2.620218901600746e-05,2.635928637385006e-05,0,2025-10-03T09:28:28.150613
2,222,710.344827586207,cooling,2.501014593087495e-05,5.980632502981702e-08,2.5224504893280214e-05,2.000503449441525e-05,5.831851339312895e-08,2.0240752879935308e-05,2.292134317325024e-05,2.309970422763921e-05,0,2025-10-03T09:30:28.153443
2,224,696.551724137931,cooling,2.1534261330172e-05,5.536773739298747e-08,2.174832679114753e-05,1.7240309552115424e-05,5.914603561503155e-08,1.7541425610645275e-05,1.974088762151903e-05,1.991670417143677e-05,0,2025-10-03T09:32:28.156312
2,226,682.7586206896551,cooling,1.8137758277854982e-05,4.323032334090234e-08,1.827643939619951e-05,1.4505522708898725e-05,4.705747573470669e-08,1.4729104904182418e-05,1.6622127124633826e-05,1.6747765916083287e-05,0,2025-10-03T09:34:28.159054
2,228,668.9655172413793,cooling,1.4810201844574541e-05,3.719061021482213e-08,1.4947622923770135e-05,1.1851414176810992e-05,3.6700897029876515e-08,1.2012148541243707e-05,1.357494883870292e-05,1.3680049553184079e-05,0,2025-10-03T09:36:28.161783
2,230,655.1724137931035,cooling,8.462718432400905e-05,0.0010414074370293618,0.014925397504588338,6.039694370237366e-05,0.0007289839248477911,0.01044894543471896,7.553892880645065e-05,0.013266238926919938,49,2025-10-03T09:38:28.164818
2,232,641.3793103448277,cooling,8.349287841395719e-06,1.981779660648362e-08,8.434919314018412e-06,6.677991124974425e-06,1.9861961555168072e-08,6.749690220407133e-06,7.651840453634825e-06,7.702254221260534e-06,0,2025-10-03T09:40:28.167654
2,234,627.5862068965517,cooling,0.00015730911673242885,0.0014229385781095907,0.013467352848290072,0.00011063386905675414,0.0009960568417765067,0.009427676568441377,0.00013996239677481451,0.011970161299391591,113,2025-10-03T09:42:28.170690
2,236,613.7931034482758,cooling,0.0003415928036174572,0.0020733528421930433,0.013596675990560789,0.0002393217518034886,0.0014513465913692624,0.009517876887377302,0.000303671380704069,0.012085034846782795,262,2025-10-03T09:44:28.174553
2,238,600.0,cooling,-1.0448363911995348e-06,2.8525815546816807e-09,-1.0325145900759027e-06,-8.362596144781952e-07,2.6178308188106894e-09,-8.274462082183669e-07,9.577446427906672e-07,9.651859973415447e-07,0,2025-10-03T09:46:28.177363
3,240,600.0,heating,4.05081204172996e-11,9.384177631230383e-10,3.855173679229113e-09,7.818155111290549e-11,1.0248631536683236e-09,3.5384057484842427e-09,1.429408845710333e-09,5.4482557579824855e-09,0,2025-10-03T09:48:28.181492
3,242,613.7931034482758,heating,6.22698623646143e-06,1.9086364611807083e-08,6.281078735041293e-06,4.983205069196108e-06,1.9074599345614104e-08,5.036829875084179e-06,5.70772363043763e-06,5.754690215783116e-06,0,2025-10-03T09:50:28.189683
3,244,627.5862068965517,heating,0.0001826235978047469,0.0013838320690628945,0.011434686321649467,0.00012908465564480807,0.0009686819969750393,0.00800554236507815,0.0001626645006866669,0.010163644196596678,149,2025-10-03T09:52:28.192812
3,246,641.3793103448276,heating,0.00016616138844291112,0.0012295056380186504,0.010560973229831034,0.00011817086393544974,0.0008606454476739927,0.007394421099282914,0.0001482008353487944,0.009387176816605065,0,2025-10-03T09:54:28.195982
3,248,655.1724137931035,heating,0.00010772710443096261,0.0009189680902419147,0.010277135083036914,7.786983908386387e-05,0.000643275304678143,0.007196456143136816,9.643032099675222e-05,0.009135050733649648,0,2025-10-03T09:56:28.198982
3,250,668.9655172413793,heating,0.00021846663273913957,0.0015267784482247402,0.01263292296240827,0.00015600172647420104,0.001068752156637122,0.008846186846071807,0.00019502717987044177,0.011229082306133833,149,2025-10-03T09:58:28.201888
3,252,682.7586206896551,heating,9.544819899594974e-05,0.0008385286779739866,0.012045165077212181,7.044728621128316e-05,0.0005869769680592246,0.008435326980601612,8.584062030193184e-05,0.010706805827303734,49,2025-10-03T10:00:28.204890
3,254,696.551724137931,heating,4.233109993833315e-05,1.169648738709709e-07,4.2698684152816136e-05,3.389320236288862e-05,1.2018997953663865e-07,3.4301345433760544e-05,3.8806789502065334e-05,3.907293904199049e-05,0,2025-10-03T10:02:28.207727
3,256,710.3448275862069,heating,4.796013576271789e-05,1.3975820932470544e-07,4.8445030238142314e-05,3.838103839384301e-05,1.4934636395013103e-07,3.8812784362805006e-05,4.396093368100243e-05,4.428268786978347e-05,0,2025-10-03T10:04:28.210461
3,258,724.1379310344828,heating,5.341405300584727e-05,1.648994326875126e-07,5.393273027002087e-05,4.2715787665448483e-05,1.5881812020113263e-07,4.3203286957094364e-05,4.895028631574021e-05,4.932648538845523e-05,0,2025-10-03T10:06:28.213174
3,260,737.9310344827586,heating,0.0001643276983637591,0.0011686647885907244,0.013096922641870668,0.00012086970703946839,0.0008180645106943695,0.009173655385001185,0.0001476717904195552,0.011642085770032473,81,2025-10-03T10:08:28.216174
3,262,751.7241379310344,heating,6.376047734745909e-05,1.870810890144392e-07,6.426071553001654e-05,5.103122223955159e-05,1.845675908735165e-07,5.172896308530785e-05,5.844558625103115e-05,5.893416697067099e-05,0,2025-10-03T10:10:28.219014
3,264,765.5172413793103,heating,6.86812482210577e-05,2.099740748177967e-07,6.933865377140933e-05,5.492020775493387e-05,2.117892283287536e-07,5.5738385380239785e-05,6.294003937579973e-05,6.337751297354137e-05,0,2025-10-03T10:12:28.221831
3,266,779.3103448275862,heating,7.333859432493892e-05,2.1018156780454052e-07,7.401271117250863e-05,5.867570382526799e-05,2.3994177234134743e-07,5.9444814230208805e-05,6.721833545504958e-05,6.775002278049024e-05,0,2025-10-03T10:14:28.224598
3,268,793.1034482758621,heating,7.778868602483973e-05,2.3964002616368365e-07,7.853317250168138e-05,6.224520373728652e-05,2.2168968797825603e-07,6.292910543206933e-05,7.129994866202687e-05,7.196800993999651e-05,0,2025-10-03T10:16:28.227321
3,270,806.8965517241379,heating,8.206514544058103e-05,2.2020588726663554e-07,8.290094388941277e-05,6.569441956653315e-05,2.4556658261915026e-07,6.651200281880911e-05,7.522860863893929e-05,7.587344045998765e-05,0,2025-10-03T10:18:28.230088
3,272,820.6896551724137,heating,8.608357929389635e-05,2.5054821254496983e-07,8.707255763292814e-05,6.886302189667816e-05,2.472302868651932e-07,6.965468275831047e-05,7.889656131949025e-05,7.960417424277673e-05,0,2025-10-03T10:20:28.232939
3,274,834.4827586206897,heating,8.98981658466136e-05,2.6396612993912765e-07,9.086062297593419e-05,7.19529751583492e-05,2.713132300054158e-07,7.293419084480634e-05,8.240536531788676e-05,8.299948205261984e-05,0,2025-10-03T10:22:28.235814
3,276,848.2758620689655,heating,0.00013672032719219543,0.0008009439962211783,0.01498848142317989,0.00010501802122673507,0.0005606613423229421,0.010501298558935111,0.00012409699731451092,0.01332410559657183,29,2025-10-03T10:24:28.239655
3,278,862.0689655172414,heating,0.0001553865412049473,0.000833625239404693,0.01203528182425471,0.0001185017483637691,0.0005834961561416703,0.008434134668833377,0.00014080682273643792,0.010699214375377023,49,2025-10-03T10:26:28.242708
3,280,875.8620689655172,heating,0.0002762291512774978,0.0015354962493974121,0.014135183034689762,0.000203370247603105,0.001074831105238387,0.009904309310694246,0.00024828471288908103,0.01256578771720074,130,2025-10-03T10:28:28.245849
3,282,889.655172413793,heating,0.00010311164998755886,3.16340412985951e-07,0.00010420734285041849,8.244245303029268e-05,3.146002932298257e-07,8.36448880235758e-05,9.4489130383835e-05,9.532711045145989e-05,0,2025-10-03T10:30:28.248553
3,284,903.448275862069,heating,0.00010590797171903187,3.3569334930362577e-07,0.00010691136885805317,8.476556950337278e-05,2.9775309113390963e-07,8.564898425918799e-05,9.708020784945519e-05,9.774789701296527e-05,0,2025-10-03T10:32:28.251295
3,286,917.2413793103449,heating,0.000253795908100611,0.0013586588919446802,0.012962930130054767,0.00018855135122408724,0.0009510742115340127,0.009085167106341621,0.00022859261631488214,0.01152417887881044,113,2025-10-03T10:34:28.254227
3,288,931.0344827586207,heating,0.00011110186626946525,3.366781902717823e-07,0.00011229551132585157,8.888406876130226e-05,3.178096265196609e-07,9.011190238996571e-05,0.0001018285032212861,0.00010265982054182324,0,2025-10-03T10:36:28.257046
3,290,944.8275862068965,heating,0.00011346845273106507,3.0557027375415387e-07,0.00011431684141791182,9.078187800390902e-05,3.434374176148229e-07,9.203237714760342e-05,0.00010399906765602648,0.00010464530261047967,0,2025-10-03T10:38:28.259806
3,292,958.6206896551723,heating,0.00011572107607856094,3.266443958717227e-07,0.00011681804906735956,9.25443383968926e-05,3.44199771895961e-07,9.351180279266217e-05,0.00010605065104003733,0.00010686195327371327,0,2025-10-03T10:40:28.262545
3,294,972.4137931034483,heating,0.00011790627082015853,3.3462028737436844e-07,0.00011953613711164913,9.428214716957595e-05,3.201611418776118e-07,9.532950257822643e-05,0.00010804995857364641,0.00010915123973880566,0,2025-10-03T10:42:28.265345
3,296,986.2068965517242,heating,0.00011997491676529703,3.5605773945289833e-07,0.00012155974666768629,9.601552540420866e-05,3.2700570820184494e-07,9.709298720962085e-05,0.00010997175966789076,0.0001108632756336919,0,2025-10-03T10:44:28.268176
3,298,1000.0,heating,0.00012209661691932176,3.874266301151722e-07,0.00012342392856980468,9.764189297788792e-05,3.5622001557110185e-07,9.910522992245992e-05,0.00011189309369766549,0.00011274524618673572,0,2025-10-03T10:46:28.270946
3,300,1000.0,cooling,0.0001200103871618722,3.618252491173958e-07,0.0001213491589852639,9.606559793859628e-05,3.5491437743310503e-07,9.764867132034198e-05,0.00011001140331936696,0.00011096220971785665,0,2025-10-03T10:48:28.276166
3,302,986.2068965517242,cooling,0.0002677590960752511,0.0012519229870592524,0.010447454631578649,0.00019871948551424698,0.0008763128005545638,0.007324501573997863,0.00024110433300300466,0.009288349349771182,0,2025-10-03T10:50:28.279253
3,304,972.4137931034483,cooling,0.00010758308734096515,3.3860317245120724e-07,0.00010890622319835943,8.606471323822646e-05,3.1389366757799376e-07,8.737803202692442e-05,9.86021803980476e-05,9.940004885759999e-05,0,2025-10-03T10:52:28.282115
3,306,958.6206896551724,cooling,0.00010138903645741941,2.866238125349289e-07,0.00010247426440174931,8.112675869471465e-05,3.102304111138775e-07,8.217666286495888e-05,9.293080174024146e-05,9.365147578194759e-05,0,2025-10-03T10:54:28.284994
3,308,944.8275862068965,cooling,9.528727017414008e-05,2.5144537385058253e-07,9.608416915049776e-05,7.622435293470527e-05,2.7112934590549423e-07,7.704058197910367e-05,8.733141283207797e-05,8.794029850431662e-05,0,2025-10-03T10:56:28.287905
3,310,931.0344827586207,cooling,8.92739262124833e-05,2.8239051644076857e-07,9.02880041206075e-05,7.144933224249055e-05,2.891785701055815e-07,7.244560147189539e-05,8.183185480318515e-05,8.248646188273536e-05,0,2025-10-03T10:58:28.290695
3,312,917.2413793103449,cooling,8.337050869742682e-05,2.36989958037651e-07,8.440557035805055e-05,6.665304141017557e-05,2.35236847982975e-07,6.73080371977264e-05,7.639701291891472e-05,7.709005559897702e-05,0,2025-10-03T11:00:28.293536
3,314,903.448275862069,cooling,7.762105815899096e-05,2.2201520248129025e-07,7.845071308411167e-05,6.218884143713855e-05,2.3090878137961973e-07,6.309148064765289e-05,7.117189721978692e-05,7.17954616560348e-05,0,2025-10-03T11:02:28.296447
3,316,889.6551724137931,cooling,7.201053393080897e-05,2.0505232431534096e-07,7.272247592243624e-05,5.760910130740107e-05,2.0938312099094176e-07,5.8335055817417226e-05,6.5999741024556e-05,6.653517896461541e-05,0,2025-10-03T11:04:28.299291
3,318,875.8620689655172,cooling,0.00018599998639906188,0.0013216407286106696,0.014811481939333035,0.00013685468356821448,0.0009251351359726986,0.0103748563820748,0.00016716142734596635,0.013166265895746352,81,2025-10-03T11:06:28.302328
3,320,862.0689655172414,cooling,6.130520832449329e-05,1.7257338381939932e-07,6.196154654458736e-05,4.9053530555600626e-05,1.736651148470541e-07,4.967178836380531e-05,5.61907861494795e-05,5.6707259549487626e-05,0,2025-10-03T11:08:28.305192
3,322,848.2758620689656,cooling,5.6218895384163714e-05,1.5928818481893707e-07,5.7102511841444164e-05,4.498653342425834e-05,1.6950164095479745e-07,4.5620214321322456e-05,5.1529828172049494e-05,5.204574198392515e-05,0,2025-10-03T11:10:28.308146
3,324,834.4827586206897,cooling,0.00022020720880675874,0.001476946866935908,0.014436482406276294,0.0001592928898450538,0.001033852345442128,0.010110623171319326,0.0001971482564256942,0.012832550714211773,130,2025-10-03T11:12:28.311372
3,326,820.6896551724138,cooling,4.664362172191524e-05,1.313677874381205e-07,4.715676921754152e-05,3.7309637269064495e-05,1.368891021479041e-07,3.7774826464993604e-05,4.274838349799471e-05,4.314133154275795e-05,0,2025-10-03T11:14:28.314180
3,328,806.8965517241379,cooling,4.215936081436198e-05,1.2243157554271681e-07,4.253995403224404e-05,3.373904221493447e-05,1.2344178796534007e-07,3.415844479659689e-05,3.86439645706088e-05,3.8899699960416724e-05,0,2025-10-03T11:16:28.317024
3,330,793.1034482758621,cooling,0.00018375361579343611,0.0013641585105118044,0.012944083825143355,0.0001324180066874756,0.000954917357365206,0.00906477387573683,0.00016437161949324258,0.011505823082070517,113,2025-10-03T11:18:28.320093
3,332,779.3103448275863,cooling,3.390489005347618e-05,1.1301433052382528e-07,3.424258265990383e-05,2.7124334323250477e-05,1.0080626292441471e-07,2.7462802786533906e-05,3.107483771994416e-05,3.136055635319595e-05,0,2025-10-03T11:20:28.323002
3,334,765.5172413793103,cooling,3.0079417071212145e-05,8.518007705997136e-08,3.042127387065947e-05,2.408895475346563e-05,9.021267223805282e-08,2.4363107579421107e-05,2.7576894215054727e-05,2.779051964537076e-05,0,2025-10-03T11:22:28.325724
3,336,751.7241379310345,cooling,2.649399942913584e-05,8.187374306566179e-08,2.679950720866771e-05,2.1200820226306336e-05,7.603417762610269e-08,2.1414184336155588e-05,2.4284251484813913e-05,2.4515585905730062e-05,0,2025-10-03T11:24:28.328545
3,338,737.9310344827586,cooling,5.9673578436644783e-05,0.0006780302358745605,0.01263214615335162,4.407384674136598e-05,0.0004746233868944695,0.008844869458552269,5.367616026764803e-05,0.011228224573570358,29,2025-10-03T11:26:28.331614
3,340,724.1379310344828,cooling,5.589876247106733e-05,0.0006671335138554419,0.012426324578656854,4.112086650165222e-05,0.0004669914373753205,0.008700381164348944,5.023544102108939e-05,0.01104519871408151,29,2025-10-03T11:28:28.334654
3,342,710.344827586207,cooling,0.0001539765963541971,0.0012819475373909057,0.012145271130741186,0.00010947482411667263,0.0008973665189052733,0.008503433409879763,0.00013732487354178237,0.010795328440681012,113,2025-10-03T11:30:28.337607
3,344,696.551724137931,cooling,1.4101909596388457e-05,3.9404235647817315e-08,1.4224815005393385e-05,1.1287378970987792e-05,4.530095434060071e-08,1.1425644172658322e-05,1.292668394490755e-05,1.3033455424111418e-05,0,2025-10-03T11:32:28.340434
3,346,682.7586206896551,cooling,1.1449650866343423e-05,3.2851418840534155e-08,1.1583689901538073e-05,9.156181595189618e-06,3.276018350488011e-08,9.277884562201594e-06,1.0492732842338165e-05,1.0596847919100035e-05,0,2025-10-03T11:34:28.343322
3,348,668.9655172413793,cooling,8.93011515165007e-06,2.7388058379940085e-08,9.028047564252898e-06,7.150552640422572e-06,2.7672497567354908e-08,7.241958546633439e-06,8.186800697669869e-06,8.249636139126554e-06,0,2025-10-03T11:36:28.346114
3,350,655.1724137931035,cooling,6.554412387568789e-06,1.8794493250818322e-08,6.6274191118517414e-06,5.241189508745792e-06,2.030400963476506e-08,5.322275102929647e-06,6.006530417315827e-06,6.057578443519843e-06,0,2025-10-03T11:38:28.348916
3,352,641.3793103448277,cooling,5.443060964584065e-05,0.0007147126145206992,0.010239580469308878,3.853201325926653e-05,0.0005002990965058839,0.007168142757422762,4.84983157373947e-05,0.009101235139061734,0,2025-10-03T11:40:28.351904
3,354,627.5862068965517,cooling,2.0965822520903458e-06,5.960643619887728e-09,2.1175379299813634e-06,1.6765029720342307e-06,6.2188780612488045e-09,1.7051819063449417e-06,1.9213214953317623e-06,1.9388584878816512e-06,0,2025-10-03T11:42:28.354778
3,356,613.7931034482758,cooling,-2.0347537482202267e-08,9.835714776476033e-10,-1.458837808863394e-08,-1.6380489923057406e-08,8.818371016092328e-10,-1.2374780293266202e-08,1.8736377219511577e-08,2.1971912382534844e-08,0,2025-10-03T11:44:28.357580
3,358,600.0,cooling,3.066605699146614e-05,0.000607389826606436,0.011293251650784859,2.1257453401431237e-05,0.00042517267737129157,0.007905062172955947,3.101934042529112e-05,0.010037613315358757,29,2025-10-03T11:46:28.360667
4,360,600.0,heating,-3.203895360636838e-11,1.0401398625875036e-09,3.1911591358460337e-09,-4.465034480623046e-11,9.311858379321167e-10,3.367061187951171e-09,1.5178845971095912e-09,4.116784847963912e-09,0,2025-10-03T11:48:28.365954
4,362,613.7931034482758,heating,7.2711325355360555e-06,2.5550555976768823e-08,7.352670535587086e-06,5.8190588661224195e-06,2.5604289208138235e-08,5.896656747560065e-06,6.664913975815441e-06,6.717921381262705e-06,0,2025-10-03T11:50:28.371511
4,364,627.5862068965517,heating,0.0001880456339468119,0.0015137742829936644,0.013854650727679527,0.00013308786960075595,0.0010596434241644552,0.009699708544742044,0.000167541297262544,0.012314600119629785,130,2025-10-03T11:52:28.374672
4,366,641.3793103448276,heating,2.1686699379232193e-05,7.078384232342131e-08,2.1913671013122482e-05,1.7343200685003622e-05,7.774254919178394e-08,1.7655177058714003e-05,1.9874475242484885e-05,2.009715108586971e-05,0,2025-10-03T11:54:28.377452
4,368,655.1724137931035,heating,0.00018703176116442234,0.0014803699119098832,0.014034468710056985,0.00013379039460425832,0.001036277118768569,0.009827145095095108,0.00016702995309055723,0.012474766733534879,113,2025-10-03T11:56:28.380445
4,370,668.9655172413793,heating,0.0001862914757411058,0.0014085402522748616,0.013361824160611156,0.00013393832070418283,0.000985976724067146,0.009356772615981964,0.00016655506109634427,0.01187700547629544,113,2025-10-03T11:58:28.383508
4,372,682.7586206896551,heating,4.244572372357301e-05,1.4761875455431062e-07,4.292846202853913e-05,3.395986078039444e-05,1.5459613912328294e-07,3.459515332908549e-05,3.8903816557869366e-05,3.9423742422618315e-05,0,2025-10-03T12:00:28.386247
4,374,696.551724137931,heating,0.00047660796102126423,0.0023870135252223226,0.01405372974405055,0.0003385391060114073,0.001670898544788488,0.009842624444592022,0.0004249726621696319,0.012492299668988146,311,2025-10-03T12:02:28.392350
4,376,710.3448275862069,heating,5.543270849021411e-05,1.8118925697203984e-07,5.600112845660316e-05,4.432659039413961e-05,1.9042330476019976e-07,4.526680068088366e-05,5.079927581993291e-05,5.145892514689615e-05,0,2025-10-03T12:04:28.395280
4,378,724.1379310344828,heating,0.0002132879159903741,0.0014199919596519514,0.0134960954727749,0.00015547023931387113,0.0009940077738263297,0.009453617650860299,0.00019128112890880652,0.01199692714961828,113,2025-10-03T12:06:28.400327
4,380,737.9310344827586,heating,6.739215382493954e-05,2.296241787440648e-07,6.819293455297914e-05,5.3907083637743294e-05,2.3691234844140188e-07,5.487147313334116e-05,6.176470022383067e-05,6.235112130139873e-05,0,2025-10-03T12:08:28.403141
4,382,751.7241379310344,heating,0.00044199267787749924,0.0021161467256940987,0.013654269452321583,0.0003167249427549972,0.0014813103057738496,0.009565476010533395,0.00039487339239578764,0.012137819916052749,298,2025-10-03T12:10:28.406221
4,384,765.5172413793103,heating,7.81376364338531e-05,2.6994421916542506e-07,7.918018932472174e-05,6.254533717803135e-05,2.934919228871432e-07,6.342871263976902e-05,7.162710395620947e-05,7.246838691964094e-05,0,2025-10-03T12:12:28.409060
4,386,779.3103448275862,heating,8.315041118013427e-05,2.723096105189497e-07,8.42597474129545e-05,6.652341744209187e-05,3.1181585597523095e-07,6.76138433657249e-05,7.621097517135093e-05,7.693040495116088e-05,0,2025-10-03T12:14:28.411828
4,388,793.1034482758621,heating,8.775740113133202e-05,3.2604904423422696e-07,8.871708590540867e-05,7.022238349547078e-05,2.964460617989057e-07,7.117133411211439e-05,8.043767597800898e-05,8.113474314083848e-05,0,2025-10-03T12:16:28.414573
4,390,806.8965517241379,heating,9.207709660523537e-05,3.0549213913491884e-07,9.34307143947429e-05,7.364059738938775e-05,3.3795301216847215e-07,7.476390990569607e-05,8.43845608114876e-05,8.516831260296287e-05,0,2025-10-03T12:18:28.417227
4,392,820.6896551724137,heating,9.604284824145255e-05,3.7056402024692697e-07,9.73434310926295e-05,7.682176609991484e-05,3.451115700612498e-07,7.819336947778761e-05,8.802225697166391e-05,8.89566080881281e-05,0,2025-10-03T12:20:28.419965
4,394,834.4827586206897,heating,9.969841049686836e-05,3.2597988530725227e-07,0.00010076732778101212,7.974815771402308e-05,3.678576206157534e-07,8.08124744768559e-05,9.137299479171133e-05,9.223856968471682e-05,0,2025-10-03T12:22:28.422745
4,396,848.2758620689655,heating,0.00010303161664895488,3.440501953503523e-07,0.00010460651949586381,8.237678602273434e-05,3.339326160286062e-07,8.365100365192639e-05,9.441557410645161e-05,9.532858682390878e-05,0,2025-10-03T12:24:28.425439
4,398,862.0689655172414,heating,0.00010606418398739039,3.5494323614157776e-07,0.00010725684157190945,8.483322998004094e-05,4.034936004346506e-07,8.604959813801408e-05,9.720516276881269e-05,9.811954235457923e-05,0,2025-10-03T12:26:28.428217
4,400,875.8620689655172,heating,0.00010875966335213569,3.4656911865508426e-07,0.00011010358698473573,8.697966382689496e-05,3.6703975964470897e-07,8.866867495365088e-05,9.967212752945845e-05,0.00010058165767516593,0,2025-10-03T12:28:28.430981
4,402,889.655172413793,heating,0.0001629482035523781,0.0007378130704883402,0.010677768296369758,0.00012517309123207267,0.000516463917407456,0.007485310201992215,0.0001479066503438091,0.009493031046590874,0,2025-10-03T12:30:28.433995
4,404,903.448275862069,heating,0.00011336251741391327,3.35979745407959e-07,0.00011456472236301123,9.066613700089174e-05,3.5858998898460803e-07,9.230953678301818e-05,0.00010389213362550925,0.00010511789691576475,0,2025-10-03T12:32:28.436847
4,406,917.2413793103449,heating,0.00011518579034340135,4.2079120761399664e-07,0.00011650810104340683,9.214630627953706e-05,4.0397919817813696e-07,9.353342985440446e-05,0.00010557040102627888,0.00010672721185408802,0,2025-10-03T12:34:28.439667
4,408,931.0344827586207,heating,0.0002792519989239142,0.0015180898895073383,0.014479865288153626,0.0002071520638709333,0.001062644006080842,0.010147347209629733,0.0002514321932268091,0.012872498336597732,113,2025-10-03T12:36:28.442641
4,410,944.8275862068965,heating,0.00011844052733563058,4.2878539244298296e-07,0.00011985524927769667,9.47872614144349e-05,4.027359497958358e-07,9.625332883734901e-05,0.00010856566989545501,0.00010955002744591954,0,2025-10-03T12:38:28.445560
4,412,958.6206896551723,heating,0.00033455204447837883,0.0017458728913799285,0.014530853235466072,0.00024610707275314,0.0012222064703070906,0.010184761196835593,0.00030064592929941107,0.012918233435553496,149,2025-10-03T12:40:28.448632
4,414,972.4137931034483,heating,0.00012101113490428568,4.119342428810023e-07,0.0001224352339812484,9.678975110291838e-05,3.9842720775389784e-07,9.82925674716068e-05,0.00011090396142203891,0.00011199829878277389,0,2025-10-03T12:42:28.451446
4,416,986.2068965517242,heating,0.00012217366177751308,4.125954394879812e-07,0.00012348605382651593,9.765006372478184e-05,4.1133078859936027e-07,9.922285109674048e-05,0.00011194640579800037,0.00011309334953285939,0,2025-10-03T12:44:28.454171
4,418,1000.0,heating,0.0003165567276536847,0.0015730498247823153,0.013107564501064938,0.00023387898591138923,0.0011011547333346678,0.009188170246221808,0.0002847564904888044,0.01165293777972547,149,2025-10-03T12:46:28.457282
4,420,1000.0,cooling,0.00015711835004242545,0.0006886706648840695,0.012927313829583693,0.00012199010442644205,0.00048203600673949327,0.009060522863765672,0.00014297582457599333,0.011492533606274847,29,2025-10-03T12:48:28.464810
4,422,986.2068965517242,cooling,0.00021215538602266254,0.001100045047522852,0.012385538257722106,0.0001598438898370955,0.0007700172461887436,0.008681546577950292,0.00019170706548054273,0.011011020760199062,81,2025-10-03T12:50:28.467845
4,424,972.4137931034483,cooling,0.00030798574041398684,0.0016461495777847972,0.01369325239936287,0.00022608049206328061,0.0011522882667648177,0.009595977765795514,0.0002766396618037647,0.012173181217919543,149,2025-10-03T12:52:28.470921
4,426,958.6206896551724,cooling,9.837335564345979e-05,3.291346686682546e-07,9.968864853282411e-05,7.864889061835753e-05,3.4523844913602563e-07,7.972894461011567e-05,9.014582645658166e-05,9.119320522381324e-05,0,2025-10-03T12:54:28.473778
4,428,944.8275862068965,cooling,0.000145772911108314,0.0007764381015644032,0.011210833852840836,0.00011106851523263122,0.0005434976197714913,0.00785681333717572,0.0001320600163121028,0.009966467252833061,0,2025-10-03T12:56:28.476768
4,430,931.0344827586207,cooling,8.431323605121207e-05,2.804015079493143e-07,8.523028327596698e-05,6.742705762658157e-05,2.8634973616330167e-07,6.850651008054394e-05,7.726779211624756e-05,7.80678271038957e-05,0,2025-10-03T12:58:28.479571
4,432,917.2413793103449,cooling,7.75288348180453e-05,2.5093650717598547e-07,7.852257365848804e-05,6.199410224510452e-05,2.726649746081104e-07,6.295743669777965e-05,7.104804527162967e-05,7.169395816075701e-05,0,2025-10-03T13:00:28.482436
4,434,903.448275862069,cooling,0.00014244077514658976,0.0010188991165592512,0.01466274037771538,0.00010679670007993476,0.0007132392069623301,0.010271072749496847,0.0001285660763575658,0.013034116950928725,49,2025-10-03T13:02:28.485407
4,436,889.6551724137931,cooling,0.0003771993530870504,0.0020417951529520875,0.014858146166325909,0.00027051187803858354,0.0014292435735901632,0.010407062002450684,0.00033704868137497966,0.013207626034561909,230,2025-10-03T13:04:28.488481
4,438,875.8620689655172,cooling,0.0001708192523202721,0.001242843100846311,0.013924504461449229,0.00012536684512932212,0.0008699856562181202,0.009752778072718685,0.000153427631062126,0.012377620278420513,81,2025-10-03T13:06:28.491668
4,440,862.0689655172414,cooling,5.262103199807997e-05,1.6368188411155323e-07,5.330567052035534e-05,4.211021020206583e-05,1.7693074979861506e-07,4.267575263194539e-05,4.823306033771714e-05,4.8741349970469664e-05,0,2025-10-03T13:08:28.494537
4,442,848.2758620689656,cooling,4.702951679873975e-05,1.729779568474701e-07,4.7538704838620166e-05,3.7632852503981296e-05,1.6692138670248006e-07,3.822489231591802e-05,4.310704810148115e-05,4.345471171321757e-05,0,2025-10-03T13:10:28.497316
4,444,834.4827586206897,cooling,7.804312118900809e-05,0.000671284885286212,0.012525553055292835,5.8816616217631434e-05,0.0004698941312628457,0.008771978335273963,7.052579879374042e-05,0.011133863036873396,29,2025-10-03T13:12:28.500296
4,446,820.6896551724138,cooling,3.685552002739379e-05,1.1606393906054166e-07,3.719419831294207e-05,2.949935382693814e-05,1.2245582029425427e-07,2.9929662892182096e-05,3.378401563970676e-05,3.4050610477107194e-05,0,2025-10-03T13:14:28.503164
4,448,806.8965517241379,cooling,0.0001408682222123096,0.001202168230890901,0.013444317287807277,0.00010183369522745354,0.0008415201058304751,0.009414329685940016,0.00012609907453183124,0.011950306411593668,81,2025-10-03T13:16:28.506165
4,450,793.1034482758621,cooling,2.7937157250279936e-05,9.354879028897874e-08,2.830140450361565e-05,2.2351839783172276e-05,9.382040679534185e-08,2.2616768372704694e-05,2.5605914682440158e-05,2.581832996324934e-05,0,2025-10-03T13:18:28.508950
4,452,779.3103448275863,cooling,0.00023664815569328699,0.0015125917916298042,0.01119423119537867,0.00016806034781900655,0.0010588015575563193,0.007838201523229258,0.0002110027257489472,0.009950125053835933,0,2025-10-03T13:20:28.512116
4,454,765.5172413793103,cooling,6.239837456732325e-05,0.000780282763277437,0.014530918303471035,4.571262570938819e-05,0.0005461994472013689,0.01017369682616815,5.6024216600349884e-05,0.012915817892778568,29,2025-10-03T13:22:28.515052
4,456,751.7241379310345,cooling,1.6988153518791894e-05,5.7757925489965136e-08,1.718772248513902e-05,1.3601713778268576e-05,5.537797605233941e-08,1.3886073120374133e-05,1.5573792498825558e-05,1.571331494143859e-05,0,2025-10-03T13:24:28.517829
4,458,737.9310344827586,cooling,0.00015895677043031243,0.0012632574601352958,0.011255015988805081,0.00011266612969018698,0.0008842812986477827,0.007879957632623169,0.0001416697422687694,0.010003993645488488,49,2025-10-03T13:26:28.520965
4,460,724.1379310344828,cooling,0.0001328205610314533,0.0011370379199352812,0.010768591806508057,9.409836382094905e-05,0.0007959249639159769,0.0075391538900638115,0.00011836419600404589,0.009571580427034182,0,2025-10-03T13:28:28.523967
4,462,710.344827586207,cooling,8.835639065225864e-06,3.040025399474065e-08,8.944844483271289e-06,7.066509777250046e-06,3.183199274769371e-08,7.183132744250022e-06,8.097475548806265e-06,8.168500629273607e-06,0,2025-10-03T13:30:28.526825
4,464,696.551724137931,cooling,6.669482585182403e-06,2.2603724973027602e-08,6.760290542303799e-06,5.336766678772555e-06,2.444443648594792e-08,5.4087306971262116e-06,6.113165043374549e-06,6.178638957377646e-06,0,2025-10-03T13:32:28.529696
4,466,682.7586206896551,cooling,4.7540438838788574e-06,1.6531772248848035e-08,4.804338621150307e-06,3.800733265382539e-06,1.5853395092167647e-08,3.870241178191641e-06,4.356397671843446e-06,4.392446289302955e-06,0,2025-10-03T13:34:28.532526
4,468,668.9655172413793,cooling,3.399673724705651e-05,0.000573722679113637,0.010672311452864092,2.4101809692754266e-05,0.0004016050900344468,0.007470902634269958,3.0301112519802615e-05,0.009485821416181369,0,2025-10-03T13:36:28.535527
4,470,655.1724137931035,cooling,1.5525080665489813e-06,5.295079636268228e-09,1.5687551123297467e-06,1.240990237624363e-06,5.613444826250182e-09,1.26037838302245e-06,1.4225852362869262e-06,1.4362636966344124e-06,0,2025-10-03T13:38:28.538366
4,472,641.3793103448277,cooling,2.115723938711284e-07,9.374247586046197e-10,2.1496028334864877e-07,1.6948422379224e-07,1.0006391472821621e-09,1.7271405001747092e-07,1.939894804117312e-07,1.9623404107453072e-07,0,2025-10-03T13:40:28.541169
4,474,627.5862068965517,cooling,3.948888644213427e-05,0.000750663465449618,0.013958734987480344,2.7543000658980917e-05,0.0005254640174368105,0.009771009333208153,3.6888235337938376e-05,0.012406770905873766,29,2025-10-03T13:42:28.544108
4,476,613.7931034482758,cooling,-2.099590488948957e-06,7.180367660691443e-09,-2.0698642976034647e-06,-1.679302675640531e-06,7.833396934480425e-09,-1.6543207910403994e-06,1.924221080200327e-06,1.941448358574733e-06,0,2025-10-03T13:44:28.546705
4,478,600.0,cooling,9.621055805322779e-05,0.0010993475405752045,0.012261625737632321,6.703308018924967e-05,0.0007695447087864959,0.008582841186429959,9.11255361926985e-05,0.010898300592975344,81,2025-10-03T13:46:28.550360
5,480,600.0,heating,0.00011152566537276185,0.0012341443795251018,0.013768593261818821,7.806804911765352e-05,0.0008639010329334335,0.009638015286792291,9.912757681304876e-05,0.012237792929729869,81,2025-10-03T13:48:28.557968
5,482,613.7931034482758,heating,7.381973114588516e-05,0.0009333857596398576,0.013375221393710711,5.2505160562877975e-05,0.0006533703437866747,0.00936348924331979,6.584255836384034e-05,0.011888344386818498,49,2025-10-03T13:50:28.565544
5,484,627.5862068965517,heating,1.659340258518289e-05,6.225214100447386e-08,1.6803578818947364e-05,1.3272451738894795e-05,6.85521920813575e-08,1.3549742140849898e-05,1.5207675476645499e-05,1.536874986238949e-05,0,2025-10-03T13:52:28.568409
5,486,641.3793103448276,heating,9.824526397498795e-05,0.0010469385031828947,0.015017890909005432,7.12475820987436e-05,0.0007328557350051559,0.010514990880133787,8.800774346922389e-05,0.013348738715543299,49,2025-10-03T13:54:28.571350
5,488,655.1724137931035,heating,3.283548620734651e-05,1.2396446532718998e-07,3.3417188032884614e-05,2.6263048249339903e-05,1.4195455309678315e-07,2.6718686723747353e-05,3.009312379854389e-05,3.038531830234898e-05,0,2025-10-03T13:56:28.574054
5,490,668.9655172413793,heating,0.00015891953549001343,0.0011058866403954762,0.01050345923533865,0.00011531973442801469,0.0007741174289524133,0.007356504409587959,0.00014237852137580315,0.009336553397645966,0,2025-10-03T13:58:28.577175
5,492,682.7586206896551,heating,4.8337765901158604e-05,1.8035206690898144e-07,4.891915383301662e-05,3.8675867422817424e-05,1.959106225114917e-07,3.9282673213247363e-05,4.4305021915027895e-05,4.4739379078845055e-05,0,2025-10-03T14:00:28.579935
5,494,696.551724137931,heating,5.571999685070287e-05,2.2120185086886968e-07,5.666066910689009e-05,4.4599052309201415e-05,2.2510125330473052e-07,4.526737660938149e-05,5.107685045644821e-05,5.159297858808114e-05,0,2025-10-03T14:02:28.582680
5,496,710.3448275862069,heating,6.283726170290676e-05,2.523868865725617e-07,6.358054183686885e-05,5.031595788929946e-05,2.7201635309208977e-07,5.109582715102021e-05,5.7607771701718104e-05,5.81457680247394e-05,0,2025-10-03T14:04:28.585427
5,498,724.1379310344828,heating,6.958298442222439e-05,2.6490945468729745e-07,7.042245566144805e-05,5.561953801454066e-05,2.480252454303532e-07,5.6416180108454325e-05,6.375979036904914e-05,6.428566638465869e-05,0,2025-10-03T14:06:28.588300
5,500,737.9310344827586,heating,7.607420017337633e-05,3.1048087309832025e-07,7.70657751947037e-05,6.078661240257459e-05,2.944070390517182e-07,6.174081998470537e-05,6.970074644085886e-05,7.040101358602852e-05,0,2025-10-03T14:08:28.591117
5,502,751.7241379310344,heating,8.204713281940642e-05,3.3034150488401603e-07,8.364437226450599e-05,6.568544931491471e-05,3.204720718054186e-07,6.692876978872832e-05,7.521474812109054e-05,7.649463190979614e-05,0,2025-10-03T14:10:28.593818
5,504,765.5172413793103,heating,0.00019678946683758156,0.0012074641529075118,0.013558943562046637,0.000146543030653328,0.0008452142638880917,0.009500413553727334,0.00017734404039585996,0.01205331393993623,81,2025-10-03T14:12:28.596793
5,506,779.3103448275862,heating,9.290105195223013e-05,3.69376568431131e-07,9.408845441635574e-05,7.43428565191727e-05,3.6737787403547974e-07,7.562420733802473e-05,8.515406059690991e-05,8.610881806078924e-05,0,2025-10-03T14:14:28.599561
5,508,793.1034482758621,heating,9.760548511487928e-05,3.6166858543467204e-07,9.876941357010109e-05,7.813607123512927e-05,4.429806357825136e-07,7.948236326870472e-05,8.947607692532305e-05,9.027183710859858e-05,0,2025-10-03T14:16:28.602371
5,510,806.8965517241379,heating,0.00010207341741790795,4.0526077593079113e-07,0.00010347222383835554,8.164694615541848e-05,3.8504899669008963e-07,8.38601319607315e-05,9.355009425517936e-05,9.443105427803942e-05,0,2025-10-03T14:18:28.605118
5,512,820.6896551724137,heating,0.00010599396165900252,4.190003450739769e-07,0.0001072333128494858,8.483901483635467e-05,4.445931448262897e-07,8.621999824434643e-05,9.716155366675592e-05,9.824725186192056e-05,0,2025-10-03T14:20:28.607886
5,514,834.4827586206897,heating,0.00010949833434438223,4.1342591203551245e-07,0.00011064286059127,8.758913364942966e-05,4.3314303552005e-07,8.949981890908214e-05,0.00010035570764009212,0.0001011746140174416,0,2025-10-03T14:22:28.610716
5,516,848.2758620689655,heating,0.00011250517846542753,4.518689190751728e-07,0.00011472619799691636,9.004911992077564e-05,4.4004571591616295e-07,9.140945700865113e-05,0.00010312959603636165,0.00010430003220521934,0,2025-10-03T14:24:28.613532
5,518,862.0689655172414,heating,0.00011518553192214522,4.254904243357805e-07,0.00011643629756534859,9.212760372118326e-05,4.655375590428033e-07,9.38509729082824e-05,0.00010556468588247452,0.00010644675231963342,0,2025-10-03T14:26:28.616313
5,520,875.8620689655172,heating,0.00011740584637020701,4.938323928111168e-07,0.0001191126042574649,9.393596483184578e-05,4.620820041235845e-07,9.536721480128873e-05,0.00010761012286742639,0.00010894151994908693,0,2025-10-03T14:28:28.619022
5,522,889.655172413793,heating,0.00023381002170235518,0.0011530669128627044,0.012468310945220074,0.00017553146944801715,0.0008071266559767697,0.008740274360786724,0.00021109407367634776,0.011084821348075091,49,2025-10-03T14:30:28.622112
5,524,903.448275862069,heating,0.00012069362160820847,4.872862039545264e-07,0.00012217817828614612,9.663526761791199e-05,4.7369506640805204e-07,9.787382416720245e-05,0.00011064610465764542,0.00011170089508375071,0,2025-10-03T14:32:28.624867
5,526,917.2413793103449,heating,0.0002404837025375969,0.0013112405139658894,0.014751297068931765,0.00018047913281272595,0.0009179110693536295,0.010338525420791665,0.00021710283447849167,0.01311398247142751,81,2025-10-03T14:34:28.627879
5,528,931.0344827586207,heating,0.00032425356300753663,0.0016379096594611583,0.013642502531137695,0.00023927719243386974,0.0011465539317366635,0.00956273552854861,0.00029160323008794195,0.012128463150805159,149,2025-10-03T14:36:28.630744
5,530,944.8275862068965,heating,0.00026585101397215264,0.0013322577618230026,0.012728028693335563,0.00019845273671684075,0.0009325212505823478,0.008921692338006871,0.00023971262920550123,0.011315450087854102,113,2025-10-03T14:38:28.633708
5,532,958.6206896551723,heating,0.0002889603059935043,0.0015443149172909149,0.014734703699858293,0.0002145461960497328,0.001080952708963468,0.010326517960118492,0.00026022347961363,0.013098918538262687,113,2025-10-03T14:40:28.636714
5,534,972.4137931034483,heating,0.00012406256389840427,4.860360846659801e-07,0.00012574967971092028,9.927343788020056e-05,4.5856593910792036e-07,0.00010131699554689034,0.00011371517074151654,0.00011502629234797961,0,2025-10-03T14:42:28.639448
5,536,986.2068965517242,heating,0.0002682562506095985,0.0013471324197889733,0.012869774364345823,0.00020016302467107882,0.0009430323994295968,0.009022004619107325,0.00024185373815743997,0.011441775351107424,113,2025-10-03T14:44:28.642403
5,538,1000.0,heating,0.00012409948182378808,4.863642358121303e-07,0.00012555642817069126,9.94097091675859e-05,4.554532855761433e-07,0.000100833569426268,0.00011378384407701818,0.00011487259927565232,0,2025-10-03T14:46:28.645244
5,540,1000.0,cooling,0.0003872255651669792,0.0019035522558599595,0.023183038465991717,0.00028311250984492205,0.001332447390534008,0.016239989957536075,0.00034750463921544473,0.020608207963799804,207,2025-10-03T14:48:28.658107
5,542,986.2068965517242,cooling,0.0001474403321927939,0.0006628844182454335,0.012439331768721544,0.00011439070058811715,0.00046404041251828704,0.008719352629211318,0.00013414570592849175,0.011058927554955722,29,2025-10-03T14:50:28.661193
5,544,972.4137931034483,cooling,0.00010347413637118097,4.2804066402654706e-07,0.00010488862105339009,8.26733932419353e-05,4.4890772461446996e-07,8.417366873874362e-05,9.480328793729301e-05,9.603737126322856e-05,0,2025-10-03T14:52:28.664044
5,546,958.6206896551724,cooling,9.529842007515352e-05,3.6672601215706414e-07,9.663766716167572e-05,7.621626116911917e-05,4.0391611489631615e-07,7.75645807299791e-05,8.733695876508739e-05,8.834874736585444e-05,0,2025-10-03T14:54:28.666875
5,548,944.8275862068965,cooling,8.72011611103755e-05,3.468114392788632e-07,8.828867529847737e-05,6.975545002511454e-05,3.463895231595972e-07,7.11422466831613e-05,7.992100922666934e-05,8.06356147107424e-05,0,2025-10-03T14:56:28.669725
5,550,931.0344827586207,cooling,7.930844103436516e-05,3.201989472527403e-07,8.044625221841478e-05,6.348110565803988e-05,3.1097160040933843e-07,6.449925664515602e-05,7.270010613092277e-05,7.352104492483656e-05,0,2025-10-03T14:58:28.672599
5,552,917.2413793103449,cooling,7.1699031310825e-05,2.610324200111625e-07,7.247988564816473e-05,5.729917088020382e-05,2.6929687234645044e-07,5.8425380151973584e-05,6.569491672140355e-05,6.635885251110653e-05,0,2025-10-03T15:00:28.675380
5,554,903.448275862069,cooling,0.0002472334668848992,0.0014877903536776919,0.01234514906720948,0.0001794874617305832,0.0010414275200121353,0.00864787368646529,0.00022152168729518902,0.01097401495630921,149,2025-10-03T15:02:28.678422
5,556,889.6551724137931,cooling,9.462445189893386e-05,0.0006943811489945881,0.012970379000475062,7.193806442285876e-05,0.0004860652047664439,0.009084911757963004,8.568228618359295e-05,0.011529588315649089,29,2025-10-03T15:04:28.681421
5,558,875.8620689655172,cooling,0.00011421639344253882,0.000909528692556025,0.013075681870180657,8.499992888833679e-05,0.0006366554481452653,0.00915798696361233,0.00010291619338484655,0.011623041855386696,49,2025-10-03T15:06:28.684588
5,560,862.0689655172414,cooling,0.00027356020884704323,0.0017894559323871964,0.014358654954527764,0.0001959011693380179,0.0012526189996777395,0.010055563131537302,0.00024436455958718427,0.012763239653030842,162,2025-10-03T15:08:28.687646
5,562,848.2758620689656,cooling,9.735840009023206e-05,0.0008469524084316635,0.012167084713517027,7.196901718501828e-05,0.0005928555064517948,0.008520627555188618,8.759262973137059e-05,0.010815159833650879,49,2025-10-03T15:10:28.690653
5,564,834.4827586206897,cooling,3.228791967108703e-05,1.1385625581070215e-07,3.2730064812905334e-05,2.583844048804118e-05,1.368103818501867e-07,2.6254045516592705e-05,2.959556856532627e-05,2.9921543930549876e-05,0,2025-10-03T15:12:28.693446
5,566,820.6896551724138,cooling,2.7102917122555704e-05,1.0312921890395435e-07,2.7634540577208363e-05,2.1682012746676886e-05,1.0527909650297022e-07,2.2007686502632906e-05,2.484061848503567e-05,2.5177474283167193e-05,0,2025-10-03T15:14:28.696283
5,568,806.8965517241379,cooling,2.228808683386913e-05,8.824236453529499e-08,2.258270543189293e-05,1.7825883622056407e-05,8.728103364461324e-08,1.815579407941699e-05,2.0426290678387424e-05,2.0626988742675535e-05,0,2025-10-03T15:16:28.699097
5,570,793.1034482758621,cooling,4.8620096096943546e-05,0.0005690008049662412,0.010599389401870008,3.582590722159772e-05,0.00039829951730308407,0.007421351599835941,4.371075293149678e-05,0.009421341066753726,0,2025-10-03T15:18:28.702102
5,572,779.3103448275863,cooling,0.00011690954058985453,0.0011386623363874914,0.01271740167991061,8.323178065084673e-05,0.0007970631951599407,0.008903592998662993,0.00010429723090231262,0.011303784820135011,81,2025-10-03T15:20:28.705095
5,574,765.5172413793103,cooling,1.0529175375902628e-05,4.297162156259717e-08,1.065294899542711e-05,8.429022802671667e-06,3.885276094555268e-08,8.543773770035896e-06,9.652187231575018e-06,9.744295935928576e-06,0,2025-10-03T15:22:28.707833
5,576,751.7241379310345,cooling,7.472428123903528e-06,2.8731819406059354e-08,7.568053188946376e-06,5.980731808767077e-06,3.278405087777975e-08,6.113005756078617e-06,6.849670893274667e-06,6.92964159560345e-06,0,2025-10-03T15:24:28.710670
5,578,737.9310344827586,cooling,0.00017645021092162802,0.001395377125699379,0.01152236109441676,0.00012399627131252146,0.000976762892874461,0.008066144465518024,0.0001569652155938281,0.010241404666976166,149,2025-10-03T15:26:28.713763
5,580,724.1379310344828,cooling,2.5995587935847166e-06,9.97388880110902e-09,2.6377383828932236e-06,2.079791333546828e-06,1.0063974256866751e-08,2.1154532469186766e-06,2.3826261020458743e-06,2.416847792662065e-06,0,2025-10-03T15:28:28.716680
5,582,710.344827586207,cooling,7.423595060263746e-07,2.9005669899989024e-09,7.524822863864296e-07,5.942681983878206e-07,2.9545428380090977e-09,6.072860287379178e-07,6.805228269676613e-07,6.868668534539538e-07,0,2025-10-03T15:30:28.719461
5,584,696.551724137931,cooling,-7.601861445278532e-07,3.1306605216534673e-09,-7.470010694971109e-07,-6.081184605002333e-07,3.25844096640896e-09,-5.944663733174783e-07,6.967274225816035e-07,7.028537238701911e-07,0,2025-10-03T15:32:28.722235
5,586,682.7586206896551,cooling,6.820741891182913e-05,0.0009996074945960842,0.014313289152210952,4.755118189102611e-05,0.0006997257476441485,0.010019115725165083,6.410411993215932e-05,0.012721886646831658,49,2025-10-03T15:34:28.725271
5,588,668.9655172413793,cooling,5.01368538532569e-05,0.0007546983976288854,0.010805103710922385,3.48145329416844e-05,0.0005282890771330358,0.007563294713770029,4.96316521521181e-05,0.009603722856960458,0,2025-10-03T15:36:28.728276
5,590,655.1724137931035,cooling,8.899116461455073e-05,0.0010229401486886555,0.011408895254326713,6.19489664941258e-05,0.0007160579562567778,0.00798588038388141,8.527194250438281e-05,0.010140364695989943,81,2025-10-03T15:38:28.731282
5,592,641.3793103448277,cooling,-3.854680253308751e-06,1.5188691685885077e-08,-3.788508387722931e-06,-3.0871655572263663e-06,1.580709913322665e-08,-3.034438300696575e-06,3.534067954265967e-06,3.5792222593509223e-06,0,2025-10-03T15:40:28.734070
5,594,627.5862068965517,cooling,-4.0851298383240054e-06,1.5446008078676163e-08,-4.02045807982778e-06,-3.2691733125927784e-06,1.6384802321349752e-08,-3.221775962979059e-06,3.7445058734694544e-06,3.795765812348331e-06,0,2025-10-03T15:42:28.736946
5,596,613.7931034482758,cooling,-4.177043150794171e-06,1.5970118379568356e-08,-4.11907200341036e-06,-3.341536433240837e-06,1.7381307456250095e-08,-3.288072961882857e-06,3.828365437522676e-06,3.8749115646690035e-06,0,2025-10-03T15:44:28.739751
5,598,600.0,cooling,0.0001528019413225455,0.0013719355567961683,0.013263539424197257,0.00010654363911492572,0.0009603538045557116,0.009284070894983577,0.0001432627541414013,0.011788799056223575,130,2025-10-03T15:46:28.742931
6,600,600.0,heating,0.0001684086559310895,0.001369342026337163,0.01130260845755582,0.00011788610012946774,0.000958539357816033,0.007911826540765896,0.00014968651154407539,0.010045977785844618,149,2025-10-03T15:48:28.750790
6,602,613.7931034482758,heating,9.36445896639483e-06,4.3127317903202843e-08,9.544173609963274e-06,7.488175698107394e-06,4.302058567039371e-08,7.686026156316417e-06,8.581814551060716e-06,8.704931186715073e-06,0,2025-10-03T15:50:28.758516
6,604,627.5862068965517,heating,9.731571819671948e-05,0.0010298627243248205,0.013589674776349514,7.000253357000114e-05,0.0007209013835074686,0.009514667772683855,8.7017944546011e-05,0.012079193794388368,58,2025-10-03T15:52:28.761695
6,606,641.3793103448276,heating,2.786131173235848e-05,1.1421575986156161e-07,2.82877463869519e-05,2.2297573334779135e-05,1.1744047354984931e-07,2.2671078793265207e-05,2.553871848776874e-05,2.5862208982173164e-05,0,2025-10-03T15:54:28.764567
6,608,655.1724137931035,heating,3.688517015319269e-05,1.660103922175819e-07,3.744441041058688e-05,2.9499190279571654e-05,1.5981113164064238e-07,3.0102004939716212e-05,3.380386087974736e-05,3.4172367194561985e-05,0,2025-10-03T15:56:28.767469
6,610,668.9655172413793,heating,0.00020789508892973365,0.0013186749551672493,0.010930335705514348,0.0001500834412623774,0.0009230763721277705,0.0076559138779883325,0.0001860400206452156,0.009716056662637218,0,2025-10-03T15:58:28.770526
6,612,682.7586206896551,heating,5.4219479146443364e-05,2.3842832659665256e-07,5.521748243683151e-05,4.334166920557314e-05,2.6404281703489143e-07,4.452113485724934e-05,4.968328031612934e-05,5.043507817479082e-05,0,2025-10-03T16:00:28.773422
6,614,696.551724137931,heating,6.238742730357047e-05,2.8175779757286893e-07,6.332749477411575e-05,4.992905937068135e-05,2.871781480298281e-07,5.0833648807744e-05,5.7186832950219314e-05,5.7895588154460194e-05,0,2025-10-03T16:02:28.776192
6,616,710.3448275862069,heating,7.029443507461723e-05,3.09866830633172e-07,7.172068552725478e-05,5.62193654796189e-05,3.170440519757523e-07,5.742035175793908e-05,6.442230643132643e-05,6.527923867720073e-05,0,2025-10-03T16:04:28.779052
6,618,724.1379310344828,heating,0.0001962921082076425,0.0011095842647052673,0.010575747754676332,0.00014520615889572697,0.0007767160051055623,0.007411075070669073,0.0001766277569320303,0.00940154646795215,0,2025-10-03T16:06:28.782160
6,620,737.9310344827586,heating,0.00019283215042442724,0.0011963646116688873,0.01343227664161262,0.00014348283639576938,0.0008374468514912437,0.009411105408771603,0.0001737472025409554,0.01194078680842379,81,2025-10-03T16:08:28.785151
6,622,751.7241379310344,heating,0.0001539483651771538,0.000894738479348823,0.01290523174461296,0.0001168680195954175,0.0006263098433920132,0.009042605502545513,0.0001393530969638595,0.011472313358375136,49,2025-10-03T16:10:28.788082
6,624,765.5172413793103,heating,0.00022194215910823937,0.0012536653792265464,0.01295851058308324,0.00016508670464362142,0.0008775863968206297,0.00908014603153578,0.0001999576412843981,0.0115196727592499,98,2025-10-03T16:12:28.791279
6,626,779.3103448275862,heating,0.00017092185212294405,0.0009717451297373244,0.014019303312986637,0.0001298254488193865,0.0006801990934156065,0.00982327860369058,0.0001547337752381921,0.012462777609618588,49,2025-10-03T16:14:28.794314
6,628,793.1034482758621,heating,0.0001567733317468479,0.00069959705939128,0.010127109379305175,0.00012045406962635797,0.0004897645490367833,0.007100191373265141,0.000142306957046373,0.00900361761821865,0,2025-10-03T16:16:28.797244
6,630,806.8965517241379,heating,0.00027889585742607234,0.0013563551040799567,0.011307824166812957,0.0002064101963633834,0.0009494201918226637,0.007926732919590878,0.0002509782640067143,0.010053071422967706,149,2025-10-03T16:18:28.800750
6,632,820.6896551724137,heating,0.00017964847729956201,0.0009092141793407622,0.013137472363347958,0.00013744444361258625,0.0006364036965089776,0.00920719623879021,0.00016291841875771396,0.011679245670805173,49,2025-10-03T16:20:28.803716
6,634,834.4827586206897,heating,0.0002085412672852745,0.0009877902080024483,0.01114028736155123,0.0001579295384824921,0.0006914603277271844,0.007810225948519611,0.00018866381305640537,0.009904224882887277,0,2025-10-03T16:22:28.806719
6,636,848.2758620689655,heating,0.000121949045918103,5.165999578102874e-07,0.00012341178796150784,9.765382985813651e-05,5.575263553677331e-07,9.95206220691924e-05,0.00011180200060214158,0.00011310554423118577,0,2025-10-03T16:24:28.809471
6,638,862.0689655172414,heating,0.00012433760886718283,5.0842998571289e-07,0.00012581732915043395,9.943250341735844e-05,5.224632185540751e-07,0.00010099164909954722,0.00011394798818193293,0.00011497715041861724,0,2025-10-03T16:26:28.812298
6,640,875.8620689655172,heating,0.00021065367499643718,0.0009363895429027653,0.010573154600982938,0.00016005607017737292,0.0006554171107443925,0.007413685124959546,0.00019071998978107104,0.009400246409296577,0,2025-10-03T16:28:28.815295
6,642,889.655172413793,heating,0.00012728496348196066,5.240948800644424e-07,0.00012893425481649907,0.0001018401306061237,4.959864947376287e-07,0.00010333921639176294,0.00011666521003836507,0.00011769952247574492,0,2025-10-03T16:30:28.818039
6,644,903.448275862069,heating,0.00044356847615417976,0.002003767968622362,0.014107641422993204,0.00032337525893842364,0.001402629462179169,0.009888422471338294,0.0003978084414738179,0.012542084430042937,243,2025-10-03T16:32:28.821215
6,646,917.2413793103449,heating,0.0002911083812136515,0.001321171278211463,0.011034187282416216,0.0002166268888940107,0.0009248595334807795,0.007737708675153901,0.0002622940305645595,0.009810474268288537,0,2025-10-03T16:34:28.824153
6,648,931.0344827586207,heating,0.00021379308349584085,0.0009419247035137965,0.0106378556357023,0.00016252222348148778,0.0006593344956238298,0.007459294965819835,0.0001935848479343502,0.009457944407291287,0,2025-10-03T16:36:28.827138
6,650,944.8275862068965,heating,0.00019199558095943505,0.0009064114475346324,0.013109386524125868,0.0001472881826419242,0.0006344914849745844,0.009189457810604646,0.0001742227348153012,0.011654783611978747,49,2025-10-03T16:38:28.829978
6,652,958.6206896551723,heating,0.00028507340172942,0.0013216561385026356,0.01422546680061972,0.0002123486293402137,0.0009251878255748767,0.009970692447998081,0.00025691633709767767,0.012646676718496485,29,2025-10-03T16:40:28.833000
6,654,972.4137931034483,heating,0.00026025157077493467,0.0012450722888233832,0.011907051610735821,0.00019489749915589145,0.0008715762303288034,0.008347872507515099,0.00023483614540266128,0.010585991017216297,113,2025-10-03T16:42:28.835994
6,656,986.2068965517242,heating,0.00021092490959199114,0.0009369279233052223,0.010579548871951562,0.00016022536084459387,0.0006558356038628805,0.00741842302770354,0.00019095263826448191,0.009406026317653901,0,2025-10-03T16:44:28.838977
6,658,1000.0,heating,0.0001252794369886703,5.561707421380945e-07,0.00012740192870511736,0.0001002155840588601,5.746587668799734e-07,0.00010300151017297553,0.00011482145968975397,0.0001161931375214947,0,2025-10-03T16:46:28.841724
6,660,1000.0,cooling,0.0003199529838621985,0.0016259484809545805,0.013541595032143425,0.00023603171717217616,0.0011382334789033284,0.009491567149847582,0.00028771800789751767,0.012038750034679436,149,2025-10-03T16:48:28.852493
6,662,986.2068965517242,cooling,0.00022275762525517752,0.0012398620798220684,0.013943637789464622,0.00016687946079339626,0.0008679005303185594,0.009771930811505684,0.00020101547284488147,0.012395877413545774,81,2025-10-03T16:50:28.855656
6,664,972.4137931034483,cooling,0.0003199310435977613,0.0017259079444948656,0.015046455907384041,0.00023398098189062765,0.001208168155080951,0.010542406396006385,0.0002871265402391419,0.013375644055434954,113,2025-10-03T16:52:28.858853
6,666,958.6206896551724,cooling,0.00012517815424976312,0.0006121710804645446,0.011476790191918745,9.678623942855995e-05,0.0004285229544420434,0.008042798198204687,0.00011379596039479924,0.010202833222416373,29,2025-10-03T16:54:28.861948
6,668,944.8275862068965,cooling,8.304544573998331e-05,3.6495669936358243e-07,8.414325649178147e-05,6.655127894655752e-05,3.8798853841861524e-07,6.777827953023796e-05,7.615232111281203e-05,7.701987814357775e-05,0,2025-10-03T16:56:28.864753
6,670,931.0344827586207,cooling,0.00017942162587334342,0.0011629658771893944,0.013049244743606657,0.0001330474068199949,0.0008140502262190972,0.009141545538624517,0.0001615373150071097,0.011600011533803163,81,2025-10-03T16:58:28.867791
6,672,917.2413793103449,cooling,6.583832638434692e-05,2.97098690622851e-07,6.69961198207626e-05,5.2636305657951385e-05,3.05381937578255e-07,5.352193070904056e-05,6.033223109107867e-05,6.109056069409299e-05,0,2025-10-03T17:00:28.870634
6,674,903.448275862069,cooling,0.00012197594652054709,0.0009182538837803777,0.013207847653657685,9.121187986117623e-05,0.0006427818841393139,0.00925142497326463,0.0001100325157916384,0.011740687366794044,49,2025-10-03T17:02:28.873622
6,676,889.6551724137931,cooling,4.9711640047779614e-05,2.1353673175257497e-07,5.049460608205601e-05,3.977661554520166e-05,2.2717728954430945e-07,4.0591945420352484e-05,4.556515259956506e-05,4.616267764728144e-05,0,2025-10-03T17:04:28.876441
6,678,875.8620689655172,cooling,4.231052476425034e-05,1.9050631941433187e-07,4.284511899613876e-05,3.384375837602499e-05,1.7424868482071577e-07,3.451405578599056e-05,3.877765429453638e-05,3.9145873110451945e-05,0,2025-10-03T17:06:28.879183
6,680,862.0689655172414,cooling,3.531754411902427e-05,1.7215124715441857e-07,3.587339347538975e-05,2.826693414523883e-05,1.5236359513897464e-07,2.90467485668381e-05,3.237420765762963e-05,3.271742924609275e-05,0,2025-10-03T17:08:28.881966
6,682,848.2758620689656,cooling,0.0002478644127441084,0.001781290348766096,0.014731787325342456,0.00017640038860467955,0.0012469169188401485,0.010315259086891652,0.00022110762387139512,0.013094556582696398,149,2025-10-03T17:10:28.884938
6,684,834.4827586206897,cooling,2.2800875282745953e-05,9.80275489980089e-08,2.3103971977224688e-05,1.823395413427521e-05,9.847225526210224e-08,1.8610870867886674e-05,2.0895638642725135e-05,2.1130990877410684e-05,0,2025-10-03T17:12:28.887762
6,686,820.6896551724138,cooling,7.291004715337873e-05,0.0007923600105871699,0.011364674315839415,5.2767116440007685e-05,0.0005546474774486959,0.007956947760795486,6.528308520461634e-05,0.010101490914292353,49,2025-10-03T17:14:28.890823
6,688,806.8965517241379,cooling,1.2346205747276465e-05,5.394207609289258e-08,1.2516185871842992e-05,9.87220790972858e-06,5.3873098593673984e-08,1.0053674525544388e-05,1.1314222239545387e-05,1.1444644209930178e-05,0,2025-10-03T17:16:28.893605
6,690,793.1034482758621,cooling,7.89102530217627e-05,0.0010116051967954207,0.014494994862057483,5.603446974113292e-05,0.0007081203800722664,0.010147245738160534,7.03580467891357e-05,0.012883594785556963,49,2025-10-03T17:18:28.896657
6,692,779.3103448275863,cooling,4.068931583538721e-06,1.7861236619984792e-08,4.1336661102141765e-06,3.2551656768311835e-06,1.8266450548944624e-08,3.319275459135053e-06,3.7293474263062065e-06,3.7897367886530166e-06,0,2025-10-03T17:20:28.899531
6,694,765.5172413793103,cooling,3.9524803005912906e-05,0.0007190239582535785,0.01337209106417627,2.774214354192054e-05,0.0005033165549646819,0.009360538576211865,3.5151131887716544e-05,0.011885390463281645,29,2025-10-03T17:22:28.902593
6,696,751.7241379310345,cooling,-2.0371187261869735e-06,9.629533448671497e-09,-2.007703728147264e-06,-1.6277813292474256e-06,9.481556700873433e-09,-1.6001109754802923e-06,1.8664668983293078e-06,1.8939623430192724e-06,0,2025-10-03T17:24:28.905408
6,698,737.9310344827586,cooling,-4.296148658350355e-06,1.81527855011551e-08,-4.228752347560099e-06,-3.4389683578766506e-06,1.7990954611135162e-08,-3.349795640690182e-06,3.938257433182174e-06,3.983709375806507e-06,0,2025-10-03T17:26:28.908228
6,700,724.1379310344828,cooling,0.00015085189515226538,0.0013686680733844354,0.012767310636264786,0.0001049910793244194,0.000958069044867385,0.008936535878276343,0.00014487910488693718,0.011347700913773299,130,2025-10-03T17:28:28.911367
6,702,710.344827586207,cooling,6.292668564485995e-05,0.00100157024456658,0.014336019161479648,4.332158488867283e-05,0.000701104359642993,0.010034549241820732,6.914160728442635e-05,0.01274197371980821,49,2025-10-03T17:30:28.914388
6,704,696.551724137931,cooling,-8.190992504464314e-06,3.451964992482103e-08,-8.060272494905388e-06,-6.558454569416131e-06,3.893631102340902e-08,-6.385303939051017e-06,7.509208870298316e-06,7.612133641468371e-06,0,2025-10-03T17:32:28.917236
6,706,682.7586206896551,cooling,-8.62126435343572e-06,3.804793865642182e-08,-8.49763614741184e-06,-6.902336470431614e-06,3.7321927613078624e-08,-6.787937894706261e-06,7.903455414123336e-06,7.989089443042382e-06,0,2025-10-03T17:34:28.920071
6,708,668.9655172413793,cooling,-8.694937526840663e-06,3.7135367226692125e-08,-8.543828417824993e-06,-6.958694123443932e-06,4.0704689823886346e-08,-6.833927536209033e-06,7.970147609529463e-06,8.072084243605691e-06,0,2025-10-03T17:36:28.922972
6,710,655.1724137931035,cooling,2.1306676426125537e-05,0.0005516879110982892,0.010251048774839766,1.406860993540065e-05,0.00038618469131019125,0.007174953785128477,3.414127722956759e-05,0.009111148606154237,0,2025-10-03T17:38:28.925996
6,712,641.3793103448277,cooling,-7.922883390382336e-06,3.4705000535482204e-08,-7.805376694558173e-06,-6.3395329460696565e-06,3.6011784868574e-08,-6.2316403747844e-06,7.2620543443799475e-06,7.340156301933852e-06,0,2025-10-03T17:40:28.928838
6,714,627.5862068965517,cooling,-7.169380850764014e-06,3.265376086524044e-08,-7.053406465413957e-06,-5.730327939005701e-06,3.3764363481176895e-08,-5.589977228030979e-06,6.569331015643307e-06,6.641593985196957e-06,0,2025-10-03T17:42:28.931716
6,716,613.7931034482758,cooling,4.3825255897256945e-05,0.0007136951280881945,0.010214496369308882,3.0052153863602804e-05,0.0004995868893685156,0.007149522208222646,5.019145311216464e-05,0.009078702044577867,0,2025-10-03T17:44:28.934805
6,718,600.0,cooling,-5.226282747944794e-06,2.0931936358291192e-08,-5.1525035119736e-06,-4.180332718585234e-06,2.107270473423202e-08,-4.06007839432883e-06,4.7898575400394025e-06,4.849399211486679e-06,0,2025-10-03T17:46:28.937668
7,720,600.0,heating,-6.529138905993731e-11,9.056999255850127e-10,2.4879891808745978e-09,-2.0543900893047498e-10,9.832813001653389e-10,3.763190389544199e-09,1.4651102945724362e-09,5.565822783204201e-09,0,2025-10-03T17:48:28.945107
7,722,613.7931034482758,heating,1.0407022722445233e-05,4.5980640254103456e-08,1.0617899063454334e-05,8.334325192755862e-06,5.1374697505789433e-08,8.494505379792304e-06,9.541349078312242e-06,9.656024063662225e-06,0,2025-10-03T17:50:28.952833
7,724,627.5862068965517,heating,0.00027718923368709935,0.0016891224654052319,0.012009460987263633,0.0001961283624593531,0.0011823837528435895,0.008408751891013226,0.0002469509007032226,0.010674676744659007,113,2025-10-03T17:52:28.956137
7,726,641.3793103448276,heating,7.376789196997725e-05,0.0007936513376729294,0.014790228617998726,5.470964988472833e-05,0.0005555533181428254,0.010356267668914659,6.641639225943729e-05,0.013146542364839682,29,2025-10-03T17:54:28.959239
7,728,655.1724137931035,heating,4.095015964085878e-05,1.9806180481950943e-07,4.1696727606860154e-05,3.2753571751603015e-05,2.0810180564655682e-07,3.344984978860881e-05,3.753048911198712e-05,3.8002214943241225e-05,0,2025-10-03T17:56:28.962006
7,730,668.9655172413793,heating,0.0002107321488851722,0.0014966620037023442,0.014210857173692134,0.00015254359187397132,0.0010476304080166941,0.009952320623974267,0.00018869287137218943,0.012631898778447812,113,2025-10-03T17:58:28.965028
7,732,682.7586206896551,heating,0.00018717565317517815,0.0011885474681129222,0.01130504927352099,0.00013701298093479503,0.0008319548510791347,0.007919332996191335,0.00016802165015023887,0.010049386141570383,113,2025-10-03T18:00:28.968058
7,734,696.551724137931,heating,0.00019604721734672425,0.0011873612552208439,0.011302665929737717,0.00014417151616186673,0.0008311907128813139,0.00791947125275155,0.0001761710194942855,0.010047696498498073,113,2025-10-03T18:02:28.971057
7,736,710.3448275862069,heating,0.00028491620914574767,0.001685340704080722,0.013988881557564935,0.00020719566631534944,0.0011797309612487114,0.009800082872646427,0.00025538309262187965,0.012435274818225183,149,2025-10-03T18:04:28.973932
7,738,724.1379310344828,heating,8.577706826129248e-05,4.2503634237322677e-07,8.701179866247055e-05,6.861939236862849e-05,4.578863573094962e-07,7.030632091197355e-05,7.86177592950502e-05,7.980387322690338e-05,0,2025-10-03T18:06:28.976715
7,740,737.9310344827586,heating,9.336745258000989e-05,4.4461925478316223e-07,9.491630175286319e-05,7.464289697934988e-05,4.293804215220785e-07,7.607788994531716e-05,8.555876475216917e-05,8.665633707086805e-05,0,2025-10-03T18:08:28.979493
7,742,751.7241379310344,heating,0.00025702334890621674,0.001465917618798896,0.013969857178892908,0.00018995296771447552,0.0010261560760077267,0.009789236781361843,0.00023122408456217335,0.012418801073885188,113,2025-10-03T18:10:28.982576
7,744,765.5172413793103,heating,0.00010674308741935262,4.93361698901097e-07,0.0001083000937151762,8.540987898604853e-05,5.142577750816467e-07,8.745925115976855e-05,9.783972132495888e-05,9.919438697515705e-05,0,2025-10-03T18:12:28.985367
7,746,779.3103448275862,heating,0.00011249889285030886,5.962971933417287e-07,0.00011494644965019363,9.007552540016641e-05,5.885134680629533e-07,9.245662227350815e-05,0.00010313572048124202,0.00010464793154263592,0,2025-10-03T18:14:28.988054
7,748,793.1034482758621,heating,0.00011760377613399569,6.095906529566391e-07,0.0001203062420614682,9.415278748608116e-05,5.77373950939858e-07,9.628503339669473e-05,0.00010781187669839522,0.00010996896029502379,0,2025-10-03T18:16:28.990862
7,750,806.8965517241379,heating,0.00012190778947101173,5.833742962762491e-07,0.00012381409523423394,9.770546184335363e-05,6.355127968311501e-07,0.00010028166329790708,0.00011179305728232234,0.00011340945758720429,0,2025-10-03T18:18:28.993643
7,752,820.6896551724137,heating,0.000449322620132069,0.001972750172198241,0.012838077040294285,0.0003271129480671156,0.0013809175170623378,0.008999017352829113,0.0004028397941409638,0.01141333361037112,262,2025-10-03T18:20:28.996842
7,754,834.4827586206897,heating,0.0002850628837341883,0.0013598697812584762,0.012245085276090927,0.00021249296926726497,0.0009519030902769164,0.008584439621995408,0.00025695274235007536,0.010886367676079983,130,2025-10-03T18:22:28.999965
7,756,848.2758620689655,heating,0.00013161592539776527,6.431948631594141e-07,0.00013393051925224766,0.00010527597488355429,6.791366965067844e-07,0.00010755338610181775,0.00012062637258141482,0.00012246076394565854,0,2025-10-03T18:24:29.002685
7,758,862.0689655172414,heating,0.0004845907061283524,0.0020038434668083033,0.01196717949124378,0.0003525075687131305,0.0014026664652052802,0.00839061436720304,0.0004343773496596805,0.010639583606348589,298,2025-10-03T18:26:29.005746
7,760,875.8620689655172,heating,0.0001346509292661677,6.31709977547913e-07,0.00013686665264337587,0.00010767014358427181,6.529694131006334e-07,0.00010971610562104695,0.00012339676590723925,0.00012498452247871358,0,2025-10-03T18:28:29.008519
7,762,889.655172413793,heating,0.00013543553336870063,6.420716724904471e-07,0.00013767279443148292,0.0001085128687581049,6.746811129942686e-07,0.0001107786798333321,0.00012418663338508378,0.00012590751813009007,0,2025-10-03T18:30:29.011351
7,764,903.448275862069,heating,0.0003325923992461225,0.0014010061966386676,0.010499341450113364,0.00024632977087576897,0.0009807409958233586,0.007363165734038528,0.000299345702369805,0.009335028609911788,0,2025-10-03T18:32:29.014549
7,766,917.2413793103449,heating,0.00027630476341725075,0.0013185587113962794,0.01261048752562651,0.0002069725153641314,0.0009230151857912995,0.008842545535021867,0.00024933752591758604,0.011211596515199634,113,2025-10-03T18:34:29.016604
7,768,931.0344827586207,heating,0.00020302014391091535,0.0009733503189078309,0.014074262844238301,0.00015537912056539044,0.0006813230062909869,0.009865094214163615,0.0001841127431959411,0.012512324834306986,49,2025-10-03T18:36:29.018747
7,770,944.8275862068965,heating,0.00013345578640142013,7.661557380379394e-07,0.00013647465291968466,0.00010669170102188019,6.407393248114641e-07,0.0001085261620671694,0.00012229459163796947,0.00012413157276093862,0,2025-10-03T18:38:29.021490
7,772,958.6206896551723,heating,0.0001850111259453426,0.0007551492382413553,0.010947100389770405,0.00014262514722713333,0.0005285171882198667,0.007674991752944344,0.00016807091311476165,0.009732498727303675,0,2025-10-03T18:40:29.024482
7,774,972.4137931034483,heating,0.00019727327108777536,0.0009535938648914626,0.013787098107385359,0.00015099466992434012,0.0006674843838211288,0.009664269065406763,0.0001789088746664546,0.012257038260110351,49,2025-10-03T18:42:29.027466
7,776,986.2068965517242,heating,0.00012838622922680946,6.350206047326154e-07,0.00013064835330860947,0.0001027540277678341,6.577770122516959e-07,0.00010463352206836902,0.00011768646609839706,0.00011950074943342572,0,2025-10-03T18:44:29.030144
7,778,1000.0,heating,0.000126078399134798,6.30953815195101e-07,0.00012839330977349215,0.00010088319665956589,5.856349761802024e-07,0.00010277105032484106,0.00011556289161649696,0.00011736283016356625,0,2025-10-03T18:46:29.032981
7,780,1000.0,cooling,0.0001200742905089361,6.171513680463907e-07,0.00012220068348409226,9.607085209613765e-05,5.88408256614425e-07,9.811981383750254e-05,0.00011005724918815926,0.00011159922742880482,0,2025-10-03T18:48:29.063997
7,782,986.2068965517242,cooling,0.0001485297609575782,0.0007222286108437524,0.013540927438921276,0.0001149449022599943,0.000505575457849705,0.009489833675255736,0.00013505758559235404,0.012037945087372189,29,2025-10-03T18:50:29.066872
7,784,972.4137931034483,cooling,9.933067463429823e-05,4.902953834103971e-07,0.00010116365186509464,7.940955345009826e-05,4.529033514641638e-07,8.104405266984306e-05,9.102267644396568e-05,9.236528184771842e-05,0,2025-10-03T18:52:29.069656
7,786,958.6206896551724,cooling,0.00020994781125020342,0.00113122205846263,0.010791924771107084,0.0001560061870840446,0.0007918001416323716,0.00756275026987516,0.00018911526277265897,0.009593888082830094,0,2025-10-03T18:54:29.072782
7,788,944.8275862068965,cooling,0.000267970949873662,0.0015365389264795756,0.012762280311689805,0.00019550552535412108,0.001075543131617103,0.008941458207980842,0.0002403708712584686,0.011345085667339895,149,2025-10-03T18:56:29.075916
7,790,931.0344827586207,cooling,0.0002252586334539402,0.0014587126850748133,0.013870199632466277,0.00016460239120898482,0.0010210580314531895,0.009715715767066459,0.0002021289143901515,0.012329571462755016,113,2025-10-03T18:58:29.078887
7,792,917.2413793103449,cooling,5.9920091314167445e-05,2.8717565315695406e-07,6.081998330695867e-05,4.796468759301046e-05,2.8350816105879857e-07,4.8893299973038096e-05,5.4928701251342794e-05,5.550746102460197e-05,0,2025-10-03T19:00:29.081661
7,794,903.448275862069,cooling,0.00018786900121643062,0.0012807652772643405,0.012168322972169408,0.0001365633855370922,0.000896510138112622,0.008522674557112522,0.00016837853191688698,0.010816532976577165,113,2025-10-03T19:02:29.084754
7,796,889.6551724137931,cooling,0.0001993878127659097,0.00127715424318431,0.010584338576002035,0.00014382454162540346,0.0008940314084726562,0.007413463625223969,0.0001783963616135277,0.009408559552420323,0,2025-10-03T19:04:29.087763
7,798,875.8620689655172,cooling,9.549981157268062e-05,0.0008732702212384719,0.012540357050531414,7.025666582865706e-05,0.0006112951720454329,0.008781723336184068,8.582505130072812e-05,0.011146892469076713,49,2025-10-03T19:06:29.090777
7,800,862.0689655172414,cooling,0.00015695148830740667,0.0012185215479760807,0.011555277415591071,0.0001125123060238084,0.0008529749793440763,0.008091422452916453,0.00014023241102388323,0.010271168821525949,113,2025-10-03T19:08:29.093779
7,802,848.2758620689656,cooling,1.968132938408743e-05,1.0085680711604889e-07,1.9996151618762158e-05,1.573697434203367e-05,9.252518297577383e-08,1.601983640962629e-05,1.8036155376726715e-05,1.8230321583073596e-05,0,2025-10-03T19:10:29.096626
7,804,834.4827586206897,cooling,5.3268698861444984e-05,0.0007414749962199279,0.013802171746726308,3.8616171022546904e-05,0.0005190312840062247,0.009662841302582026,4.7714232997562566e-05,0.012267935160692035,29,2025-10-03T19:12:29.099641
7,806,820.6896551724138,cooling,3.674096912301592e-05,0.0005418305962619364,0.010083720014304022,2.6470121811566048e-05,0.00037928164312502906,0.0070593661949336665,3.286428902156171e-05,0.008962777497423961,0,2025-10-03T19:14:29.102560
7,808,806.8965517241379,cooling,2.401290887585664e-06,1.1922867039587937e-08,2.4403709444277483e-06,1.9172453017088683e-06,1.2275880207362111e-08,1.9574956868899217e-06,2.1996604714501114e-06,2.2308853522420463e-06,0,2025-10-03T19:16:29.105335
7,810,793.1034482758621,cooling,-2.06767698157397e-06,1.0641805752022267e-08,-2.026064809777206e-06,-1.6532348573464871e-06,9.387067209936507e-09,-1.6219526946990739e-06,1.8948219773065798e-06,1.9193827814477318e-06,0,2025-10-03T19:18:29.108077
7,812,779.3103448275863,cooling,8.289507038489363e-05,0.0009823717878033593,0.010953889907867822,5.743725144423738e-05,0.0006876612084557959,0.007667160518733906,8.420531970278566e-05,0.00973590129087054,0,2025-10-03T19:20:29.111089
7,814,765.5172413793103,cooling,0.000269886721324872,0.001983049559476172,0.01448719494663134,0.00018801252246252183,0.0013881384415388325,0.010140152866018045,0.0002558681376382763,0.012876288502984355,194,2025-10-03T19:22:29.114189
7,816,751.7241379310345,cooling,0.00016620149914618203,0.0014453483783267325,0.011918518319007088,0.0001151943596410207,0.001011743045021338,0.008341803069223218,0.00016826658087475992,0.010593137709823305,149,2025-10-03T19:24:29.117227
7,818,737.9310344827586,cooling,0.00020275939525721273,0.001757895561157978,0.014496401301954431,0.00014057598235189022,0.0012305215159420999,0.010146072901497627,0.00020411055030158178,0.01288435149799379,149,2025-10-03T19:26:29.120136
7,820,724.1379310344828,cooling,7.432396305251584e-05,0.001004871659507918,0.011841978386351665,5.056890741299329e-05,0.0007034139349368079,0.008287934290787183,9.244379849228498e-05,0.010525041017117034,29,2025-10-03T19:28:29.123246
7,822,710.344827586207,cooling,-1.543738905719042e-05,7.283766181998013e-08,-1.5156203419631395e-05,-1.2349963627261893e-05,7.427502862421512e-08,-1.2098037414000756e-05,1.4149062632518012e-05,1.43430905680125e-05,0,2025-10-03T19:30:29.126002
7,824,696.551724137931,cooling,0.00011878928678626255,0.001257248333171117,0.011879048354265682,8.159263133866852e-05,0.0008800836803135551,0.008313921034707824,0.00013345854525430125,0.010558000060892225,113,2025-10-03T19:32:29.128981
7,826,682.7586206896551,cooling,0.00014122771236657348,0.0014642225701026218,0.013837509439404748,9.731259548151207e-05,0.0010249546980469464,0.009684737495637582,0.00015285175677168158,0.012298683868603198,113,2025-10-03T19:34:29.132043
7,828,668.9655172413793,cooling,0.00023598135514272704,0.0018652854542776211,0.014469168158935347,0.00016372172428553335,0.001305703993532688,0.010126926646611882,0.00023558704973530826,0.012860128440897624,178,2025-10-03T19:36:29.136164
7,830,655.1724137931035,cooling,0.00015359385395805715,0.0013581352826518062,0.01119677429247,0.00010616428502417301,0.0009506822393054663,0.007836346747734355,0.00016041115800896296,0.009951557984079724,0,2025-10-03T19:38:29.139206
7,832,641.3793103448277,cooling,0.00015652662827258647,0.0014733950849463676,0.01431973049013378,0.00010836887447483498,0.001031371154565278,0.010022655584515266,0.00016049279970933275,0.012727389996915204,130,2025-10-03T19:40:29.142305
7,834,627.5862068965517,cooling,-1.026191578626433e-05,5.490132941987739e-08,-1.0030140434569305e-05,-8.213113450877493e-06,5.34236841389608e-08,-8.009886949581733e-06,9.406710753411104e-06,9.592462804051334e-06,0,2025-10-03T19:42:29.145079
7,836,613.7931034482758,cooling,7.671076386987396e-05,0.0009411426688786858,0.010491458764158319,5.2866377202989524e-05,0.0006587959631692817,0.007343150377224467,8.310925342296422e-05,0.009324802916290134,0,2025-10-03T19:44:29.148108
7,838,600.0,cooling,0.00010771419425701063,0.0012614153850831903,0.01406661945534944,7.478008478529833e-05,0.0008829899709213641,0.00984598130450342,0.0001069731112729028,0.012502535298431384,81,2025-10-03T19:46:29.151145
8,840,600.0,heating,0.00017551747444730456,0.0014470838050727687,0.013722835430371715,0.00012286229712876834,0.001012958589868555,0.00960598368542315,0.00015600467967297917,0.012197122383356938,98,2025-10-03T19:48:29.161436
8,842,613.7931034482758,heating,1.1446616966471459e-05,6.024635813822675e-08,1.1739073672764714e-05,9.169587288600358e-06,6.00891771609373e-08,9.442980832728807e-06,1.049544028404481e-05,1.0703790038232013e-05,0,2025-10-03T19:50:29.170406
8,844,627.5862068965517,heating,2.2846508446978044e-05,1.1835730890409875e-07,2.3439041660615154e-05,1.8269215337349505e-05,1.2246957734785683e-07,1.8606576195002756e-05,2.0937295059619932e-05,2.135841232794894e-05,0,2025-10-03T19:52:29.173127
8,846,641.3793103448276,heating,7.264284203109929e-05,0.0007154231626747131,0.013338682152944313,5.426056502005936e-05,0.000500810442206851,0.009340665782095988,6.551178753350147e-05,0.011856452443771771,29,2025-10-03T19:54:29.176283
8,848,655.1724137931035,heating,7.619197305071872e-05,0.0005784793460126187,0.010802870677946781,5.782420733528646e-05,0.0004049205835259943,0.007566228200219113,6.896476797056969e-05,0.00960271809229979,0,2025-10-03T19:56:29.179300
8,850,668.9655172413793,heating,5.5714634111988296e-05,3.0095230602549686e-07,5.687297300001581e-05,4.454437366272909e-05,2.9613877498504156e-07,4.55098924126093e-05,5.105629947212411e-05,5.198544759368868e-05,0,2025-10-03T19:58:29.182059
8,852,682.7586206896551,heating,0.00012050933468771223,0.000777000993337792,0.011193617628877628,9.092206064233421e-05,0.0005439207494568033,0.00784237921200291,0.00010892823499049897,0.009950594791252316,0,2025-10-03T20:00:29.185170
8,854,696.551724137931,heating,0.00010493857344467521,0.0005401827122751667,0.010121561531978901,8.102337764195555e-05,0.0003781227269754071,0.007092695592177641,9.536777867437556e-05,0.008997954424627808,0,2025-10-03T20:02:29.188182
8,856,710.3448275862069,heating,0.00024211434746884727,0.0014689956646915692,0.013983697516759314,0.00017803443577641862,0.0010282956406809194,0.00979721913319683,0.00021756525109164752,0.012430699060562555,113,2025-10-03T20:04:29.191174
8,858,724.1379310344828,heating,9.388887539296491e-05,5.149223223176223e-07,9.573927126695615e-05,7.510048063207802e-05,5.326000193805239e-07,7.700344295564498e-05,8.605097419160906e-05,8.736216981921327e-05,0,2025-10-03T20:06:29.194060
8,860,737.9310344827586,heating,0.00028500920940626167,0.0014878217283710252,0.012383057040971533,0.00020955382260234704,0.0010415121230102924,0.00867920890585777,0.00025609224732900306,0.011008749814838533,149,2025-10-03T20:08:29.197025
8,862,751.7241379310344,heating,0.00037755410866502565,0.0017718262410939662,0.013162449644453473,0.0002751937435070049,0.0012402796408563055,0.009225072880948641,0.000338587075856241,0.01170148580902933,113,2025-10-03T20:10:29.200202
8,864,765.5172413793103,heating,0.00011619393104941929,6.371053742469655e-07,0.00011916568997307739,9.290862187121073e-05,6.522045249922218e-07,9.565731262960265e-05,0.00010648227417826659,0.00010855979525354166,0,2025-10-03T20:12:29.203055
8,866,779.3103448275862,heating,0.00012219634117289783,6.699976271335133e-07,0.00012433087956108003,9.78437768449356e-05,6.380779305533388e-07,9.986231902428518e-05,0.00011202768337851779,0.00011341400876404309,0,2025-10-03T20:14:29.206221
8,868,793.1034482758621,heating,0.00031010804822000234,0.0014836342664806504,0.012374874868334346,0.00022975270346283345,0.0010386211735882508,0.008675425127174782,0.00027913049289632867,0.011001736302924189,149,2025-10-03T20:16:29.209172
8,870,806.8965517241379,heating,0.00013213612053491645,7.372312688983793e-07,0.00013449261343237377,0.00010562945994282917,7.533387499084169e-07,0.00010825361934756822,0.00012108386230574571,0.00012296838042433832,0,2025-10-03T20:18:29.211943
8,872,820.6896551724137,heating,0.00025065335212685544,0.0010738274763411096,0.010295899411619187,0.0001889944025154022,0.000751587354789086,0.007220066816303347,0.0002265300311529173,0.009153887986992296,0,2025-10-03T20:20:29.214954
8,874,834.4827586206897,heating,0.00019234708483540578,0.0007617102354121945,0.011047796722929746,0.00014834449431958837,0.0005331976379429084,0.007747259492306792,0.00017474882476992983,0.00982258010354559,0,2025-10-03T20:22:29.217796
8,876,848.2758620689655,heating,0.00025803880294285504,0.0010949417655348247,0.010501024473634858,0.00019482703946208137,0.0007664517649701076,0.007365200935988468,0.00023328537409351134,0.009336442988634338,0,2025-10-03T20:24:29.220816
8,878,862.0689655172414,heating,0.00014253275463744044,7.325356652928358e-07,0.0001452425791067374,0.00011391968968584651,8.49770270297662e-07,0.00011672132937126115,0.00013060363165743848,0.00013241164392002115,0,2025-10-03T20:26:29.223614
8,880,875.8620689655172,heating,0.0004738824158513849,0.0020155806441439937,0.012793932480443434,0.0003461532414549152,0.00141089467881304,0.00897180015946274,0.00042518551379325454,0.01137497187771522,262,2025-10-03T20:28:29.226665
8,882,889.655172413793,heating,0.00014364503207836142,7.601376414448637e-07,0.00014641557129668406,0.00011495866127098309,7.409854948314749e-07,0.00011718172238764542,0.0001316716304707462,0.00013385669752124482,0,2025-10-03T20:30:29.229417
8,884,903.448275862069,heating,0.00014301615846036987,7.392793084118564e-07,0.00014562455106672902,0.00011454649069554817,7.150625280573165e-07,0.00011696198103273119,0.00013112490672302998,0.00013281133136586055,0,2025-10-03T20:32:29.232779
8,886,917.2413793103449,heating,0.00014205206637351244,8.289690689710862e-07,0.00014527675761997555,0.00011369232365804857,6.828100488971439e-07,0.00011592808219832839,0.00013021430803736775,0.0001326026578706272,0,2025-10-03T20:34:29.235642
8,888,931.0344827586207,heating,0.00014050582417856125,7.455772382942081e-07,0.00014329336076523866,0.00011240668408395111,7.92856697730237e-07,0.00011501240555801881,0.00012878173127386878,0.00013056381804262378,0,2025-10-03T20:36:29.238466
8,890,944.8275862068965,heating,0.00013842797189536418,7.430178021234195e-07,0.000141589900464423,0.0001105987731331991,7.994478033643556e-07,0.00011518606788537305,0.00012682926246755405,0.00012903440788166696,0,2025-10-03T20:38:29.241273
8,892,958.6206896551723,heating,0.00013597847356331416,6.801921606321421e-07,0.0001382720117326425,0.00010884272563134804,7.833721000983069e-07,0.00011186192055751663,0.00012465129987769202,0.00012659016845268208,0,2025-10-03T20:40:29.244098
8,894,972.4137931034483,heating,0.0001333124974060903,7.329418271827748e-07,0.00013553208297792553,0.00010686058936249048,7.123927860938747e-07,0.00010934029676751483,0.0001222568643982888,0.00012387718898705324,0,2025-10-03T20:42:29.246811
8,896,986.2068965517242,heating,0.00034656648029642554,0.0017017070031322414,0.0147221366235881,0.00025556342574762,0.0011911422685758654,0.010319360884149361,0.00031161725714573313,0.013087973578870546,113,2025-10-03T20:44:29.249868
8,898,1000.0,heating,0.00016020309581972643,0.0006079914722263458,0.011434376130895898,0.00012471580625622917,0.00042556853647650013,0.008016532204351022,0.00014586825021938022,0.010165677667421267,29,2025-10-03T20:46:29.252861
8,900,1000.0,cooling,0.00011996483303589121,6.091808013361751e-07,0.0001221433950617326,9.598756886595082e-05,5.908894425229481e-07,9.786262352503502e-05,0.00010995859362129308,0.00011170159068468628,0,2025-10-03T20:48:29.261287
8,902,986.2068965517242,cooling,0.00022419417473705595,0.0012807195400051717,0.01439747378735716,0.000167903360105388,0.0008964699546247319,0.010088710856503008,0.00020231133763172458,0.012798756357774586,81,2025-10-03T20:50:29.264774
8,904,972.4137931034483,cooling,9.712641488641826e-05,5.6043200358622e-07,9.894213785810652e-05,7.770880997778555e-05,5.322237636414131e-07,7.967166267454649e-05,8.902393909699151e-05,9.020556869938489e-05,0,2025-10-03T20:52:29.267622
8,906,958.6206896551724,cooling,0.00015678689030369328,0.0010098630728564344,0.014548210127170839,0.00011838228671438938,0.0007069130277778151,0.01019308366863738,0.00014174867273918248,0.012932699257725916,49,2025-10-03T20:54:29.270781
8,908,944.8275862068965,cooling,0.00016190628879080707,0.0009622952173647096,0.010811043997651062,0.00012086025832055274,0.0006735774846822114,0.007574993678625006,0.0001459909988690647,0.009610670488549144,0,2025-10-03T20:56:29.273838
8,910,931.0344827586207,cooling,6.433223249637925e-05,3.378836902636526e-07,6.593808853943832e-05,5.1443552696638085e-05,3.3594781963745345e-07,5.2461046001261155e-05,5.895635992327708e-05,6.0124980274995355e-05,0,2025-10-03T20:58:29.276695
8,912,917.2413793103449,cooling,0.0002214330046125384,0.0015658037243391268,0.014868030339320642,0.00016032702429844933,0.0010960775740856722,0.010413441680128236,0.00019828291125112237,0.013216243021449928,113,2025-10-03T21:00:29.282594
8,914,903.448275862069,cooling,0.000521948072311486,0.0024218610489646557,0.014344903096788722,0.00036977035287697293,0.001695305026172321,0.010046016142492774,0.0004651303642205827,0.012750950937781145,379,2025-10-03T21:02:29.285936
8,916,889.6551724137931,cooling,0.000144820246169488,0.0011096579826880724,0.012296211980850697,0.00010482099096930849,0.0007767762838555617,0.00861083803915911,0.00012967085994106326,0.010929886463804694,49,2025-10-03T21:04:29.288978
8,918,875.8620689655172,cooling,2.611214994937886e-05,1.4784824481505197e-07,2.675138917303154e-05,2.088919621108064e-05,1.5015258851525607e-07,2.1503816453358067e-05,2.393307890886112e-05,2.431699750157232e-05,0,2025-10-03T21:06:29.291794
8,920,862.0689655172414,cooling,7.88358862699065e-05,0.0008669911533701865,0.012434110278141257,5.698245413582025e-05,0.0006069090494485833,0.008705882706298322,7.0568612982864e-05,0.011052114068987469,49,2025-10-03T21:08:29.294746
8,922,848.2758620689656,cooling,1.0541106576841824e-05,5.59623387936021e-08,1.0758631570210817e-05,8.421207709735023e-06,5.897104968411596e-08,8.611859856942947e-06,9.65765331153842e-06,9.851547444613382e-06,0,2025-10-03T21:10:29.297519
8,924,834.4827586206897,cooling,3.7697613270650825e-06,2.0449587482489814e-08,3.857983555724743e-06,3.017086786975709e-06,2.047963894003013e-08,3.0957196774895672e-06,3.4556096949052913e-06,3.5171684209447405e-06,0,2025-10-03T21:12:29.300235
8,926,820.6896551724138,cooling,5.0179579286847944e-05,0.0007473768969318996,0.010700812454656953,3.490289267404639e-05,0.0005231652894413911,0.0074903675469500785,4.866912157059255e-05,0.009511044382829325,0,2025-10-03T21:14:29.303049
8,928,806.8965517241379,cooling,-7.542268606822796e-06,4.272759483819508e-08,-7.401737669255295e-06,-6.040003812145019e-06,3.964196813036569e-08,-5.903758279315626e-06,6.9148876958413904e-06,7.003217398065769e-06,0,2025-10-03T21:16:29.306005
8,930,793.1034482758621,cooling,0.0001446660884214179,0.001367719633051065,0.012560920983166819,0.00010004455192821542,0.0009574014275891313,0.00879141698603479,0.00015007381632104537,0.01116409853543999,81,2025-10-03T21:18:29.309271
8,932,779.3103448275863,cooling,0.00019021240928528485,0.0016752793626376866,0.013812066330885584,0.0001315834365314199,0.0011726999730712819,0.009666981646618469,0.0001971934292595801,0.012276103566060329,149,2025-10-03T21:20:29.312293
8,934,765.5172413793103,cooling,0.0002133558597282016,0.001733117857573467,0.013593496123673016,0.0001474579906609756,0.0012131860286474228,0.009513720882217216,0.00022296974646076554,0.012081746350377485,149,2025-10-03T21:22:29.316122
8,936,751.7241379310345,cooling,1.2571003973146897e-05,0.00062379828108288,0.011579456031269933,6.694631635277604e-06,0.00043665252246866473,0.008103580949901984,4.910069092398021e-05,0.010291551768836067,29,2025-10-03T21:24:29.319083
8,938,737.9310344827586,cooling,1.7400273187869885e-05,0.0007414051793695881,0.01376509535286321,9.9332613276364e-06,0.0005189938174624479,0.009633539648467172,5.611441876031501e-05,0.012234205228870873,29,2025-10-03T21:26:29.322082
8,940,724.1379310344828,cooling,6.258899126470652e-06,0.0005492047437587793,0.01018998283849563,2.0400837702741146e-06,0.00038444078018837284,0.0071306092660018364,4.7613609938873523e-05,0.009056519900394674,0,2025-10-03T21:28:29.325002
8,942,710.344827586207,cooling,-2.3506287870434973e-05,1.2569344380964725e-07,-2.3060532554027684e-05,-1.8815007850337485e-05,1.2634475724240217e-07,-1.838925608760544e-05,2.1547949496522546e-05,2.1861465330923214e-05,0,2025-10-03T21:30:29.327883
8,944,696.551724137931,cooling,-2.3036835829494556e-05,1.2485735084320813e-07,-2.2609704135923718e-05,-1.841616988064091e-05,1.1833226374316461e-07,-1.7971540358215405e-05,2.11100849917157e-05,2.1384933036201798e-05,0,2025-10-03T21:32:29.330736
8,946,682.7586206896551,cooling,-2.200823841933871e-05,1.1053473416801979e-07,-2.1506243983840825e-05,-1.7606382099781588e-05,1.1677050010550986e-07,-1.726722143703829e-05,2.01715249778423e-05,2.0496306593119167e-05,0,2025-10-03T21:34:29.333804
8,948,668.9655172413793,cooling,0.00011396554116817212,0.001257420035378345,0.011875854709363663,7.774700155812963e-05,0.0008801950849403104,0.008311182370468495,0.0001378075637024189,0.010555044269016708,113,2025-10-03T21:36:29.337118
8,950,655.1724137931035,cooling,-1.8446487067651517e-05,9.515324350119487e-08,-1.803812314734185e-05,-1.476765001910273e-05,9.404347598443754e-08,-1.4465777977179809e-05,1.691057962489659e-05,1.7122759930792325e-05,0,2025-10-03T21:38:29.340279
8,952,641.3793103448277,cooling,5.6088081266169096e-05,0.0010280131264307354,0.014706143145991536,3.765576532299481e-05,0.0007196070719785273,0.010292655440280993,7.86844425556861e-05,0.013070699003914795,49,2025-10-03T21:40:29.343505
8,954,627.5862068965517,cooling,0.00017568181679095298,0.0015369784317332263,0.01267304095300222,0.0001216335224609519,0.0010758914165192861,0.008869864267353254,0.00017988002421823798,0.011263751093494704,149,2025-10-03T21:42:29.346523
8,956,613.7931034482758,cooling,-1.0412532067800583e-05,5.409040760663434e-08,-1.0176483017009204e-05,-8.330708581010522e-06,6.228211997312807e-08,-8.164607584586011e-06,9.543852040683288e-06,9.687970607718839e-06,0,2025-10-03T21:44:29.349398
8,958,600.0,cooling,-7.315815192464137e-06,3.889456454139382e-08,-7.1829814874646644e-06,-5.854811490679425e-06,3.466164433601669e-08,-5.75636818801361e-06,6.705997729225015e-06,6.824560501031138e-06,0,2025-10-03T21:46:29.352507
9,960,600.0,heating,0.00030482112724340607,0.002017647917654487,0.014965040174853048,0.00021337474918475783,0.0014123535689775238,0.010475528593867245,0.00027093250039949114,0.013301218087086964,149,2025-10-03T21:48:29.364454
9,962,613.7931034482758,heating,1.2504274354856043e-05,7.554354747820765e-08,1.2819366233106925e-05,1.0006299588462173e-05,7.269897201012728e-08,1.0234305194157861e-05,1.1461823524500601e-05,1.1738335784240865e-05,0,2025-10-03T21:50:29.372988
9,964,627.5862068965517,heating,2.4895448612231067e-05,1.469935648526365e-07,2.5331845794195137e-05,1.9921219466165196e-05,1.511741669734695e-07,2.0588192950195108e-05,2.2819648713644163e-05,2.310890804090328e-05,0,2025-10-03T21:52:29.375827
9,966,641.3793103448276,heating,3.712877931494276e-05,2.0722785028944245e-07,3.7854355083822135e-05,2.9694251200349862e-05,2.154708071891116e-07,3.062396397856331e-05,3.402781916521087e-05,3.4531517508455216e-05,0,2025-10-03T21:54:29.378642
9,968,655.1724137931035,heating,4.9123386297865356e-05,3.0334458596045444e-07,4.9991561393582035e-05,3.9248644150999604e-05,3.1262658683752756e-07,4.010534905618034e-05,4.500799103119967e-05,4.573876699796168e-05,0,2025-10-03T21:56:29.381448
9,970,668.9655172413793,heating,6.074825191804185e-05,3.5604774630354124e-07,6.19580404747143e-05,4.8567974811978626e-05,3.3891104334796223e-07,4.97933946464634e-05,5.5669325591155116e-05,5.644590398600832e-05,0,2025-10-03T21:58:29.384309
9,972,682.7586206896551,heating,7.189155605410798e-05,3.929556510111245e-07,7.361904179809603e-05,5.746135766934153e-05,4.041242085083826e-07,5.957778859576962e-05,6.587589633969282e-05,6.71148401976618e-05,0,2025-10-03T22:00:29.387097
9,974,696.551724137931,heating,8.251637611413568e-05,4.5180727281367157e-07,8.402314879355334e-05,6.599111433757436e-05,4.826643321598453e-07,6.777065830841544e-05,7.562382145711826e-05,7.673172703632392e-05,0,2025-10-03T22:02:29.389839
9,976,710.3448275862069,heating,0.00012953325046080103,0.0006857742320445806,0.012845654656322177,0.00010001800748579664,0.0004801038708606692,0.009002774327799593,0.00011772636659072835,0.011419830958927962,29,2025-10-03T22:04:29.392854
9,978,724.1379310344828,heating,0.00010197503334134748,6.344463760072289e-07,0.00010440749102649176,8.157318040683243e-05,6.384752497914816e-07,8.509440176582847e-05,9.346483417993805e-05,9.501426732183922e-05,0,2025-10-03T22:06:29.395797
9,980,737.9310344827586,heating,0.0003012520237721455,0.0016003879618944749,0.014398424198554888,0.00022184642615210359,0.0011203431610473426,0.010090231319441926,0.000270786914446688,0.012800099791041113,113,2025-10-03T22:08:29.399300
9,982,751.7241379310344,heating,0.0001186110637011578,7.731465211600932e-07,0.00012102056819235787,9.480750676169981e-05,6.402776569485803e-07,9.740557938387437e-05,0.0001086870955819442,0.00011054083807410409,0,2025-10-03T22:10:29.402087
9,984,765.5172413793103,heating,0.00017958900808487908,0.0007683849155640348,0.011130516209051014,0.00013835164752200158,0.0005378767730080935,0.007803780396043193,0.00016312907730684566,0.009895683493231083,0,2025-10-03T22:12:29.405100
9,986,779.3103448275862,heating,0.000132100268948423,8.22133067367159e-07,0.00013508884035406108,0.00010558590496094777,7.899773230349383e-07,0.00010810176973852163,0.00012104689027298949,0.0001229923184201216,0,2025-10-03T22:14:29.407880
9,988,793.1034482758621,heating,0.00013738013445597344,7.74398311998172e-07,0.00013975633358119958,0.00010975804390429436,8.487129768654186e-07,0.00011278249868020557,0.00012586903156098638,0.00012760082137943545,0,2025-10-03T22:16:29.410664
9,990,806.8965517241379,heating,0.00046835273508198514,0.0021286478735325605,0.01479363224312364,0.0003420482535460697,0.001490066948499749,0.0103701784573977,0.000420202754808275,0.01315193705198084,230,2025-10-03T22:18:29.413775
9,992,820.6896551724137,heating,0.0003409815109904119,0.0015377748617031348,0.013963661439210243,0.0002532734304149942,0.0010766210127760472,0.009791935698290071,0.0003071032895010555,0.012414861950942465,81,2025-10-03T22:20:29.416932
9,994,834.4827586206897,heating,0.00014862777447938958,8.243199060794909e-07,0.00015134632298042096,0.00011885819390158674,8.036790211320955e-07,0.00012202442626715377,0.0001362103150798785,0.00013808325804873006,0,2025-10-03T22:22:29.419665
9,996,848.2758620689655,heating,0.0001506648401604469,8.923029649876534e-07,0.0001537704495928808,0.00012047174806008094,9.185980951885725e-07,0.00012340846981715917,0.00013807406034093477,0.0001402142829162177,0,2025-10-03T22:24:29.422427
9,998,862.0689655172414,heating,0.0003004684796183477,0.001390994573391631,0.013312936054505562,0.0002253957283892329,0.0009735868793602292,0.009333237762586363,0.00027122800889328074,0.011835893013543423,113,2025-10-03T22:26:29.425423
9,1000,875.8620689655172,heating,0.00015207876401744945,9.016453632230967e-07,0.0001556660014953008,0.00012176634426108397,8.598560304950275e-07,0.00012478637209555263,0.00013942261882195087,0.00014198403031440832,0,2025-10-03T22:28:29.428156
9,1002,889.655172413793,heating,0.0001830094918464963,0.0005869112680783183,0.011066734988514362,0.0001434762685419835,0.00041087798628244664,0.007763120581358255,0.00016693435655364987,0.009839975604015143,0,2025-10-03T22:30:29.431151
9,1004,903.448275862069,heating,0.00048148634939726166,0.0020839246743652065,0.013958109837497562,0.00035211019687989156,0.0014587492738919378,0.009786055281862886,0.000432117062400156,0.012409310139155534,247,2025-10-03T22:32:29.434434
9,1006,917.2413793103449,heating,0.000281744945834874,0.0012449942332039105,0.011928209248127321,0.0002121537261577247,0.0008715548114902748,0.008365278717723572,0.00025455628040268444,0.010605524362270344,113,2025-10-03T22:34:29.437328
9,1008,931.0344827586207,heating,0.00018580212780401045,0.0007305673963503702,0.01373297111936049,0.0001446904472797487,0.0005113712772639845,0.009627574830746678,0.0001691998161899569,0.012209223642194388,29,2025-10-03T22:36:29.440274
9,1010,944.8275862068965,heating,0.00014353525530622725,8.38230554584786e-07,0.00014733016677307437,0.000114828680875252,8.152994335535134e-07,0.00011773268132621343,0.00013155866617168272,0.00013404316177822092,0,2025-10-03T22:38:29.443235
9,1012,958.6206896551723,heating,0.0002383991591921977,0.0010886551243154048,0.01228623189896529,0.00018072373242479175,0.000762034493071993,0.00861413104976599,0.0002157202125336473,0.010923195226587027,81,2025-10-03T22:40:29.446181
9,1014,972.4137931034483,heating,0.00013640282059942317,7.707933609962443e-07,0.00013873338946782584,0.00010920601879261984,8.763979656635808e-07,0.00011202431597411455,0.00012504872667654028,0.00012693254668185705,0,2025-10-03T22:42:29.448934
9,1016,986.2068965517242,heating,0.0002877722483317637,0.001453350851598291,0.013883023745976247,0.00021468265667832007,0.001017265127329374,0.009731031892110857,0.0002594439542641995,0.012342335940787593,113,2025-10-03T22:44:29.451965
9,1018,1000.0,heating,0.00023252930359442763,0.0011521636876291113,0.012983240800618212,0.00017560541662373162,0.0008064903858582625,0.009101033981508563,0.0002102311394982527,0.01154262447080297,81,2025-10-03T22:46:29.454945
9,1020,1000.0,cooling,0.00011996792305269144,7.414710258071928e-07,0.0001228242062334816,9.597522982735112e-05,6.347301560723608e-07,9.78984572732327e-05,0.00010995731459312388,0.0001119676501455252,0,2025-10-03T22:48:29.463554
9,1022,986.2068965517242,cooling,0.00010751059469750852,6.472862066353182e-07,0.00010956342500196729,8.599177455116333e-05,6.596749706821904e-07,8.85267183522963e-05,9.853389601813074e-05,0.00010017680663900314,0,2025-10-03T22:50:29.466455
9,1024,972.4137931034483,cooling,9.51775076791453e-05,5.499059631475563e-07,9.711237477941163e-05,7.622227391621519e-05,5.360666053276632e-07,7.800252004320734e-05,8.726194710686206e-05,8.871687391283822e-05,0,2025-10-03T22:52:29.469247
9,1026,958.6206896551724,cooling,8.284568814222694e-05,5.094697613477291e-07,8.426223582380664e-05,6.622740776481755e-05,4.5109102496597983e-07,6.74716113010404e-05,7.591678258343008e-05,7.701889332481039e-05,0,2025-10-03T22:54:29.472036
9,1028,944.8275862068965,cooling,0.00018832205806809088,0.001299340033979964,0.01456727143639063,0.00013885062967877496,0.0009094467687697481,0.010204273309113814,0.00016932776411946298,0.01294915678511351,81,2025-10-03T22:56:29.475102
9,1030,931.0344827586207,cooling,5.931507938247672e-05,3.5077307007871464e-07,6.0364034520070484e-05,4.7464245682309605e-05,3.4858339598906105e-07,4.8713754037894704e-05,5.436962807789918e-05,5.517693398422162e-05,0,2025-10-03T22:58:29.477892
9,1032,917.2413793103449,cooling,0.00013931690287645386,0.0010086543058143468,0.011301287905011462,0.00010228873977483166,0.0007060801523969851,0.007916165256972016,0.00012514472096767802,0.010045952161011755,81,2025-10-03T23:00:29.480844
9,1034,903.448275862069,cooling,3.748678093790388e-05,2.2231664002265393e-07,3.837276544576419e-05,3.0019869510140594e-05,2.0801783823744586e-07,3.08200967567809e-05,3.436851114559603e-05,3.497996096539255e-05,0,2025-10-03T23:02:29.483651
9,1036,889.6551724137931,cooling,0.00019010426594039638,0.0013224782928544885,0.010943392849364086,0.00013581589421875637,0.0009257373527902595,0.007663258653764888,0.00016972693723079382,0.009727300746565115,0,2025-10-03T23:04:29.486571
9,1038,875.8620689655172,cooling,1.8032406956513575e-05,1.0129978215168764e-07,1.8329780815280596e-05,1.4413927086850584e-05,1.0465148830595529e-07,1.4864513121217993e-05,1.6523773629322842e-05,1.6733324686389076e-05,0,2025-10-03T23:06:29.489388
9,1040,862.0689655172414,cooling,9.333109203420558e-06,5.281121526912445e-08,9.508631273629396e-06,7.474734642073963e-06,5.164359247860417e-08,7.632887651677585e-06,8.557039062221043e-06,8.671186927907376e-06,0,2025-10-03T23:08:29.492174
9,1042,848.2758620689656,cooling,0.00013285416512064175,0.0012296044217007171,0.011634472013984685,9.313654030657206e-05,0.000860722568717806,0.008144262807106235,0.0001181216677812807,0.010340972742973673,113,2025-10-03T23:10:29.495270
9,1044,834.4827586206897,cooling,-5.7401186864110606e-06,3.5304090440471206e-08,-5.60715669173054e-06,-4.5901477719338005e-06,3.4583384980547286e-08,-4.464795170209991e-06,5.2605393733640025e-06,5.334852124014845e-06,0,2025-10-03T23:12:29.497949
9,1046,820.6896551724138,cooling,-1.2046242392408946e-05,6.998013396905272e-08,-1.1770233426525578e-05,-9.62729451824736e-06,7.356024690580855e-08,-9.343857921117933e-06,1.1037930897114497e-05,1.1256944753288334e-05,0,2025-10-03T23:14:29.500739
9,1048,806.8965517241379,cooling,-1.7502494001946794e-05,1.0636822527349668e-07,-1.711857715968585e-05,-1.4005014393952395e-05,1.00666182020034e-07,-1.364478129935441e-05,1.604299559807034e-05,1.6285674802661256e-05,0,2025-10-03T23:16:29.503549
9,1050,793.1034482758621,cooling,0.0005509796974667219,0.002669726725058355,0.014900646371536366,0.000383502668527188,0.0018688095833384875,0.010428457703359517,0.0005278072610914235,0.013243490666545874,298,2025-10-03T23:18:29.506778
9,1052,779.3103448275863,cooling,5.076908661934525e-05,0.0010028805777280367,0.013703827695834244,3.297343161157019e-05,0.0007020171811927796,0.009590005850266892,9.136774282478266e-05,0.012179627168209304,58,2025-10-03T23:20:29.509952
9,1054,765.5172413793103,cooling,0.00016566486288119536,0.0015150703000329556,0.012717434714996081,0.00011310187613660334,0.0010605701625043809,0.008899145329716557,0.00019800713937032536,0.011302811136956475,162,2025-10-03T23:22:29.513033
9,1056,751.7241379310345,cooling,0.0003144659152844267,0.0021070166605125992,0.01378848042891664,0.00021709480810169922,0.001474914072308114,0.009649022220841116,0.00033322970172570374,0.012254806100853827,262,2025-10-03T23:24:29.516160
9,1058,737.9310344827586,cooling,0.0002660656820056605,0.001958631526660425,0.014198607304817892,0.00018308504169855486,0.001371029860724227,0.009935732951052831,0.0002923948521139507,0.0126192382790864,149,2025-10-03T23:26:29.519379
9,1060,724.1379310344828,cooling,-3.203716491134197e-05,1.9184178906395997e-07,-3.1455426124308924e-05,-2.5585753889134967e-05,1.8224379083172646e-07,-2.4940247107662957e-05,2.9349557686583816e-05,2.9689001715746184e-05,0,2025-10-03T23:28:29.522211
9,1062,710.344827586207,cooling,-3.1627479106640477e-05,2.1538068963253207e-07,-3.09358824296781e-05,-2.5293447119386152e-05,1.6324679129465395e-07,-2.4784657670853214e-05,2.8985596214219933e-05,2.953460812924475e-05,0,2025-10-03T23:30:29.524971
9,1064,696.551724137931,cooling,-3.048923262144833e-05,1.707930182266212e-07,-2.9803951344062168e-05,-2.438501497041739e-05,1.6413673841353423e-07,-2.3846071887125662e-05,2.7943030768670086e-05,2.841894515680721e-05,0,2025-10-03T23:32:29.527803
9,1066,682.7586206896551,cooling,0.00010381667866636639,0.0012399302135121405,0.011702196122092992,6.982265275911196e-05,0.0008679605087525847,0.00818882116319162,0.00014356112371274648,0.010400506204007358,113,2025-10-03T23:34:29.530818
9,1068,668.9655172413793,cooling,-2.6354514165145483e-05,1.588576580935324e-07,-2.5849241962260984e-05,-2.1033286274032186e-05,1.6983466746523186e-07,-2.0464632493130623e-05,2.4139050660388445e-05,2.4506408570891894e-05,0,2025-10-03T23:36:29.533580
9,1070,655.1724137931035,cooling,1.2180120296951564e-05,0.0006607641055554579,0.01226450225265551,6.174750195658212e-06,0.000462531682141913,0.008582835553475946,5.3048226105477356e-05,0.010900397603172223,29,2025-10-03T23:38:29.536508
9,1072,641.3793103448277,cooling,-2.014067505308718e-05,1.2026447132704597e-07,-1.9726558477396853e-05,-1.6099286266957875e-05,1.0978603772037445e-07,-1.5636061671727814e-05,1.8455676641016372e-05,1.8770514232409304e-05,0,2025-10-03T23:40:29.539360
9,1074,627.5862068965517,cooling,1.6396406987154722e-05,0.0006087897205738688,0.011304970228883778,9.837077941595351e-06,0.00042614656006799786,0.007911777878578252,4.4157499872639766e-05,0.010047679972866206,29,2025-10-03T23:42:29.542429
9,1076,613.7931034482758,cooling,-1.2486886671448859e-05,7.679971839335287e-08,-1.2271709123593113e-05,-1.0001513201265099e-05,7.60021658327442e-08,-9.769012161292583e-06,1.1448934483140222e-05,1.1649359808870915e-05,0,2025-10-03T23:44:29.545239
9,1078,600.0,cooling,3.296079656559504e-05,0.0007662340322464998,0.014240929897582445,2.222751801152637e-05,0.0005363629509617749,0.009967816580243564,4.435146670857954e-05,0.012657423304886587,29,2025-10-03T23:46:29.548221
10,1080,600.0,heating,1.9337023404935856e-11,1.0582295753810979e-09,3.4517358480519345e-09,8.517265044627951e-11,9.272292617187734e-10,3.164416384691594e-09,1.5012016754439303e-09,5.259659393952177e-09,0,2025-10-03T23:48:29.559571
10,1082,613.7931034482758,heating,1.3545015767018487e-05,9.153551088701615e-08,1.3803072703883675e-05,1.0833781110974532e-05,7.594851315278094e-08,1.113243388441155e-05,1.241412562225202e-05,1.2627380657986162e-05,0,2025-10-03T23:50:29.568359
10,1084,627.5862068965517,heating,0.0001342625116479716,0.0011869438267676964,0.013269228768918265,9.664709858991217e-05,0.0008308446216807107,0.00929099350340574,0.00012007120426626899,0.011794487916969376,81,2025-10-03T23:52:29.571421
10,1086,641.3793103448276,heating,0.00021146869353124353,0.0013922266429654176,0.011532098527090622,0.00015203681441405158,0.0009745736095994224,0.008076567350686176,0.00018906569462032733,0.010250779474857539,149,2025-10-03T23:54:29.574609
10,1088,655.1724137931035,heating,5.315970781191366e-05,3.5282448808887094e-07,5.444765735074364e-05,4.248732452527513e-05,3.4122912107980266e-07,4.385226046339541e-05,4.8711167458651046e-05,4.950998793855234e-05,0,2025-10-03T23:56:29.577406
10,1090,668.9655172413793,heating,6.561107444419845e-05,4.136455951882728e-07,6.737659521737193e-05,5.260516053408757e-05,4.022109771326661e-07,5.3901840176356436e-05,6.017503451763094e-05,6.15823026638296e-05,0,2025-10-03T23:58:29.580464
10,1092,682.7586206896551,heating,7.773172383828765e-05,5.317104758589876e-07,7.944588877409681e-05,6.216264474707576e-05,4.962516218241351e-07,6.463509437316875e-05,7.123910262983894e-05,7.253312563840615e-05,0,2025-10-04T00:00:29.583265
10,1094,696.551724137931,heating,0.0002920472307296949,0.0016491786277441536,0.013702399859054599,0.00021337258530467206,0.001154502700042626,0.009601316013498907,0.0002620501579604424,0.012181076812138232,149,2025-10-04T00:02:29.586341
10,1096,710.3448275862069,heating,0.00028449001166734253,0.0014522251949845703,0.013905719914220847,0.00020907676413909164,0.0010165833304940073,0.009744547568042631,0.0002556039598199019,0.012361894330775374,49,2025-10-04T00:04:29.589465
10,1098,724.1379310344828,heating,0.00011001980161195881,7.373896684279591e-07,0.00011307783503466231,8.810647843753749e-05,6.819058194340611e-07,9.058437973673496e-05,0.00010086977497601144,0.00010307384684141873,0,2025-10-04T00:06:29.592295
10,1100,737.9310344827586,heating,0.00015319726248341295,0.0006302345698001076,0.011839832363427302,0.00011922404646287434,0.00044120128400368044,0.008300441146365772,0.00013949069231271002,0.010526229007176622,29,2025-10-04T00:08:29.595348
10,1102,751.7241379310344,heating,0.0001613823057763553,0.0006252169351163243,0.011754803009958074,0.0001259513174680038,0.0004376231405922633,0.008241049842577567,0.00014705088483064576,0.010450724690494594,29,2025-10-04T00:10:29.598226
10,1104,765.5172413793103,heating,0.00016527147176420635,0.0005556412103703953,0.010468803965306016,0.00012927139602801637,0.0003890594220945815,0.007343865189138818,0.0001506654307934316,0.00930832767999266,0,2025-10-04T00:12:29.601081
10,1106,779.3103448275862,heating,0.00017918787104684677,0.0006915630094738342,0.01300338072479646,0.0001396733396071936,0.0004841073305877734,0.009116971576242227,0.0001632171020897398,0.011560753933660772,29,2025-10-04T00:14:29.603991
10,1108,793.1034482758621,heating,0.00014751782362481888,9.924815717848273e-07,0.00015092001435767295,0.00011799202702997002,8.948128685821234e-07,0.00012137140542231489,0.00013520161525997453,0.00013750053593082243,0,2025-10-04T00:16:29.606792
10,1110,806.8965517241379,heating,0.0003329092853921113,0.0015777534378234378,0.014587620138075895,0.00024818623314343887,0.0011045634793691423,0.010228335177504003,0.00030008451855544906,0.012969395166719518,130,2025-10-04T00:18:29.609839
10,1112,820.6896551724137,heating,0.0004063576771203316,0.0017670292804941863,0.013988237460307404,0.00030019552504557365,0.0012368945646991146,0.009806614359216944,0.00036554076953562503,0.012436131417311213,198,2025-10-04T00:20:29.612874
10,1114,834.4827586206897,heating,0.00015842346285006506,1.0194197547460596e-06,0.00016255714760785324,0.00012668715576714663,9.909776534576708e-07,0.0001300883971230266,0.00014518919819965528,0.00014758822267091145,0,2025-10-04T00:22:29.615694
10,1116,848.2758620689655,heating,0.00016008535481457586,1.0065983249239953e-06,0.00016368842414795677,0.0001280754001130356,1.0273032170051447e-06,0.00013121112827199223,0.00014673082872112585,0.00014931410995315696,0,2025-10-04T00:24:29.618581
10,1118,862.0689655172414,heating,0.000160782131590508,1.0180828926663359e-06,0.00016401513405492232,0.0001285807450841134,1.0841086000181487e-06,0.00013183636827894855,0.0001473526547274989,0.00014942761705349548,0,2025-10-04T00:26:29.621882
10,1120,875.8620689655172,heating,0.00048640601721307124,0.0019985870798152356,0.013047553542711244,0.0003564904132911944,0.001399030602913005,0.009148573935417391,0.0004367438787480452,0.011600168757499729,259,2025-10-04T00:28:29.625430
10,1122,889.655172413793,heating,0.0002211846725411538,0.0008763641098974647,0.012711123003671873,0.00017086482269332827,0.0006134750466826027,0.008915163759739048,0.0002010421568737909,0.011301306872833435,49,2025-10-04T00:30:29.628435
10,1124,903.448275862069,heating,0.00025942588334876857,0.0011225893447873436,0.012684088412258305,0.00019720473498729206,0.0007857302922338677,0.00889386833104296,0.00023489809926454766,0.011276801421431263,81,2025-10-04T00:32:29.631629
10,1126,917.2413793103449,heating,0.00028476986356373374,0.0013023510182568789,0.013974807149548877,0.0002148047365684505,0.0009116030302965803,0.009798531137785402,0.00025738906207073626,0.012424357903462037,98,2025-10-04T00:34:29.634788
10,1128,931.0344827586207,heating,0.0002958448987086073,0.0013443325949729157,0.012871785444505823,0.00022227670597639362,0.0009408957425529183,0.009024752913792724,0.0002671568632723748,0.01144369029398162,113,2025-10-04T00:36:29.637734
10,1130,944.8275862068965,heating,0.00035366518325768824,0.001669203959786677,0.013927309141992888,0.0002625322988497932,0.001168316666336015,0.009764210007009328,0.00031849318822852027,0.012381998575960123,149,2025-10-04T00:38:29.640614
10,1132,958.6206896551723,heating,0.00014430247499599194,8.929034539094252e-07,0.00014793099729987682,0.00011535593272795261,9.040837737863284e-07,0.00011949814632851745,0.0001322331906177533,0.0001359360217855087,0,2025-10-04T00:40:29.643414
10,1134,972.4137931034483,heating,0.0001394947858340843,8.875597610748207e-07,0.00014246121862360653,0.000111769835301038,8.596604959039117e-07,0.00011588416262088684,0.00012791187093918964,0.0001300746324469121,0,2025-10-04T00:42:29.646165
10,1136,986.2068965517242,heating,0.0004672598315832805,0.002030046124194471,0.013333649345429016,0.000340462976342719,0.001421083172778698,0.00934722776255358,0.0004189984551540239,0.011854280646638042,262,2025-10-04T00:44:29.649351
10,1138,1000.0,heating,0.00018246667748155924,0.0007555873542620241,0.010951445716361051,0.00014053295367266996,0.0005288988306687303,0.007677955616058151,0.00016572328664077681,0.009736508278671627,0,2025-10-04T00:46:29.652403
10,1140,1000.0,cooling,0.00012002690227886252,8.156994302238996e-07,0.00012298570610961153,9.600629775765985e-05,7.334859684147197e-07,9.869875606879928e-05,0.00011000716696602372,0.0001123086207359348,0,2025-10-04T00:48:29.665801
10,1142,986.2068965517242,cooling,0.00045329749371262934,0.002194608497867851,0.02764562244484828,0.00032783849261989475,0.0015362680645848313,0.019361876214454024,0.0004058017358224933,0.024574059462977006,252,2025-10-04T00:50:29.669688
10,1144,972.4137931034483,cooling,0.00012693527947985945,0.0006281579011724094,0.011774780489280599,9.799077280993565e-05,0.00043971264976671405,0.008251585910065994,0.00011534840148849907,0.010467714176205567,29,2025-10-04T00:52:29.672725
10,1146,958.6206896551724,cooling,0.00020071582486615484,0.0011325450082799828,0.010795047870849568,0.00014851515750348313,0.0007927173177643434,0.00756443721556517,0.00018062179245301714,0.00959649702182506,0,2025-10-04T00:54:29.675719
10,1148,944.8275862068965,cooling,0.00012633138348020078,0.0008474407412378298,0.012203156768886971,9.507811277836763e-05,0.0005931736630112693,0.008548293923955978,0.00011412623433440694,0.010847747928996782,49,2025-10-04T00:56:29.678700
10,1150,931.0344827586207,cooling,0.00010500780098187366,0.0007222937864945824,0.010398442676313121,7.893914541766752e-05,0.0005055694589665637,0.007283992751936269,9.483988414091768e-05,0.009243455343300682,0,2025-10-04T00:58:29.681620
10,1152,917.2413793103449,cooling,0.00010938415462014577,0.0009560204721537351,0.01373355126991803,8.072799520635133e-05,0.0006692135991645855,0.00961764613279638,9.837227197992727e-05,0.012207575934650943,49,2025-10-04T01:00:29.684560
10,1154,903.448275862069,cooling,0.00027112088855964087,0.0017854591737887808,0.013624869421712276,0.00019286640315270014,0.0012498243431308595,0.009540666771400558,0.00024182979490399483,0.012110766588007445,178,2025-10-04T01:02:29.687679
10,1156,889.6551724137931,cooling,2.0000185450131385e-05,1.2310880222615885e-07,2.0447559174954755e-05,1.600701212299995e-05,1.255386233254504e-07,1.64439646085436e-05,1.8333681200951846e-05,1.871428658981388e-05,0,2025-10-04T01:04:29.691124
10,1158,875.8620689655172,cooling,0.00013091106387531725,0.001338461970604929,0.01494242427400181,9.261257687394887e-05,0.0009369237662545779,0.010460682964004974,0.00011662525628942899,0.013281332947243246,81,2025-10-04T01:06:29.694225
10,1160,862.0689655172414,cooling,0.0003759936820108416,0.0024864728995282973,0.029060618748880863,0.00026326196848078004,0.0017405310743059401,0.020342498469341004,0.000334208754209226,0.025829657460507017,177,2025-10-04T01:08:29.697637
10,1162,848.2758620689656,cooling,-7.735714175231186e-06,4.928789378947792e-08,-7.590154843052274e-06,-6.1825805773557285e-06,4.946024652308142e-08,-6.012121648169127e-06,7.0883303190034524e-06,7.2229908365939415e-06,0,2025-10-04T01:10:29.700380
10,1164,834.4827586206897,cooling,-1.524319604026622e-05,9.38964120647218e-08,-1.4825695976315998e-05,-1.2207994149898251e-05,1.0591529169620079e-07,-1.1794833246873591e-05,1.3975695321563584e-05,1.4235909486227796e-05,0,2025-10-04T01:12:29.703189
10,1166,820.6896551724138,cooling,0.00012045242359351407,0.0013768202637747078,0.014798773576165089,8.211321803250025e-05,0.0009637738114460748,0.010357104202771021,0.00014604350561419997,0.0131529749217558,78,2025-10-04T01:14:29.707118
10,1168,806.8965517241379,cooling,-2.7435180321479097e-05,1.784187974513818e-07,-2.6832508420416177e-05,-2.1909148719265343e-05,1.7287487653113123e-07,-2.1224883062483223e-05,2.5133535950763473e-05,2.5548451651177632e-05,0,2025-10-04T01:16:29.709837
10,1170,793.1034482758621,cooling,0.0001945097606606183,0.0017852109503757182,0.014919251913990204,0.00013297973964273828,0.0012496424188736285,0.010440462732215449,0.00022985725180596047,0.013259828235318292,159,2025-10-04T01:18:29.713093
10,1172,779.3103448275863,cooling,0.0003730688210909587,0.002245090495254106,0.014563380497341242,0.0002575942383275897,0.0015715699724252051,0.01019087111783831,0.00039396156949482523,0.012943427947813784,178,2025-10-04T01:20:29.716310
10,1174,765.5172413793103,cooling,0.00013160869908428858,0.0013246249845968582,0.010790339854203218,8.824838966206638e-05,0.0009272335708908203,0.007549400448336951,0.0001850594545327863,0.009589724808631456,0,2025-10-04T01:22:29.719452
10,1176,751.7241379310345,cooling,0.00017937174392220766,0.0015609420826388327,0.011664860814893372,0.00012156239223502048,0.001092664284192013,0.008161726286647443,0.0002303750406980566,0.01036710598873335,81,2025-10-04T01:24:29.722468
10,1178,737.9310344827586,cooling,-4.0855685273023555e-05,2.510909042807086e-07,-4.01525010223594e-05,-3.268301096180136e-05,2.671842349970141e-07,-3.148126427026792e-05,3.7446202145407984e-05,3.800259842023695e-05,0,2025-10-04T01:26:29.725345
10,1180,724.1379310344828,cooling,-4.070525655456578e-05,2.6527815451073665e-07,-3.982530506309914e-05,-3.2550553901709925e-05,2.3382415435681024e-07,-3.181265280270761e-05,3.730426289354839e-05,3.7921169415354594e-05,0,2025-10-04T01:28:29.728075
10,1182,710.344827586207,cooling,1.921541461217881e-05,0.0008393255191592344,0.011980270380519133,9.471754361044162e-06,0.0005875350884118804,0.00838233078580605,8.836834457694161e-05,0.010647404252839365,49,2025-10-04T01:30:29.731068
10,1184,696.551724137931,cooling,-3.7906465986081515e-05,2.518026296071963e-07,-3.661562378628565e-05,-3.03899079850739e-05,2.3631791602816895e-07,-2.9565560169178617e-05,3.4764867214843e-05,3.534042380941623e-05,0,2025-10-04T01:32:29.733839
10,1186,682.7586206896551,cooling,0.00011752991860419403,0.0014302992870360868,0.013496670498934967,7.870922050724519e-05,0.0010012080487448612,0.009444364551236392,0.00016761262154147726,0.01199535358784699,113,2025-10-04T01:34:29.736738
10,1188,668.9655172413793,cooling,-3.225338028408327e-05,2.2758219867101917e-07,-3.156586222785586e-05,-2.5775846379118534e-05,2.0977577842128925e-07,-2.498849706301343e-05,2.9553622881487806e-05,3.005481202952669e-05,0,2025-10-04T01:36:29.739520
10,1190,655.1724137931035,cooling,-2.845086228086406e-05,1.8092476480109933e-07,-2.77065061570633e-05,-2.2773034690240108e-05,1.9341571547993608e-07,-2.2281408689197436e-05,2.6081094591329574e-05,2.6706598175021443e-05,0,2025-10-04T01:38:29.742357
10,1192,641.3793103448277,cooling,-2.423581881950595e-05,1.5453192547614876e-07,-2.376160770429212e-05,-1.9347918166107993e-05,1.7177562212064724e-07,-1.857484527087088e-05,2.2200470232040566e-05,2.2569894107833402e-05,0,2025-10-04T01:40:29.745134
10,1194,627.5862068965517,cooling,-1.9554402928371535e-05,1.3081108604451377e-07,-1.9032023499813925e-05,-1.563668417398782e-05,1.2691032993207976e-07,-1.5037328097292834e-05,1.7920691014688224e-05,1.827925591823485e-05,0,2025-10-04T01:42:29.747873
10,1196,613.7931034482758,cooling,2.6164821924029246e-05,0.0007554979230335447,0.014035106055927293,1.6859137042788947e-05,0.0005288560993169942,0.009823272123227087,4.9499111764766504e-05,0.012474382195094155,29,2025-10-04T01:44:29.750972
10,1198,600.0,cooling,0.0002036785218084209,0.0016874187167883685,0.026685833995356643,0.00014163595990181267,0.001181187649206118,0.01867903521658235,0.0001977416480103165,0.02371865214695515,158,2025-10-04T01:46:29.754197
