cycle,time_min,temperature_C,phase,mean_exx,std_exx,max_exx,mean_eyy,std_eyy,max_eyy,mean_von_mises,max_von_mises,hotspot_count,timestamp
1,0,25.000000000000007,startup,1.0000928006085636e-06,4.3394338108116544e-09,1.0123788210779463e-06,7.998482226563684e-07,4.622421362064309e-09,8.168659635278176e-07,9.1655058365324e-07,9.250204272256149e-07,0,2025-10-03T05:48:33.675762
1,3,30.00256798945258,startup,1.4524001794330343e-06,6.5842666629649305e-09,1.4777421608417628e-06,1.161477022878012e-06,7.111777920977259e-09,1.1834575207094117e-06,1.3310398731720192e-06,1.349591849717525e-06,0,2025-10-03T05:51:33.680030
1,6,36.00616343846898,startup,3.193453954553103e-06,1.3346563392509676e-08,3.241345745956247e-06,2.5559823334974615e-06,1.3385917209139533e-08,2.600814009015685e-06,2.9273177385508315e-06,2.969529893177073e-06,0,2025-10-03T05:54:33.682665
1,9,43.2110946640803,startup,7.451833954530918e-05,0.0009866003966657367,0.014134270242079843,5.2693354757408825e-05,0.000690621351136235,0.00989452120297072,6.638034943529937e-05,0.012562932418049112,49,2025-10-03T05:57:33.685829
1,12,51.85775222230962,startup,7.79503403529604e-06,3.553723550901286e-08,7.911776183974313e-06,6.241479417998411e-06,3.604966409499594e-08,6.432677027907283e-06,7.146240578917779e-06,7.231646196049059e-06,0,2025-10-03T06:00:33.688527
1,15,62.23462947320119,startup,1.080336088471694e-05,4.936707531312303e-08,1.0936096319380584e-05,8.64901488081127e-06,4.263828988654131e-08,8.791601233127669e-06,9.903756087697729e-06,1.0016081581962963e-05,0,2025-10-03T06:03:33.691327
1,18,74.6879480827243,startup,1.4431994523428804e-05,6.609026737686917e-08,1.4663892559800089e-05,1.1530142869729676e-05,7.085100066438644e-08,1.1754093712426985e-05,1.3222503002440206e-05,1.3387324220874688e-05,0,2025-10-03T06:06:33.694061
1,21,89.63320961378561,startup,1.877138254975217e-05,8.436437476156602e-08,1.916176519293371e-05,1.4996851999142676e-05,8.598989937245359e-08,1.5229987513710616e-05,1.719813871658033e-05,1.74274971880932e-05,0,2025-10-03T06:09:33.697040
1,24,107.56905862201826,startup,2.399127314642603e-05,1.0544735181981964e-07,2.4464437461118926e-05,1.9172151763865186e-05,9.902447015126219e-08,1.948831930763621e-05,2.198209578840822e-05,2.2277574139161002e-05,0,2025-10-03T06:12:33.699720
1,27,129.09391979474051,startup,3.023294669008385e-05,1.4105046374472674e-07,3.0871023483998366e-05,2.4181695422130442e-05,1.3530011906790103e-07,2.473670006486109e-05,2.77081725546005e-05,2.816812205667016e-05,0,2025-10-03T06:15:33.702629
1,30,154.92596422666574,startup,0.00015484764098198228,0.0010957874449012525,0.010404935436859148,0.00011217286918210984,0.0007670521028180338,0.0072874820823748115,0.0001386774817176488,0.009248935738329472,0,2025-10-03T06:18:33.705646
1,33,185.92707100168144,startup,8.252559214221766e-05,0.0006644955033989601,0.012404104147016185,6.244600483072771e-05,0.0004651386826641348,0.008687546395974868,7.464679778497224e-05,0.01102604157024782,29,2025-10-03T06:21:33.708595
1,36,223.13158355230894,startup,0.00014478821068672127,0.0009655697168880169,0.010829950499646503,0.00010710867742168712,0.0006758849317872241,0.007586800146197356,0.00013028431606863862,0.009627111810507355,0,2025-10-03T06:24:33.711719
1,39,267.78082024489464,startup,0.0002370794017285818,0.0013542341293731643,0.011248893221274633,0.00017296496524388943,0.0009479743814194109,0.007881345218502332,0.00021265600390405742,0.009999716251268019,0,2025-10-03T06:27:33.714656
1,42,321.3644906267532,startup,8.605621978859988e-05,3.5028214010973737e-07,8.732106183114726e-05,6.888523239861461e-05,3.5273652579104175e-07,7.032121455447386e-05,7.888685194383071e-05,7.970303430297521e-05,0,2025-10-03T06:30:33.717361
1,45,385.6703991769983,startup,0.0002772810292186069,0.0014385299506707912,0.012482611265399846,0.00020452863216108294,0.0010069211509203867,0.008748239941366883,0.00024933514143541584,0.011097066838969225,142,2025-10-03T06:33:33.720467
1,48,462.8440949130882,startup,0.0003671158168263827,0.0016905240396742323,0.013284755985725764,0.0002697567071349309,0.0011834486896267868,0.009311278859650862,0.00032983028851149457,0.011810389143374261,198,2025-10-03T06:36:33.723533
1,51,555.4604570458628,startup,0.00046402567934502974,0.0020213488581319904,0.014064465309022587,0.00034016788327601445,0.0014149774061358608,0.009861245699139246,0.00041666914029220027,0.012504145846989615,230,2025-10-03T06:39:33.726706
1,54,666.6096051188359,startup,0.0003552271016216308,0.0015802550627287998,0.015137263074248633,0.0002672832566176129,0.001106124625101259,0.010614877552870992,0.0003208843766233902,0.013458463621224798,113,2025-10-03T06:42:33.729618
1,57,800.0000000000003,startup,0.00022510583516198928,9.665003957134646e-07,0.0002286004017943373,0.00018006167427368457,9.463559792085095e-07,0.00018424975158132616,0.00020631067300933033,0.00020883220872146743,0,2025-10-03T06:45:33.732401
1,60,800.0,operation,0.0001499367339912623,4.263409791797545e-07,0.00015126813347388164,0.00012004742884020838,4.190459183881994e-07,0.00012137840504722471,0.00013745295023083964,0.00013852378936575312,0,2025-10-03T06:48:33.736497
1,63,800.0,operation,0.0001499637276323463,4.784159642837751e-07,0.00015167085541542444,0.0001199872271579645,4.0984501039923504e-07,0.00012128689949927262,0.00013745092460528557,0.0001383579601827008,0,2025-10-03T06:51:33.739330
1,66,800.0,operation,0.00015009979749076594,4.055542276389521e-07,0.00015137129186727213,0.0001200135780346062,4.3820350789832345e-07,0.00012172693782391985,0.0001375485801953317,0.00013856994399568965,0,2025-10-03T06:54:33.741983
1,69,800.0,operation,0.00015001833913529716,4.531327948223992e-07,0.00015162407990201382,0.00011997057306406309,4.603915248374689e-07,0.00012195824757945023,0.00013748138598723272,0.00013850511752657108,0,2025-10-03T06:57:33.747494
1,72,800.0,operation,0.00019252934480935364,0.0007870574496153493,0.01478714440524017,0.00014966587164093488,0.0005509082535044378,0.01036543815618005,0.00017524318009142794,0.013146237704897238,29,2025-10-03T07:00:33.755937
1,75,800.0,operation,0.00015006644084371247,4.3077651966578205e-07,0.00015147030972993122,0.00011998456777425443,4.596769853009928e-07,0.0001215574490389517,0.000137517152295344,0.00013881710383381078,0,2025-10-03T07:03:33.760932
1,78,800.0,operation,0.00018519723457406987,0.0006523051560025422,0.012281030071373196,0.00014464923981625247,0.00045662397793826115,0.008611973981160388,0.00016876419108937467,0.010918886783022897,29,2025-10-03T07:06:33.764015
1,81,800.0,operation,0.00014994364783442674,4.409389162576243e-07,0.00015149728454069353,0.00012008833921593218,4.662540972133347e-07,0.00012166055472501757,0.00013747112795130985,0.00013866505968770386,0,2025-10-03T07:09:33.766943
1,84,800.0,operation,0.00015002225548222395,4.760912928189866e-07,0.00015148823055495165,0.00012003839112410231,4.3025701410498985e-07,0.00012133865436266277,0.0001375059307048637,0.00013875407788722092,0,2025-10-03T07:12:33.769759
1,87,800.0,operation,0.000149993492257092,4.187632487436441e-07,0.00015144489787921467,0.00012001130841259018,4.133615834898959e-07,0.00012126714997108507,0.00013747808504717708,0.00013855296794786412,0,2025-10-03T07:15:33.772569
1,90,800.0,shutdown,0.00011997214812007643,2.893015731258465e-07,0.00012098393110669121,9.60574529531473e-05,3.048589660027995e-07,9.739209099151037e-05,0.00010998328636040264,0.00011062338038831422,0,2025-10-03T07:18:33.776442
1,93,773.2758620689655,shutdown,0.00011585033257923258,2.6263756835176775e-07,0.0001167176567075315,9.266820795420185e-05,2.706577854480213e-07,9.356455583361962e-05,0.00010617537263620407,0.00010703028649052194,0,2025-10-03T07:21:33.779322
1,96,746.551724137931,shutdown,0.00011176699742016214,2.5108245354993503e-07,0.00011265785331684702,8.93939093489036e-05,2.6677631924927703e-07,9.016909029450099e-05,0.00010243045842323207,0.00010304036593761401,0,2025-10-03T07:24:33.782439
1,99,719.8275862068965,shutdown,0.00010759415293895058,2.5397877226584526e-07,0.0001086755670909258,8.605514017207252e-05,2.5073958513891214e-07,8.694241056868599e-05,9.860575146191215e-05,9.948552567075438e-05,0,2025-10-03T07:27:33.785195
1,102,693.1034482758621,shutdown,0.00010343879931056048,2.54064544947991e-07,0.00010448857843383408,8.27742381161717e-05,2.3872218805042705e-07,8.385245802969464e-05,9.481153993753679e-05,9.557673722323852e-05,0,2025-10-03T07:30:33.788016
1,105,666.3793103448276,shutdown,9.935555087408491e-05,2.3291133556488546e-07,0.00010057880400319354,7.944790623813076e-05,2.2756097761361905e-07,8.024765664897366e-05,9.104959272608255e-05,9.166842965410039e-05,0,2025-10-03T07:33:33.790730
1,108,639.655172413793,shutdown,9.514403425596706e-05,2.336772236944703e-07,9.602138642491264e-05,7.61215063054637e-05,2.1929998862291766e-07,7.685378995924092e-05,8.720369886685783e-05,8.79252365286729e-05,0,2025-10-03T07:36:33.793554
1,111,612.9310344827586,shutdown,9.106165730757236e-05,2.0590337697487735e-07,9.15951317974765e-05,7.28278147791596e-05,2.1840630049462048e-07,7.340457255571397e-05,8.345298237166981e-05,8.393742205986744e-05,0,2025-10-03T07:39:33.796417
1,114,586.2068965517242,shutdown,8.687792381823796e-05,2.15385101026394e-07,8.77699719688144e-05,6.949998907889652e-05,2.1950124141803458e-07,7.015852035271972e-05,7.962474772057581e-05,8.029488751545627e-05,0,2025-10-03T07:42:33.799280
1,117,559.4827586206897,shutdown,8.27378195094943e-05,2.0333474855900633e-07,8.362189933472601e-05,6.620109752943062e-05,2.009085487449959e-07,6.682988081582966e-05,7.583460028789341e-05,7.627258440678112e-05,0,2025-10-03T07:45:33.802082
1,120,532.7586206896551,shutdown,7.86446419442529e-05,1.9808014648451855e-07,7.925830639942321e-05,6.292922200679814e-05,1.8314929576512778e-07,6.362853776428194e-05,7.208397463984972e-05,7.251042234822538e-05,0,2025-10-03T07:48:33.804897
1,123,506.0344827586207,shutdown,7.44716194878011e-05,1.7442891599300017e-07,7.502224065568112e-05,5.9572075995247596e-05,1.6495505944872268e-07,6.014367641732399e-05,6.825308431585092e-05,6.870628738828982e-05,0,2025-10-03T07:51:33.807728
1,126,479.31034482758616,shutdown,7.033964160470255e-05,1.6616412408560184e-07,7.089857843196458e-05,5.6302350358706854e-05,1.8398960685317917e-07,5.690810317665369e-05,6.447787721370415e-05,6.490719907853535e-05,0,2025-10-03T07:54:33.810520
1,129,452.5862068965517,shutdown,6.620674084369101e-05,1.5553934759555245e-07,6.664807634624193e-05,5.29698510579649e-05,1.5809438843678674e-07,5.3496779698420524e-05,6.0681399968107066e-05,6.100764487442865e-05,0,2025-10-03T07:57:33.813382
1,132,425.8620689655172,shutdown,6.208087317944576e-05,1.4423118650608273e-07,6.257814333677386e-05,4.965171259405271e-05,1.3824551139509791e-07,5.011993190235858e-05,5.689421202007144e-05,5.719066588894662e-05,0,2025-10-03T08:00:33.816242
1,135,399.13793103448273,shutdown,0.0002161704324152912,0.0014802419865064236,0.014062324388595018,0.00015712163881062305,0.0010361729087400907,0.009849592853249569,0.00019374094625127674,0.012500173930902175,113,2025-10-03T08:03:33.819308
1,138,372.41379310344826,shutdown,5.3788095118999856e-05,1.2709518262488978e-07,5.420848826086417e-05,4.3028317266419796e-05,1.238045344359931e-07,4.378910794571684e-05,4.929725552197946e-05,4.972353309274238e-05,0,2025-10-03T08:06:33.822075
1,141,345.6896551724138,shutdown,4.9645596224463663e-05,1.1907265698043164e-07,5.001357985147203e-05,3.9731024003681695e-05,1.1798137496252716e-07,4.0100132521276503e-05,4.5506057036686607e-05,4.581848319308219e-05,0,2025-10-03T08:09:33.824892
1,144,318.9655172413793,shutdown,0.00028044393288912566,0.0016929386773238324,0.014493507507425396,0.0002008708914283861,0.0011850564523526621,0.010150057031013845,0.0002505232125012003,0.01288311858374719,81,2025-10-03T08:12:33.828437
1,147,292.2413793103448,shutdown,4.1375587442948394e-05,9.782320500681769e-08,4.169705218868203e-05,3.309762715208827e-05,1.0706094857239403e-07,3.3506457730568686e-05,3.792071425103466e-05,3.8163344514719406e-05,0,2025-10-03T08:15:33.831313
1,150,265.51724137931035,shutdown,3.724998714922142e-05,9.27567252526773e-08,3.750407853205135e-05,2.9811482072852648e-05,9.258030235193395e-08,3.010140885300488e-05,3.414421490294215e-05,3.435718437337988e-05,0,2025-10-03T08:18:33.834139
1,153,238.79310344827582,shutdown,3.30963803950891e-05,8.302276486479445e-08,3.3370435220706426e-05,2.6478923100712103e-05,7.86244301897251e-08,2.6706074675359908e-05,3.0334153851619468e-05,3.0521021460986235e-05,0,2025-10-03T08:21:33.837093
1,156,212.0689655172414,shutdown,2.8962752600820563e-05,6.846581520531072e-08,2.9259049585321033e-05,2.3194303117621035e-05,6.581706860132625e-08,2.3419639878085736e-05,2.655288823262462e-05,2.675786868309945e-05,0,2025-10-03T08:24:33.840360
1,159,185.34482758620686,shutdown,2.482646018369897e-05,5.835012405602563e-08,2.5018798130895386e-05,1.9859491905292277e-05,6.110957344198234e-08,2.0066360511870445e-05,2.275345407404244e-05,2.2885946732465015e-05,0,2025-10-03T08:27:33.843213
1,162,158.62068965517233,shutdown,0.0004202618158563132,0.002120923178241514,0.012018078404147033,0.00029624179843792877,0.001484643743415447,0.008414737193897614,0.0003741030059830604,0.010682361197045152,343,2025-10-03T08:30:33.846486
1,165,131.8965517241379,shutdown,5.598695890176181e-05,0.0007312420719009851,0.013615163968355427,4.0847756840099344e-05,0.0005118691252578329,0.009532247365442085,5.0221132501977786e-05,0.0121017899032986,29,2025-10-03T08:33:33.849524
1,168,105.17241379310337,shutdown,1.2412781762741308e-05,3.1195873155467576e-08,1.2524215348830279e-05,9.92941245077771e-06,2.644309978787628e-08,1.0031293644397598e-05,1.1376325227045747e-05,1.1448348290999836e-05,0,2025-10-03T08:36:33.852415
1,171,78.44827586206895,shutdown,8.273904492381641e-06,1.7967896515703393e-08,8.325358668083205e-06,6.6251136557764145e-06,1.9920918648795643e-08,6.696614419685935e-06,7.585171166000407e-06,7.637984993058298e-06,0,2025-10-03T08:39:33.855266
1,174,51.72413793103442,shutdown,4.139171303951188e-06,9.636791637543683e-09,4.180409471836369e-06,3.310100780947002e-06,9.584594245319703e-09,3.3381139852814166e-06,3.793235596934396e-06,3.8217935692278276e-06,0,2025-10-03T08:42:33.858080
1,177,25.0,shutdown,1.0000009686902815e-06,2.2231364647825554e-09,1.0066772308219396e-06,7.996593758713657e-07,2.2647821597717964e-09,8.084678951034572e-07,9.164114527566588e-07,9.215990387700044e-07,0,2025-10-03T08:45:33.860877
2,180,25.000000000000007,startup,1.998710841212364e-05,8.534237357712567e-08,2.0278656246253483e-05,1.5998879389597113e-05,8.700662549820995e-08,1.6295655858852846e-05,1.8321941974115364e-05,1.8527680052815266e-05,0,2025-10-03T08:48:33.868017
2,183,30.00256798945258,startup,0.0002276079508483638,0.0016308828320190317,0.014956261646062896,0.0001614613036910601,0.001141614603032605,0.010471491180292277,0.00020289206730639845,0.013293869610505169,81,2025-10-03T08:51:33.872225
2,186,36.00616343846898,startup,2.3202802371680466e-05,9.974681199611821e-08,2.3583773967342206e-05,1.8561006215237323e-05,1.0292406200432651e-07,1.9043174067070335e-05,2.126587311283267e-05,2.1508105965421e-05,0,2025-10-03T08:54:33.875024
2,189,43.2110946640803,startup,0.0001198735873832299,0.0010466877065463454,0.011702673734472858,8.644415362750448e-05,0.000732662679956352,0.008194219244149412,0.00010724730932677813,0.010402077026116577,81,2025-10-03T08:57:33.877963
2,192,51.85775222230962,startup,0.0001392887425127804,0.001233673293413549,0.013791268688626153,0.00010026911798310316,0.0008635758723024543,0.00965670675644641,0.000124567619341506,0.012258570503484825,81,2025-10-03T09:00:33.880825
2,195,62.23462947320119,startup,3.080274278078456e-05,1.372401451960824e-07,3.127262488802886e-05,2.4632077261967387e-05,1.4495257900229154e-07,2.5148462982428336e-05,2.822867998223407e-05,2.859194420490132e-05,0,2025-10-03T09:03:33.883630
2,198,74.6879480827243,startup,3.4455007456592806e-05,1.4623184994475156e-07,3.497328583662832e-05,2.7542157106885723e-05,1.4595516570216485e-07,2.8068893201401883e-05,3.1572157674843094e-05,3.190169167729364e-05,0,2025-10-03T09:06:33.886457
2,201,89.63320961378561,startup,8.86789877661569e-05,0.0007109876014743923,0.010220819878873503,6.593531276545095e-05,0.000497691993592091,0.007158532866583904,7.988762219973417e-05,0.009085333291614331,0,2025-10-03T09:09:33.889348
2,204,107.56905862201826,startup,4.395531454793077e-05,2.0675719060825336e-07,4.4929821224177206e-05,3.518858051181435e-05,2.04893891602986e-07,3.582850900768337e-05,4.029479759759562e-05,4.099686283314775e-05,0,2025-10-03T09:12:33.892563
2,207,129.09391979474051,startup,5.0230439188708356e-05,2.2919685442987974e-07,5.104696409672982e-05,4.0178599675952356e-05,2.276587619966885e-07,4.115706472881208e-05,4.603641068400307e-05,4.662380754412079e-05,0,2025-10-03T09:15:33.895485
2,210,154.92596422666574,startup,5.7732310200461565e-05,2.5872602800519753e-07,5.871319810793673e-05,4.612843623613354e-05,2.6028042163762056e-07,4.6966102241763033e-05,5.289519809375439e-05,5.3673417472431136e-05,0,2025-10-03T09:18:33.898383
2,213,185.92707100168144,startup,6.67017196969352e-05,2.9730499138363297e-07,6.777929600713879e-05,5.339012884608882e-05,2.9630369262127646e-07,5.432119674748776e-05,6.114429242530074e-05,6.18570846024068e-05,0,2025-10-03T09:21:33.901100
2,216,223.13158355230894,startup,7.749753861456923e-05,3.262778375262125e-07,7.872265869648395e-05,6.193542145955471e-05,3.5724394824426505e-07,6.306123057040538e-05,7.100910457738165e-05,7.20054408194061e-05,0,2025-10-03T09:24:33.903910
2,219,267.78082024489464,startup,9.054584094248348e-05,4.3580341285333044e-07,9.22643291087876e-05,7.234571020061544e-05,4.4205794649510954e-07,7.369812272659324e-05,8.295914644883921e-05,8.436773520344936e-05,0,2025-10-03T09:27:33.906831
2,222,321.3644906267532,startup,0.0001748760276830234,0.0009816149416230601,0.014163957701710994,0.00013310595192095347,0.0006871255929574319,0.009925499475986548,0.00015839923868285713,0.012591619562292718,49,2025-10-03T09:30:33.909780
2,225,385.6703991769983,startup,0.0001246834565621115,5.558431339454064e-07,0.0001264997037090444,9.978459217755735e-05,5.669781980380667e-07,0.00010158250782235763,0.00011428949537942817,0.0001157557239054914,0,2025-10-03T09:33:33.912528
2,228,462.8440949130882,startup,0.000147109682659899,6.049453435801279e-07,0.0001488417353697032,0.00011776993166751828,6.621219871463239e-07,0.00012026506055343628,0.00013485823104520244,0.00013624755965318982,0,2025-10-03T09:36:33.915340
2,231,555.4604570458628,startup,0.0003972019265144372,0.0018153566050122321,0.015159157737720362,0.0002955640831500683,0.0012708198545518094,0.010629151811125174,0.00035789031533082664,0.013477535082141053,149,2025-10-03T09:39:33.918424
2,234,666.6096051188359,startup,0.00020622134179151867,9.790873755151092e-07,0.00020942101993677467,0.00016528292392762228,9.383940962424072e-07,0.0001689985712183961,0.00018911010407602485,0.00019133225074779455,0,2025-10-03T09:42:33.921220
2,237,800.0000000000003,startup,0.00029808079143920773,0.0007593498249851661,0.011120704497693553,0.000233302384252357,0.0005315019265932103,0.007808339279587129,0.00027177445486121544,0.009889634182016006,0,2025-10-03T09:45:33.924227
2,240,800.0,operation,0.00016996220933229302,5.426116015285793e-07,0.00017185441146431524,0.00013595570523526666,4.6931762823772837e-07,0.00013759603126200522,0.00015576999824349266,0.00015724135650712793,0,2025-10-03T09:48:33.927982
2,243,800.0,operation,0.0001700433536003983,5.276285759868206e-07,0.00017170109636182354,0.00013598773649523723,4.820759855384191e-07,0.00013777545389965875,0.00015583368444031483,0.0001573638464696564,0,2025-10-03T09:51:33.930822
2,246,800.0,operation,0.00016991699681846137,4.95790890835915e-07,0.00017155910033755825,0.0001360077665534324,4.725207843965851e-07,0.00013735035144820808,0.00015575756036906186,0.00015689803646540097,0,2025-10-03T09:54:33.933581
2,249,800.0,operation,0.00017005023148479925,4.7041492478191973e-07,0.00017163765283519032,0.00013598206307454254,4.858580226346703e-07,0.00013771403233767384,0.00015583642719163083,0.00015711391411980403,0,2025-10-03T09:57:33.936352
2,252,800.0,operation,0.00017004690844681382,5.33091355535736e-07,0.00017240866207132976,0.00013596054012149058,5.15091984112359e-07,0.00013764846470461778,0.00015582711547649028,0.00015701566698449665,0,2025-10-03T10:00:33.939172
2,255,800.0,operation,0.00017005413081636465,5.114221341775042e-07,0.00017194510312582335,0.0001359500676203232,5.082781524297833e-07,0.00013748503359043923,0.00015582845233137974,0.00015720447961776763,0,2025-10-03T10:03:33.941931
2,258,800.0,operation,0.00039255633571827546,0.0018092695234430273,0.015104536878163127,0.0002917782480690494,0.0012664517741234917,0.01058999920530856,0.0003536053173462194,0.013428798452434481,149,2025-10-03T10:06:33.944959
2,261,800.0,operation,0.00016999973625417075,5.038269686454279e-07,0.00017202110221523696,0.00013598829976237443,4.911614958565729e-07,0.00013789793214869113,0.00015580521893029874,0.00015704312458021338,0,2025-10-03T10:09:33.947664
2,264,800.0,operation,0.0001700011589013946,4.83689657869833e-07,0.00017170710530926557,0.0001360322457947538,4.77681811806636e-07,0.00013808201065687123,0.00015582054893850097,0.00015729767642110287,0,2025-10-03T10:12:33.950405
2,267,800.0,operation,0.0001700993163107653,5.222559612019514e-07,0.00017192063226176168,0.00013596412673779558,5.306969349228115e-07,0.0001378502435329596,0.0001558627771556463,0.00015700227069003825,0,2025-10-03T10:15:33.953217
2,270,800.0,shutdown,0.00014004859925814144,3.3297058343856215e-07,0.00014153065978888518,0.00011199839519145178,3.3579070790621703e-07,0.00011304592544183781,0.00012834435918050998,0.00012942819789925347,0,2025-10-03T10:18:33.963881
2,273,773.2758620689655,shutdown,0.00013585026163272565,3.2753038903531027e-07,0.000136815565743306,0.00010869549111175356,3.212604928961584e-07,0.00011022340331462393,0.0001245147585288736,0.0001252013776232365,0,2025-10-03T10:21:33.966710
2,276,746.551724137931,shutdown,0.00013176357754142806,3.267802940474011e-07,0.00013290916722100244,0.00010534848996473832,3.501100386424408e-07,0.0001066811620598963,0.00012074392569423065,0.0001216294662308823,0,2025-10-03T10:24:33.969449
2,279,719.8275862068965,shutdown,0.00012758498759872885,3.336916523940493e-07,0.00012963534118688518,0.00010208545059898695,3.1034481975593034e-07,0.0001030084087277519,0.00011694015138647214,0.00011831560177624127,0,2025-10-03T10:27:33.972278
2,282,693.1034482758621,shutdown,0.00026214488623102906,0.0012974189863349582,0.012398382303270413,0.00019581647702497608,0.0009082073072260622,0.008691565389751861,0.000236402187157866,0.011022607991445662,113,2025-10-03T10:30:33.975387
2,285,666.3793103448276,shutdown,0.00011933415943731674,2.984447673287171e-07,0.00012079056845577609,9.544283732964796e-05,2.934546989859409e-07,9.63367511888776e-05,0.000109364512120719,0.00011032465300193896,0,2025-10-03T10:33:33.978129
2,288,639.655172413793,shutdown,0.00011515797007198744,2.7723993935839907e-07,0.00011596232505995841,9.214468894492173e-05,2.805850349002214e-07,9.307415779699395e-05,0.00010555083422159662,0.00010623034390566475,0,2025-10-03T10:36:33.980921
2,291,612.9310344827586,shutdown,0.000141538178264314,0.0005659134999757715,0.010635347281257711,0.00011020341809280261,0.0003961328705278586,0.007455609827328649,0.0001288838915266155,0.009455352780531487,0,2025-10-03T10:39:33.983913
2,294,586.2068965517242,shutdown,0.00010685678851634069,2.5225791233470005e-07,0.00010777786951253224,8.552773174197673e-05,2.641860510719602e-07,8.669335703477058e-05,9.795048203359378e-05,9.855896657697798e-05,0,2025-10-03T10:42:33.986733
2,297,559.4827586206897,shutdown,0.00010280327778774891,2.436627165177861e-07,0.00010375249608192893,8.222216766892794e-05,2.4696059542868515e-07,8.328205030910075e-05,9.421486469389405e-05,9.478994242134942e-05,0,2025-10-03T10:45:33.989548
2,300,532.7586206896551,shutdown,9.86150560539532e-05,2.375462270603449e-07,9.93903889905303e-05,7.889189709344485e-05,2.35328454686828e-07,7.977897493073515e-05,9.038282479743604e-05,9.094198933795926e-05,0,2025-10-03T10:48:33.992343
2,303,506.0344827586207,shutdown,9.4501896173277e-05,2.3413705215310558e-07,9.522895779537955e-05,7.557487633586369e-05,2.53026532115725e-07,7.64700723766935e-05,8.660451039192503e-05,8.71897381877205e-05,0,2025-10-03T10:51:33.995127
2,306,479.31034482758616,shutdown,9.036610812712616e-05,2.2001558706903113e-07,9.148466115043501e-05,7.227316266208521e-05,2.0682248693864947e-07,7.29947637904687e-05,8.281606996345104e-05,8.37012067210375e-05,0,2025-10-03T10:54:33.997802
2,309,452.5862068965517,shutdown,8.619040180302552e-05,2.0044961579538435e-07,8.678216406644647e-05,6.894491690277865e-05,1.9886520993475342e-07,6.970052526352914e-05,7.89929210739475e-05,7.947952043375457e-05,0,2025-10-03T10:57:34.000612
2,312,425.8620689655172,shutdown,0.00011737331850524928,0.0006548248855658111,0.012259826597837477,9.040374667282637e-05,0.00045838524326599465,0.0085902414284244,0.000106607545832687,0.010898643348807675,29,2025-10-03T11:00:34.004090
2,315,399.13793103448273,shutdown,7.791619141000817e-05,1.7303330683726984e-07,7.867486019554488e-05,6.232865830739439e-05,2.0633632470135875e-07,6.300272042614778e-05,7.141053622002657e-05,7.199835132289639e-05,0,2025-10-03T11:03:34.006893
2,318,372.41379310344826,shutdown,7.37906368770081e-05,1.7179341886819097e-07,7.434763933397529e-05,5.9032876571858895e-05,1.652198898617463e-07,5.9899498919441965e-05,6.763087888912026e-05,6.801988948091808e-05,0,2025-10-03T11:06:34.009641
2,321,345.6896551724138,shutdown,6.965949823952678e-05,1.5429198549942274e-07,7.014505298562674e-05,5.5728217900260436e-05,1.763658166908115e-07,5.660707227354938e-05,6.384463444725849e-05,6.430466620084647e-05,0,2025-10-03T11:09:34.012395
2,324,318.9655172413793,shutdown,6.551759243146344e-05,1.6740937903392747e-07,6.60533521556248e-05,5.242603292118151e-05,1.442466487539316e-07,5.280662732292017e-05,6.005214586497134e-05,6.041439634570894e-05,0,2025-10-03T11:12:34.015194
2,327,292.2413793103448,shutdown,6.138355198277048e-05,1.5113537597673645e-07,6.191195806426059e-05,4.90864226977194e-05,1.5411010216025622e-07,4.98695084007167e-05,5.625270245719195e-05,5.675849773054582e-05,0,2025-10-03T11:15:34.017949
2,330,265.51724137931035,shutdown,0.00018069282534825145,0.0012410091707144124,0.012828460251412432,0.00013219439775089085,0.0008687209577567141,0.008985783707921887,0.00016218117651610887,0.011403476690550217,98,2025-10-03T11:18:34.021122
2,333,238.79310344827582,shutdown,5.309839505651206e-05,1.3407468782617023e-07,5.362182293238153e-05,4.248528917216583e-05,1.1416000557856383e-07,4.283820674404622e-05,4.866799405279124e-05,4.9018330854680245e-05,0,2025-10-03T11:21:34.023852
2,336,212.0689655172414,shutdown,0.00018669877969968265,0.0012883426197989457,0.012237937579206595,0.00013558925680466613,0.0009018605378736596,0.00857158225599466,0.0001672960368567431,0.010878436346449014,113,2025-10-03T11:24:34.026746
2,339,185.34482758620686,shutdown,4.4812964823050315e-05,1.1179351969759326e-07,4.5170623391281205e-05,3.584645325032839e-05,1.0800954620654579e-07,3.627555064651914e-05,4.107082444791106e-05,4.133606659324664e-05,0,2025-10-03T11:27:34.029559
2,342,158.62068965517233,shutdown,4.069359285283727e-05,9.60308785523753e-08,4.101791235603858e-05,3.254073831254568e-05,9.388971051542749e-08,3.295153344839508e-05,3.7291921742410336e-05,3.752530740980089e-05,0,2025-10-03T11:30:34.032347
2,345,131.8965517241379,shutdown,3.654084433378276e-05,8.065776237712738e-08,3.682846890485976e-05,2.924199722598944e-05,8.120859555918837e-08,2.9535530158199802e-05,3.349352150909947e-05,3.372333551549009e-05,0,2025-10-03T11:33:34.035113
2,348,105.17241379310337,shutdown,3.2424621957996674e-05,7.745252747630342e-08,3.2678626452831586e-05,2.592336378723914e-05,7.543476890118673e-08,2.6171437836343306e-05,2.9712528378237864e-05,2.9879357424278173e-05,0,2025-10-03T11:36:34.037844
2,351,78.44827586206895,shutdown,2.8289859819752817e-05,6.822681974379235e-08,2.8532188563847998e-05,2.2608166362690934e-05,7.491915345780816e-08,2.2886218013227938e-05,2.592053986136139e-05,2.6091369889013033e-05,0,2025-10-03T11:39:34.040550
2,354,51.72413793103442,shutdown,0.00021867401827495043,0.0015817287071509221,0.01307985617958767,0.00015548492208760024,0.0011072116742062903,0.009158353298138083,0.00019502826778563728,0.011626182900552125,149,2025-10-03T11:42:34.043358
2,357,25.0,shutdown,1.9996176819405864e-05,4.5041824615451966e-08,2.0167264041605375e-05,1.5995908193156562e-05,4.9404842207357656e-08,1.6179146674276273e-05,1.832660639114593e-05,1.8439279634561408e-05,0,2025-10-03T11:45:34.046037
3,360,25.000000000000007,startup,3.999350425777084e-05,1.7573055524459813e-07,4.053038920696481e-05,3.1966668195575475e-05,1.6222453812107053e-07,3.250224395074063e-05,3.664627523349321e-05,3.7051729267031144e-05,0,2025-10-03T11:48:34.049774
3,363,30.00256798945258,startup,0.00020457545293302108,0.001546484635822235,0.014972015467114377,0.00014733266055780436,0.0010825311962457161,0.010484471122041338,0.00018297234939316782,0.013308308598919719,110,2025-10-03T11:51:34.054104
3,366,36.00616343846898,startup,4.318468420079188e-05,1.848760198976964e-07,4.405832149106683e-05,3.4589885523742756e-05,2.0117948957351598e-07,3.5210660743616366e-05,3.959436581199194e-05,4.0169828348553014e-05,0,2025-10-03T11:54:34.056948
3,369,43.2110946640803,startup,4.528233666455482e-05,2.0426737893634236e-07,4.5893616788816286e-05,3.623678470909081e-05,1.9954658922250994e-07,3.698039680464561e-05,4.150650627816963e-05,4.200772433387246e-05,0,2025-10-03T11:57:34.059748
3,372,51.85775222230962,startup,0.00015041631079336728,0.0011356787214583176,0.012718070017877942,0.00011007136832220425,0.0007949650208275192,0.00890744064010247,0.00013501614960680327,0.01130505825152896,81,2025-10-03T12:00:34.062741
3,375,62.23462947320119,startup,5.0832511880752626e-05,2.1654761074564499e-07,5.1592142453138766e-05,4.064987897852573e-05,2.3167164543854942e-07,4.145401458723852e-05,4.6584808969904424e-05,4.7242939559859486e-05,0,2025-10-03T12:03:34.065507
3,378,74.6879480827243,startup,0.0001532686537082989,0.001093348799545002,0.012252629845832566,0.00011277896241835002,0.0007653286859437567,0.0085821317523096,0.00013775026303188546,0.010891539455887061,81,2025-10-03T12:06:34.068465
3,381,89.63320961378561,startup,5.879691454886866e-05,2.5342763937636964e-07,5.971877060529814e-05,4.696930173000602e-05,2.702011291357463e-07,4.78725430360113e-05,5.386729425781256e-05,5.458918772792253e-05,0,2025-10-03T12:09:34.071236
3,384,107.56905862201826,startup,6.394059209055653e-05,2.84596345694993e-07,6.50203614814825e-05,5.1161402683793456e-05,2.6617209264992316e-07,5.203382837853381e-05,5.860704952137057e-05,5.9361320322705396e-05,0,2025-10-03T12:12:34.073854
3,387,129.09391979474051,startup,7.019268267099052e-05,3.3070622430309665e-07,7.133338795940092e-05,5.6160004189569526e-05,3.2330688466485387e-07,5.730714890892238e-05,6.433624680956415e-05,6.519670087727767e-05,0,2025-10-03T12:15:34.076632
3,390,154.92596422666574,startup,0.00018836168804538646,0.001224358643924638,0.013737777981368044,0.000139627642644973,0.0008570357190451819,0.009624122102811564,0.00016957139163819795,0.012211938243992892,81,2025-10-03T12:18:34.079678
3,393,185.92707100168144,startup,0.0005454442622808041,0.0026562313147482615,0.024146720153202975,0.00039046843252851587,0.001859357759027358,0.01691095267459356,0.00048718660226390343,0.021463901940590984,318,2025-10-03T12:21:34.085195
3,396,223.13158355230894,startup,9.751725334821951e-05,3.855543988836078e-07,9.922498551458235e-05,7.808722987372873e-05,4.247305188194501e-07,7.96107726252131e-05,8.940231021718276e-05,9.065232572084603e-05,0,2025-10-03T12:24:34.091842
3,399,267.78082024489464,startup,0.000110490287518761,4.64838465959874e-07,0.00011232611276377553,8.851364424237635e-05,5.282071501619164e-07,9.012911152878578e-05,0.00010130867518353663,0.00010271814771156897,0,2025-10-03T12:27:34.097715
3,402,321.3644906267532,startup,0.00012606425029481016,5.492758726181093e-07,0.00012790460133415508,0.00010093796149993299,5.408548156482744e-07,0.0001025086756584429,0.00011557114150957796,0.00011697720629508979,0,2025-10-03T12:30:34.100626
3,405,385.6703991769983,startup,0.00014461824708193768,6.584465591853101e-07,0.00014696106413574438,0.00011575836551210062,6.03517491849685e-07,0.00011790359318787256,0.00013256917739628088,0.00013402010841711556,0,2025-10-03T12:33:34.108617
3,408,462.8440949130882,startup,0.00026578991710116264,0.0010913727441372878,0.012343380651518623,0.00020274962320174382,0.000763986937151133,0.00865798461229762,0.0002408595012012062,0.010974938981507485,81,2025-10-03T12:36:34.115856
3,411,555.4604570458628,startup,0.0001939072280121524,8.602763252677002e-07,0.0001967626135556334,0.00015509729699241534,8.64558188068444e-07,0.00015843383101365782,0.00017771407953335423,0.0001801394697831862,0,2025-10-03T12:39:34.122905
3,414,666.6096051188359,startup,0.00022623961831898142,9.695664102438325e-07,0.00023016869170255027,0.00018098386055618104,1.0067518233246062e-06,0.00018404496054438987,0.00020735520147614013,0.00020993658463351803,0,2025-10-03T12:42:34.125645
3,417,800.0000000000003,startup,0.0002648938509142608,1.3712922369638787e-06,0.00026926250210469586,0.00021213521435567935,1.1349610315256783e-06,0.00021622070031652275,0.00024285742820556386,0.00024618207053824523,0,2025-10-03T12:45:34.132600
3,420,800.0,operation,0.0004066264891791176,0.0016132509848957087,0.012741879974369623,0.00030366883911140367,0.0011292769521425777,0.008938417538115114,0.00036667432628373,0.011329243069640381,149,2025-10-03T12:48:34.139904
3,423,800.0,operation,0.00018993138165378804,5.72121143261862e-07,0.00019178182251799872,0.00015200975919559264,5.399121166824244e-07,0.00015351458608505377,0.0001740979524831298,0.00017540701337697464,0,2025-10-03T12:51:34.146880
3,426,800.0,operation,0.00019007350003188978,5.253153900795933e-07,0.00019190693515591455,0.00015206715341185874,5.61414907070788e-07,0.00015395323341968237,0.0001742098716931753,0.00017536414961386834,0,2025-10-03T12:54:34.153875
3,429,800.0,operation,0.00018993595971321487,5.627955198268792e-07,0.0001924879551795987,0.00015197578574047558,5.490197184739886e-07,0.00015388857529217498,0.0001740899936131972,0.00017565934214302774,0,2025-10-03T12:57:34.160860
3,432,800.0,operation,0.00019007061267974502,5.637398136943808e-07,0.0001918298223993894,0.00015195759650665427,5.660786665171745e-07,0.0001535832019819303,0.00017417251314928955,0.00017543050858158854,0,2025-10-03T13:00:34.164000
3,435,800.0,operation,0.0001900661133306535,5.344392527770247e-07,0.0001916641300468679,0.00015200478750457052,5.340415441182251e-07,0.00015382191661378444,0.00017418476240187533,0.0001754011262884092,0,2025-10-03T13:03:34.170955
3,438,800.0,operation,0.0001899686527848357,6.062058704668366e-07,0.00019221144334902963,0.0001519566902035123,5.42619322206146e-07,0.00015410704705195517,0.0001741050966783812,0.00017579642708331891,0,2025-10-03T13:06:34.173878
3,441,800.0,operation,0.0003173933584097222,0.0011910613189997751,0.011459146531122507,0.00024112400071994668,0.0008337736774709001,0.008040888933358872,0.0002873413065219242,0.01018943499961338,113,2025-10-03T13:09:34.176804
3,444,800.0,operation,0.00018995012741257863,6.181990452837774e-07,0.00019221606383987717,0.00015201099275336262,5.692932500488448e-07,0.00015398312114361953,0.00017411105958300627,0.00017570424104759066,0,2025-10-03T13:12:34.179751
3,447,800.0,operation,0.0005900553025943435,0.0021277387872619706,0.012384274835978738,0.00043205095363435547,0.001489375073287461,0.0086884372354412,0.0005296884271302472,0.011011682811547943,262,2025-10-03T13:15:34.182998
3,450,800.0,shutdown,0.00015993870554790085,4.07970468154554e-07,0.00016105700758553383,0.00012802057619326618,3.9154064221784155e-07,0.000129579964836451,0.00014661020880251476,0.0001476496723561504,0,2025-10-03T13:18:34.189814
3,453,773.2758620689655,shutdown,0.00015588235149755723,3.4463445679545685e-07,0.00015762680349002523,0.00012466139526134617,3.702303845602108e-07,0.00012590600409570165,0.00014285499392316216,0.00014392463609089076,0,2025-10-03T13:21:34.192730
3,456,746.551724137931,shutdown,0.00036462046824154554,0.0017312228490535958,0.014441764176555936,0.0002704281980294545,0.0012118342616157022,0.010124359292487858,0.00032828068373944437,0.012839380398638552,149,2025-10-03T13:24:34.195929
3,459,719.8275862068965,shutdown,0.000147613561048772,3.568315579348468e-07,0.00014882811178284613,0.00011810422424355999,3.3954710169474295e-07,0.00011942162810882521,0.00013529536972137852,0.00013618170451608515,0,2025-10-03T13:27:34.198814
3,462,693.1034482758621,shutdown,0.00014344459298057445,3.548238302771841e-07,0.00014467998141977982,0.00011483317840092929,3.171315646769252e-07,0.00011590564083292596,0.00013149556537689382,0.0001322731783507307,0,2025-10-03T13:30:34.201753
3,465,666.3793103448276,shutdown,0.00013928663912154957,3.3814177822783193e-07,0.00014024716489730515,0.00011148422546193926,3.271931589020569e-07,0.00011266246447641376,0.00012767729818492524,0.00012837420900395463,0,2025-10-03T13:33:34.204529
3,468,639.655172413793,shutdown,0.0001351875505184734,2.9437350736725874e-07,0.00013614278002912542,0.00010808859023362596,3.1187907585406553e-07,0.00010924554008445856,0.0001238822732175113,0.00012476196200575555,0,2025-10-03T13:36:34.207325
3,471,612.9310344827586,shutdown,0.0002687897766195076,0.0012889010331684735,0.01232539451563381,0.00020125067020183604,0.0009022369782137705,0.008641043062438247,0.000242526218002948,0.010957920100916181,113,2025-10-03T13:39:34.210311
3,474,586.2068965517242,shutdown,0.00012680841955096614,3.3596554791100734e-07,0.00012785589040775007,0.00010154373317693423,2.982839509307226e-07,0.00010249473922873846,0.00011625453924473302,0.0001169843847738299,0,2025-10-03T13:42:34.213103
3,477,559.4827586206897,shutdown,0.0001227504612824016,2.9109146073313385e-07,0.00012386232451578092,9.82073586858308e-05,2.889219416834357e-07,9.910005723291826e-05,0.0001125057939081774,0.00011310289731170132,0,2025-10-03T13:45:34.215910
3,480,532.7586206896551,shutdown,0.00011857824601690337,3.0970418538479353e-07,0.00011980354746484487,9.48775475866948e-05,2.7269952538761474e-07,9.579805342843308e-05,0.00010868437041174013,0.00010947687935395072,0,2025-10-03T13:48:34.218655
3,483,506.0344827586207,shutdown,0.00011447669814640205,2.866800635809524e-07,0.00011552497997660688,9.161813077766821e-05,2.5482794365650465e-07,9.236561152370899e-05,0.00010493243701666329,0.00010570213504396158,0,2025-10-03T13:51:34.221399
3,486,479.31034482758616,shutdown,0.0001103498434752435,2.5849153236984114e-07,0.00011134846858248585,8.827458679984601e-05,2.5031858270125733e-07,8.915259293411074e-05,0.00010113630512951923,0.00010186880191328394,0,2025-10-03T13:54:34.224092
3,489,452.5862068965517,shutdown,0.00033558998992786474,0.001705081931043444,0.013184495203583089,0.000245602646073695,0.0011935422368653903,0.00923980464095915,0.00030123405922826107,0.011720989950821404,178,2025-10-03T13:57:34.227202
3,492,425.8620689655172,shutdown,0.0001020561215197228,2.450591425192832e-07,0.00010281531345912768,8.169144771917902e-05,2.574819828171915e-07,8.262977204393159e-05,9.355207220324474e-05,9.414813649676003e-05,0,2025-10-03T14:00:34.229905
3,495,399.13793103448273,shutdown,9.794942688411894e-05,2.1745365838581756e-07,9.871335318905331e-05,7.837729140964282e-05,2.3853516031222035e-07,7.913751822737742e-05,8.977855654050721e-05,9.036879025922404e-05,0,2025-10-03T14:03:34.232639
3,498,372.41379310344826,shutdown,9.381004463450989e-05,2.2821333159490784e-07,9.476921904140326e-05,7.50252565009527e-05,2.1658693426733882e-07,7.595320873377131e-05,8.597155365150356e-05,8.655413566028118e-05,0,2025-10-03T14:06:34.235407
3,501,345.6896551724138,shutdown,8.963382962572093e-05,2.127006119124479e-07,9.070147728360951e-05,7.173729726141569e-05,2.0378107877173885e-07,7.272765449854439e-05,8.216124572176246e-05,8.289127443683059e-05,0,2025-10-03T14:09:34.238124
3,504,318.9655172413793,shutdown,0.00014104946256630687,0.0007915658994417865,0.011421621483642602,0.0001073273603860689,0.0005541110536585422,0.008003951598514462,0.00012774776978912442,0.010153659258945597,49,2025-10-03T14:12:34.241063
3,507,292.2413793103448,shutdown,8.140022766140203e-05,1.843506216720393e-07,8.199314897427076e-05,6.505752621375697e-05,1.9273510184644151e-07,6.563177827162745e-05,7.458455442559834e-05,7.509939537400717e-05,0,2025-10-03T14:15:34.243869
3,510,265.51724137931035,shutdown,7.72663574655535e-05,1.8889645247001188e-07,7.7998882773194e-05,6.17919586762838e-05,1.8324598384955845e-07,6.256217926266652e-05,7.080942100472898e-05,7.144580599193357e-05,0,2025-10-03T14:18:34.246695
3,513,238.79310344827582,shutdown,7.312629046157592e-05,1.7286825885577268e-07,7.367766084086007e-05,5.846807927194449e-05,1.8378764055286483e-07,5.934793374715144e-05,6.701107239553686e-05,6.746553419282014e-05,0,2025-10-03T14:21:34.249438
3,516,212.0689655172414,shutdown,6.897101444031247e-05,1.6706314564362112e-07,6.962243526037067e-05,5.517572873361907e-05,1.6558012559018067e-07,5.5829593013361314e-05,6.321308666567616e-05,6.365215877101234e-05,0,2025-10-03T14:24:34.252188
3,519,185.34482758620686,shutdown,6.484159660361055e-05,1.5046373153449112e-07,6.533387603181671e-05,5.186420664003194e-05,1.4885478564622336e-07,5.23670008492857e-05,5.9425742694140916e-05,5.982231888829147e-05,0,2025-10-03T14:27:34.255058
3,522,158.62068965517233,shutdown,6.068439913771393e-05,1.5262601872940783e-07,6.12164230066738e-05,4.855028865008251e-05,1.4092008001497471e-07,4.906656064616066e-05,5.561948667287147e-05,5.613641766550623e-05,0,2025-10-03T14:30:34.257838
3,525,131.8965517241379,shutdown,5.655164058247506e-05,1.3872761608507258e-07,5.698146358992083e-05,4.523945197909887e-05,1.395045648189262e-07,4.564656355322348e-05,5.183017996677715e-05,5.21295584712389e-05,0,2025-10-03T14:33:34.260595
3,528,105.17241379310337,shutdown,5.2407740409860316e-05,1.1821188846499167e-07,5.2797163346906954e-05,4.193830188218223e-05,1.2986702813087305e-07,4.236192965438209e-05,4.8036795653030087e-05,4.8309496162713204e-05,0,2025-10-03T14:36:34.263421
3,531,78.44827586206895,shutdown,4.827558559094263e-05,1.08471967390303e-07,4.873061848612955e-05,3.860578840105958e-05,1.1274876196533662e-07,3.896758886358754e-05,4.424083681696622e-05,4.458611326174581e-05,0,2025-10-03T14:39:34.266221
3,534,51.72413793103442,shutdown,0.0001755566806888726,0.0012291837467064185,0.011673330791802224,0.0001272923276702808,0.0008604279993754927,0.00817582908584203,0.000157254689459318,0.010376493326776176,113,2025-10-03T14:42:34.269149
3,537,25.0,shutdown,3.9999275732499714e-05,1.0309767048391618e-07,4.025592881849629e-05,3.2013002825436086e-05,1.0285754179474868e-07,3.241421402227152e-05,3.6664702022914884e-05,3.689781634197724e-05,0,2025-10-03T14:45:34.271974
4,540,25.000000000000007,startup,5.9995909310782837e-05,2.5458201856827425e-07,6.098510828826162e-05,4.79870091567678e-05,2.4369616092194987e-07,4.884839086069279e-05,5.4985154769707503e-05,5.572003173700444e-05,0,2025-10-03T14:48:34.275915
4,543,30.00256798945258,startup,0.00040687061176910167,0.001971081594981342,0.011777306377235628,0.0002909159145045752,0.0013797584258015679,0.008250366669977034,0.0003633159271960056,0.010469176520930957,298,2025-10-03T14:51:34.280070
4,546,36.00616343846898,startup,6.318100532623727e-05,2.828570037935386e-07,6.413995698221898e-05,5.054892764277159e-05,2.6247953478659874e-07,5.161554619232498e-05,5.790902089073441e-05,5.864636620239472e-05,0,2025-10-03T14:54:34.282839
4,549,43.2110946640803,startup,0.0002431810589577036,0.0014464292639347835,0.01200464074610942,0.0001767671961303147,0.0010124477675150022,0.008409486432784453,0.00021795305192969682,0.010671337524958913,149,2025-10-03T14:57:34.285846
4,552,51.85775222230962,startup,0.00018859181324105514,0.0013357740782731962,0.01497090655979449,0.00013872430260328153,0.0009350069001238912,0.010485922315224477,0.00016947755006776094,0.0133078435235822,81,2025-10-03T15:00:34.288799
4,555,62.23462947320119,startup,0.0001297758953102693,0.000840331702393934,0.01210531683634183,9.791363315515284e-05,0.000588239387210851,0.008481089894362722,0.0001173046565833,0.010761082951347995,49,2025-10-03T15:03:34.291718
4,558,74.6879480827243,startup,7.442909410619942e-05,3.422437754716763e-07,7.609705145755476e-05,5.957063109676864e-05,3.264529064881295e-07,6.112462925638641e-05,6.822611012128781e-05,6.941502452715345e-05,0,2025-10-03T15:06:34.294431
4,561,89.63320961378561,startup,7.877186262057445e-05,3.1378009559050883e-07,8.026864468575018e-05,6.300328764261234e-05,3.5416021060986336e-07,6.438448962090565e-05,7.219277306968421e-05,7.321984968332053e-05,0,2025-10-03T15:09:34.297174
4,564,107.56905862201826,startup,0.0001347516506480262,0.0007239463495938697,0.010451898751152084,0.00010274903375537785,0.0005067571300195285,0.007324637429767673,0.0001221038812657674,0.009291663764805433,0,2025-10-03T15:12:34.300103
4,567,129.09391979474051,startup,9.018948035655687e-05,3.9647901180593583e-07,9.166397320978208e-05,7.217707072863128e-05,3.962112431125882e-07,7.362762501923153e-05,8.267034155800468e-05,8.380480921791991e-05,0,2025-10-03T15:15:34.302797
4,570,154.92596422666574,startup,0.00028326505801133,0.0015090547703948682,0.012554450879771424,0.00020811582087787537,0.001056301226074121,0.008797491655336257,0.000254492622749721,0.011160720379468794,149,2025-10-03T15:18:34.305797
4,573,185.92707100168144,startup,0.00010680327717017395,4.80043362644159e-07,0.00010875053985621143,8.534078096249668e-05,4.903000204841401e-07,8.742009015782187e-05,9.785598640633987e-05,9.919446645636842e-05,0,2025-10-03T15:21:34.308576
4,576,223.13158355230894,startup,0.0002531036145352154,0.0012681631405620068,0.012115734450009349,0.00018887389130810536,0.0008877233352060376,0.008493099578255848,0.00022819759318804688,0.010771367836436821,113,2025-10-03T15:24:34.311570
4,579,267.78082024489464,startup,0.0004084563642183768,0.0018155836597615169,0.013279915879635793,0.0002990347569817981,0.001270926885523952,0.009309884643484702,0.0003666670001817721,0.011806344432465078,230,2025-10-03T15:27:34.314737
4,582,321.3644906267532,startup,0.00014599505920592063,7.040765915610879e-07,0.0001483021075631929,0.00011678155470654943,6.20625383992518e-07,0.00011962556778663994,0.0001338056711206422,0.00013575341818692355,0,2025-10-03T15:30:34.317577
4,585,385.6703991769983,startup,0.00016465164920956927,7.235160341287788e-07,0.00016711876420631155,0.0001317990326700558,7.409102653822953e-07,0.0001345494514032931,0.00015093549864249624,0.0001526748978133395,0,2025-10-03T15:33:34.320348
4,588,462.8440949130882,startup,0.00018698017461749242,8.68265848010967e-07,0.00018942914873782093,0.00014967852367116482,8.643322011113728e-07,0.00015271560171832257,0.00017140577300044346,0.00017325703081680675,0,2025-10-03T15:36:34.323075
4,591,555.4604570458628,startup,0.00040468870694276404,0.001551219615556469,0.013018720481482648,0.0003046698641099546,0.0010857846751895967,0.009133948207474435,0.0003656080969934626,0.011575950040615051,149,2025-10-03T15:39:34.326087
4,594,666.6096051188359,startup,0.00024603462394122373,1.092920317281865e-06,0.00024947082914776716,0.0001969832203175148,1.116618320421624e-06,0.00020107070364902294,0.0002255510855738904,0.00022789462252187048,0,2025-10-03T15:42:34.328867
4,597,800.0000000000003,startup,0.00039940023121768763,0.0012677248505833171,0.01442990548814555,0.00030829692715792645,0.0008876033990741643,0.010131147456021566,0.00036295268752212066,0.012832062641887564,81,2025-10-03T15:45:34.331910
4,600,800.0,operation,0.0002098446672980718,6.205996363306617e-07,0.00021167729763918865,0.00016805843749653692,6.105841852136478e-07,0.00017002228177934013,0.00019238793642097865,0.00019399189881043598,0,2025-10-03T15:48:34.338587
4,603,800.0,operation,0.00021004576528734243,6.816118304842297e-07,0.00021231360553935845,0.0001679434612956386,5.846815769966245e-07,0.00017026519381436238,0.00019248192046139866,0.00019392455995525498,0,2025-10-03T15:51:34.341477
4,606,800.0,operation,0.0002100836298322749,6.332980117104675e-07,0.00021211764812519859,0.00016810860932243163,6.825482108539145e-07,0.00017027779908857142,0.00019256105288569016,0.00019387469902543418,0,2025-10-03T15:54:34.344209
4,609,800.0,operation,0.00020985077951501897,6.838710410654735e-07,0.00021324288098876676,0.00016794663769638044,5.967122772273503e-07,0.00017013365644696796,0.00019235529018342206,0.0001946571544635434,0,2025-10-03T15:57:34.349402
4,612,800.0,operation,0.0002100176391728395,6.403219925131524e-07,0.00021212097197024726,0.00016800259444927005,5.750708032538872e-07,0.000170777690778817,0.0001924827682928616,0.0001939144843279077,0,2025-10-03T16:00:34.352306
4,615,800.0,operation,0.0004314939484598985,0.0018017015174611462,0.015082409570073074,0.00032311919124240084,0.0012612244098774747,0.010578653490954566,0.0003893465158302497,0.013410200663570905,149,2025-10-03T16:03:34.355274
4,618,800.0,operation,0.0004911557126740469,0.0018409899694552556,0.013310603946621955,0.0003647458402882935,0.0012887117500192176,0.009339298282152273,0.00044232118851553556,0.011835342390239095,149,2025-10-03T16:06:34.358539
4,621,800.0,operation,0.00021009602511695463,6.371925340183238e-07,0.0002127292333908651,0.0001679759215406916,6.434300870212509e-07,0.00017078828140522267,0.00019252546314155495,0.0001943289318026168,0,2025-10-03T16:09:34.361341
4,624,800.0,operation,0.00021002095099157767,6.260439983596906e-07,0.00021226327841099011,0.00016804898357768096,5.848692190226289e-07,0.0001706190814260653,0.0001925001423120627,0.00019385860127588483,0,2025-10-03T16:12:34.364069
4,627,800.0,operation,0.0002632399821709961,0.000758758779008505,0.011076528257855784,0.0002053296544445239,0.0005311119667794931,0.007774916026241948,0.00023980616838433137,0.00984985891213567,0,2025-10-03T16:15:34.367104
4,630,800.0,shutdown,0.0001800198018659163,4.35773343830859e-07,0.0001816879600387403,0.0001440730114813166,4.2005259980107867e-07,0.0001455213278064417,0.00016501081511003082,0.0001661348746196039,0,2025-10-03T16:18:34.370960
4,633,773.2758620689655,shutdown,0.00017590931180754037,4.0007602186096985e-07,0.00017797127950221675,0.0001406487649541854,4.1601962514120336e-07,0.0001419894162973136,0.0001611989501954752,0.00016270684258587993,0,2025-10-03T16:21:34.373655
4,636,746.551724137931,shutdown,0.00017170572710372667,4.293367026605348e-07,0.00017294556967208422,0.0001372816028934698,4.0841097559862124e-07,0.00013855670919868553,0.00015734482974764146,0.0001582323487522267,0,2025-10-03T16:24:34.376415
4,639,719.8275862068965,shutdown,0.00021777957916447162,0.0007148459525191234,0.010405175609267361,0.0001691319230599142,0.000500397880338606,0.007300346042633308,0.00019818107121468656,0.009252051462851749,0,2025-10-03T16:27:34.379397
4,642,693.1034482758621,shutdown,0.00020364734201620496,0.0007454019988573427,0.014025823956381281,0.00015886109955761914,0.0005217814066523071,0.00983431155277086,0.00018551901461971745,0.012470055173014204,29,2025-10-03T16:30:34.382388
4,645,666.3793103448276,shutdown,0.00015932971844760614,3.5920103261184665e-07,0.0001608245898057841,0.00012746861331741592,3.3957589407763847e-07,0.00012901488928867617,0.00014603070010232516,0.00014694540100118332,0,2025-10-03T16:33:34.385102
4,648,639.655172413793,shutdown,0.00015512547057735626,3.7807537787258393e-07,0.0001563411456511321,0.0001241434281180597,3.391611108887157e-07,0.0001254518101737809,0.00014218997503824787,0.0001432449290570427,0,2025-10-03T16:36:34.387854
4,651,612.9310344827586,shutdown,0.00015104808646613298,3.5748014906691217e-07,0.0001522653516363244,0.00012079707282909635,3.3831034359808524e-07,0.00012206197767360936,0.0001384253319087839,0.00013936042605481198,0,2025-10-03T16:39:34.390636
4,654,586.2068965517242,shutdown,0.0002144777421215438,0.0009629322885358264,0.013937185769521156,0.00016486875364992546,0.0006740777753836781,0.009771169971634342,0.00019471210987865304,0.012390997990269036,49,2025-10-03T16:42:34.393611
4,657,559.4827586206897,shutdown,0.00014289894162664344,3.2836327351843935e-07,0.0001439840989789419,0.00011417567579146639,3.1689569208359853e-07,0.00011520734111501094,0.0001309231514423533,0.00013167417056596283,0,2025-10-03T16:45:34.396415
4,660,532.7586206896551,shutdown,0.00013866160561337165,2.915984147349638e-07,0.00013993396640521615,0.00011092378044036595,3.279186520523192e-07,0.00011207694664579172,0.0001270845098014605,0.00012809490864506667,0,2025-10-03T16:48:34.399540
4,663,506.0344827586207,shutdown,0.0001344700787762206,3.4822547863772533e-07,0.00013578160316383807,0.00010761777463378466,2.951844297635376e-07,0.00010860812501149355,0.00012325847910841473,0.00012412605712974834,0,2025-10-03T16:51:34.402343
4,666,479.31034482758616,shutdown,0.00013036045147204426,3.1542204619530516e-07,0.0001311924412063338,0.00010426821849177182,3.5287885397196437e-07,0.00010580492315601724,0.0001194716448931594,0.00012032270472275387,0,2025-10-03T16:54:34.405053
4,669,452.5862068965517,shutdown,0.00019666188394864976,0.0010042691242718564,0.014508553868875259,0.0001502401343948472,0.0007030102253154521,0.010168848577767248,0.00017827556782162334,0.012898331326563912,49,2025-10-03T16:57:34.408087
4,672,425.8620689655172,shutdown,0.00012202647187570092,3.3949311874724914e-07,0.0001231111162834993,9.765835856566454e-05,2.6932295133775237e-07,9.859585055402436e-05,0.00011185211852885608,0.00011273390530129181,0,2025-10-03T17:00:34.410852
4,675,399.13793103448273,shutdown,0.00011792685075230364,2.794957091313709e-07,0.00011893006328508788,9.437682316918372e-05,2.9919592593480295e-07,9.56270833895013e-05,0.00010809414340611569,0.0001088634392196016,0,2025-10-03T17:03:34.413581
4,678,372.41379310344826,shutdown,0.00011381218663183596,2.5069497616958794e-07,0.00011469189971768834,9.101824760522445e-05,2.5446813906814306e-07,9.183499633656025e-05,0.00010430102943979488,0.00010486194628029713,0,2025-10-03T17:06:34.416379
4,681,345.6896551724138,shutdown,0.00014021721622805355,0.0005672251676757089,0.01065814186685149,0.00010915731884584163,0.0003970442865701392,0.00747184800659453,0.00012767705677499714,0.009475645223093668,0,2025-10-03T17:09:34.419352
4,684,318.9655172413793,shutdown,0.00015755843886084748,0.000741378432329817,0.010723204803055343,0.0001208079340546131,0.00051892553254316,0.007516268028302659,0.00014295029587002692,0.009533253644455113,0,2025-10-03T17:12:34.422377
4,687,292.2413793103448,shutdown,0.00010139896359439542,2.3901572817977575e-07,0.00010229778136449062,8.106293400750876e-05,2.4467586501903683e-07,8.187954944963583e-05,9.291592423421866e-05,9.357091527163217e-05,0,2025-10-03T17:15:34.425158
4,690,265.51724137931035,shutdown,9.723937426164073e-05,1.9883828044389776e-07,9.786488000139457e-05,7.781850424496561e-05,2.5094561663459066e-07,7.867924249849882e-05,8.913091744380446e-05,8.97213400719251e-05,0,2025-10-03T17:18:34.427914
4,693,238.79310344827582,shutdown,0.00025227649666735797,0.0012940682102130046,0.010774713981971083,0.00018588953130167405,0.0009058590308445291,0.007551836224287902,0.00022679528132516175,0.00957879362909171,0,2025-10-03T17:21:34.430800
4,696,212.0689655172414,shutdown,8.895412193185479e-05,1.990905743204611e-07,8.962821734490122e-05,7.117842032464052e-05,2.155868069494619e-07,7.206945597659081e-05,8.153335697090658e-05,8.21015932952366e-05,0,2025-10-03T17:24:34.433584
4,699,185.34482758620686,shutdown,8.482253698210216e-05,1.8046629476857644e-07,8.533903734583223e-05,6.784892272243423e-05,2.0133233695224092e-07,6.84283444550484e-05,7.773867278545169e-05,7.810782441741514e-05,0,2025-10-03T17:27:34.436377
4,702,158.62068965517233,shutdown,8.067318738760842e-05,1.7531478927391818e-07,8.13908988512031e-05,6.454767308989573e-05,2.1591305347858615e-07,6.560447019411046e-05,7.39417418657931e-05,7.441686955024913e-05,0,2025-10-03T17:30:34.440800
4,705,131.8965517241379,shutdown,0.00018630715357444077,0.0012143419126451334,0.01362445478344293,0.000138040276040543,0.000850043139360985,0.009544980699408527,0.00016770106587619024,0.01211129943251987,81,2025-10-03T17:33:34.443906
4,708,105.17241379310337,shutdown,7.240447677685645e-05,1.721523043823364e-07,7.302953923568847e-05,5.7930475464943495e-05,1.6473989365424395e-07,5.8489609840919796e-05,6.636255187024442e-05,6.683073258929314e-05,0,2025-10-03T17:36:34.446778
4,711,78.44827586206895,shutdown,6.826833784965239e-05,1.6872017719400599e-07,6.899645827135354e-05,5.458416272037665e-05,1.6584108851211976e-07,5.5205300281193375e-05,6.255945850817438e-05,6.31373907663371e-05,0,2025-10-03T17:39:34.449562
4,714,51.72413793103442,shutdown,6.412333219020129e-05,1.4051204548874967e-07,6.460831595734716e-05,5.130037445847818e-05,1.5482487239143478e-07,5.186623098921895e-05,5.87709705172332e-05,5.91792321921779e-05,0,2025-10-03T17:42:34.452303
4,717,25.0,shutdown,6.002024450144674e-05,1.464948063516317e-07,6.053726149112602e-05,4.800411254982414e-05,1.3803291315248806e-07,4.843639804828664e-05,5.500590963573852e-05,5.535886071010063e-05,0,2025-10-03T17:45:34.454991
5,720,25.000000000000007,startup,0.00020097175579284686,0.0013391497983448303,0.015020490141638818,0.00014879200763238598,0.000937435438304394,0.010522861147299625,0.00018087824364854477,0.013352401221602785,81,2025-10-03T17:48:34.459165
5,723,30.00256798945258,startup,8.145498474214297e-05,3.6342012112975414e-07,8.290837359398798e-05,6.51264520898745e-05,3.508161603241813e-07,6.625393614806025e-05,7.464435863184431e-05,7.564388265416195e-05,0,2025-10-03T17:51:34.465747
5,726,36.00616343846898,startup,8.321443838831842e-05,3.6441798857995857e-07,8.429818683593287e-05,6.655825999881945e-05,3.6354434353966107e-07,6.783887702878518e-05,7.62647837696027e-05,7.704010126665692e-05,0,2025-10-03T17:54:34.468786
5,729,43.2110946640803,startup,8.530245254604098e-05,3.680157489007036e-07,8.657084620750715e-05,6.826791676846682e-05,4.017723131193932e-07,6.957192688374393e-05,7.819139664909467e-05,7.910122347585178e-05,0,2025-10-03T17:57:34.471694
5,732,51.85775222230962,startup,0.0001829202536110589,0.001052704135506163,0.011832479883456927,0.0001368856429303703,0.0007368671976366475,0.00829150796419168,0.00016503352036689037,0.010518851082500237,81,2025-10-03T18:00:34.474671
5,735,62.23462947320119,startup,9.082859250816695e-05,3.7871215696767137e-07,9.244966905971951e-05,7.265543442604227e-05,3.8808654502997204e-07,7.397805701661201e-05,8.324536800722703e-05,8.439002883070671e-05,0,2025-10-03T18:03:34.477484
5,738,74.6879480827243,startup,0.00020707928324207518,0.0012464031891001196,0.014000400620137585,0.00015448606000162605,0.0008724832319831989,0.009809845502552478,0.00018669851067171307,0.012445949939686203,81,2025-10-03T18:06:34.480523
5,741,89.63320961378561,startup,9.87078904130399e-05,4.3824556793738485e-07,0.00010022979378832171,7.898154127148302e-05,4.2142946693215124e-07,8.030193481874829e-05,9.04745582957311e-05,9.170779288525053e-05,0,2025-10-03T18:09:34.483382
5,744,107.56905862201826,startup,0.00010398033300319174,4.5698466091983127e-07,0.00010546712268883095,8.320821663298781e-05,4.631788600871324e-07,8.43587003994104e-05,9.53101273869061e-05,9.632338896484432e-05,0,2025-10-03T18:12:34.486128
5,747,129.09391979474051,startup,0.00011021313729308221,4.831431002688839e-07,0.00011216951177824412,8.82960535420081e-05,4.6915482793723653e-07,9.003254376082828e-05,0.00010105573776907435,0.0001024543215225499,0,2025-10-03T18:15:34.488946
5,750,154.92596422666574,startup,0.00011764373938657785,5.050124519069687e-07,0.00012029661543099641,9.414626911767379e-05,5.085399582481384e-07,9.631704476550373e-05,0.00010783510917124056,0.00010938879152197647,0,2025-10-03T18:18:34.491724
5,753,185.92707100168144,startup,0.00021301131174906028,0.0009549689041443792,0.010781091433622164,0.00016167175342347693,0.0006684693491690505,0.007559626585004895,0.00019280065015872782,0.00958526931318394,0,2025-10-03T18:21:34.494685
5,756,223.13158355230894,startup,0.0001967069673501566,0.00084422375636028,0.012228623175805137,0.00015148361098287158,0.0005909556666517219,0.008573217487720967,0.00017865780365319673,0.010872007762189752,49,2025-10-03T18:24:34.497696
5,759,267.78082024489464,startup,0.00015043848890483667,6.718820049842864e-07,0.00015273541746324706,0.00012038596029387638,6.820305338904507e-07,0.0001228494042612344,0.0001378944309502912,0.000139582358737579,0,2025-10-03T18:27:34.500462
5,762,321.3644906267532,startup,0.00016605348144237971,7.496992442028033e-07,0.00016857267810613317,0.00013279695978913415,7.307766976046996e-07,0.0001356980021992678,0.00015217928625279364,0.000153926006640515,0,2025-10-03T18:30:34.503139
5,765,385.6703991769983,startup,0.0004222881185613746,0.0016789196002440763,0.014212474918392528,0.00031405184664231467,0.0011751839097212723,0.009967641479320472,0.0003804328320129206,0.01263639044435875,198,2025-10-03T18:33:34.506165
5,768,462.8440949130882,startup,0.00020719795165501694,8.464181027818914e-07,0.00021006132412300024,0.00016569503410875685,9.214265620367893e-07,0.0001688263520176275,0.0001898843925526068,0.00019189313783097043,0,2025-10-03T18:36:34.508939
5,771,555.4604570458628,startup,0.00023378340443958506,1.1289879423048012e-06,0.000238587892285697,0.00018726688902972403,1.0240843860752377e-06,0.0001902722231152988,0.0002143505788984665,0.00021775157827426723,0,2025-10-03T18:39:34.511637
5,774,666.6096051188359,startup,0.00026627007472642284,1.186576442000196e-06,0.0002693056896083662,0.00021304970411312372,1.213048500557483e-06,0.0002165577855036654,0.00024405784982042445,0.0002464843471347679,0,2025-10-03T18:42:34.514415
5,777,800.0000000000003,startup,0.00030498173288615564,1.4514090518697884e-06,0.00031062698858600233,0.00024415998218887323,1.4472613660213032e-06,0.0002491486631313491,0.0002795854724824506,0.0002837172942677642,0,2025-10-03T18:45:34.517181
5,780,800.0,operation,0.00022984150909048973,6.98136594577352e-07,0.00023245078096056728,0.00018398001666666808,7.440197546077084e-07,0.00018601684684390712,0.00021069074971132018,0.00021268578688477593,0,2025-10-03T18:48:34.523574
5,783,800.0,operation,0.00023006006977393937,6.303319362588842e-07,0.00023199327255748494,0.00018401210579949078,6.779829964738902e-07,0.00018730280517033327,0.00021084428576122029,0.00021228311672454763,0,2025-10-03T18:51:34.526259
5,786,800.0,operation,0.00023000219881976776,7.036759312766993e-07,0.0002333666926694084,0.00018396817406717548,6.500451907287624e-07,0.00018600506923890453,0.00021079213534854952,0.00021314292130931919,0,2025-10-03T18:54:34.529133
5,789,800.0,operation,0.00023004720847372807,7.246253337384477e-07,0.00023340876042084134,0.00018393755242612927,7.047568049406264e-07,0.00018573302918480192,0.00021081171259521242,0.00021274550883021011,0,2025-10-03T18:57:34.531942
5,792,800.0,operation,0.00028717360159921234,0.0008148798330145818,0.011900277307319698,0.00022408041308267056,0.0005703983889016351,0.00835354456304329,0.0002616317148787808,0.010582229997687423,49,2025-10-03T19:00:34.534958
5,795,800.0,operation,0.00022990975371914635,6.800613979170059e-07,0.00023215700093738508,0.00018390315172250863,7.009846557565371e-07,0.0001866727881054635,0.00021071012100508377,0.00021254441162444165,0,2025-10-03T19:03:34.537659
5,798,800.0,operation,0.0002299631128427532,7.175244956041767e-07,0.00023233732093353338,0.00018404109933622235,6.798443492577903e-07,0.00018778872187925693,0.00021079032640393676,0.0002124657209901681,0,2025-10-03T19:06:34.540481
5,801,800.0,operation,0.00023009846565926747,6.995155999041804e-07,0.0002322722427246688,0.00018409529442473799,6.152706787010067e-07,0.00018654118427481164,0.00021089636161234645,0.0002125549914140609,0,2025-10-03T19:09:34.543338
5,804,800.0,operation,0.000230093332168018,6.533374991349358e-07,0.00023280921803451335,0.00018401457630069017,7.087235013226334e-07,0.00018738795997636783,0.00021086676146173916,0.00021271171681530685,0,2025-10-03T19:12:34.546051
5,807,800.0,operation,0.00022988059505326777,6.425029047499217e-07,0.0002325219044316091,0.0001839113839475441,6.389360962660989e-07,0.0001871437215760251,0.0002106935977026482,0.00021220523503971494,0,2025-10-03T19:15:34.548816
5,810,800.0,shutdown,0.00019996386391492289,4.4656536655633545e-07,0.0002016103488167566,0.0001600199376921138,4.940698748186417e-07,0.00016163414935118647,0.0001832873173748887,0.00018419221981286066,0,2025-10-03T19:18:34.553958
5,813,773.2758620689655,shutdown,0.0003852083658708014,0.0014793157460009805,0.013142143108811613,0.00028913919608448025,0.0010355939492417434,0.009220020538172072,0.00034775921590369705,0.011685525215572198,162,2025-10-03T19:21:34.557038
5,816,746.551724137931,shutdown,0.00019172245656365287,4.5829917092065507e-07,0.00019341252750726783,0.00015335083159473734,4.641244352671122e-07,0.00015499177501735232,0.00017570891038245354,0.0001772227321727507,0,2025-10-03T19:24:34.559745
5,819,719.8275862068965,shutdown,0.00018754055133871726,4.4197656691814425e-07,0.00018913295878088976,0.00015003190321666489,4.4387397804263746e-07,0.00015148455890155081,0.00017188482528297398,0.0001731400651642561,0,2025-10-03T19:27:34.562573
5,822,693.1034482758621,shutdown,0.0001833862835266821,4.69841285324831e-07,0.00018503322110205225,0.00014674707006841735,4.735004863722468e-07,0.00014829354508905958,0.00016809016483806553,0.00016923685260102317,0,2025-10-03T19:30:34.565505
5,825,666.3793103448276,shutdown,0.00017929803815259243,4.462106507791378e-07,0.00018073281182182332,0.00014345640644324628,4.149859825515195e-07,0.0001447417865553422,0.0001643364939149873,0.0001653720698461615,0,2025-10-03T19:33:34.568346
5,828,639.655172413793,shutdown,0.000175138699205447,4.1063324596952914e-07,0.0001762375296622977,0.0001401348437043052,4.378341927444457e-07,0.00014209298524626608,0.0001605264556065783,0.00016142333252952386,0,2025-10-03T19:36:34.571076
5,831,612.9310344827586,shutdown,0.00034455427884632554,0.0014102089999516465,0.011811777348196257,0.0002582727433920178,0.0009870982214782783,0.008285394225554674,0.00031096559859104415,0.010502240887955344,149,2025-10-03T19:39:34.574089
5,834,586.2068965517242,shutdown,0.0001669101032558492,4.2602535454109284e-07,0.00016818168371876752,0.00013352380607777473,4.0351721119388706e-07,0.00013506511401580366,0.00015297524970237525,0.00015395981169814623,0,2025-10-03T19:42:34.576899
5,837,559.4827586206897,shutdown,0.000162719016718529,3.69946126141099e-07,0.00016375859468967542,0.00013025358307865026,3.7714356124189133e-07,0.0001315714041257577,0.00014916119623337948,0.00015008252978597578,0,2025-10-03T19:45:34.579669
5,840,532.7586206896551,shutdown,0.00022340143767576705,0.0009231904079642182,0.013380054645796077,0.00017222369669922999,0.0006462869977916383,0.009382752182753449,0.00020294695823282023,0.011896218028017469,49,2025-10-03T19:48:34.582599
5,843,506.0344827586207,shutdown,0.00015448878135931074,3.5975256703365603e-07,0.00015562047607846273,0.0001236080876878334,3.402922989112478e-07,0.00012474881213454296,0.00014159778992274164,0.00014256981915260441,0,2025-10-03T19:51:34.585384
5,846,479.31034482758616,shutdown,0.00026219940711210484,0.0012374975727719732,0.01395649289037696,0.00019856127601992348,0.0008662437424382352,0.009784691554262356,0.00023720234037739147,0.012408192541469939,81,2025-10-03T19:54:34.588379
5,849,452.5862068965517,shutdown,0.00014626084337155198,3.619387018195242e-07,0.00014772113094557965,0.00011696445430836759,3.366289754951648e-07,0.00011801980471896034,0.00013403677565351145,0.0001349970919841586,0,2025-10-03T19:57:34.591167
5,852,425.8620689655172,shutdown,0.0001420588187600951,3.4481963085916465e-07,0.00014317165669041254,0.00011364754686382434,3.254838554103872e-07,0.00011475501035973464,0.0001302002473354149,0.00013095299452850256,0,2025-10-03T20:00:34.594050
5,855,399.13793103448273,shutdown,0.00013796238979013763,3.148572573124929e-07,0.00013906382717024274,0.0001103277932341868,3.155526601112628e-07,0.00011155696347608845,0.00012643172781891252,0.00012739942233233614,0,2025-10-03T20:03:34.596787
5,858,372.41379310344826,shutdown,0.00013375919828290583,3.382358910865038e-07,0.0001351177029875044,0.00010706800702634096,2.8512750522017866e-07,0.00010804066374782358,0.0001226130451751225,0.0001235265078410127,0,2025-10-03T20:06:34.599553
5,861,345.6896551724138,shutdown,0.00012964645217197065,3.191014868678254e-07,0.00013073411066888755,0.00010373919757282342,3.2088964134936486e-07,0.00010483597090239599,0.0001188311399924235,0.00011965501336642473,0,2025-10-03T20:09:34.602320
5,864,318.9655172413793,shutdown,0.0002365437757342991,0.0012289159283047702,0.013836165222498928,0.00017812703341563854,0.0008602657263258298,0.009698198419948605,0.00021371463362921964,0.012300683822218736,81,2025-10-03T20:12:34.605418
5,867,292.2413793103448,shutdown,0.00012136203897073423,2.607338605147008e-07,0.00012241400816091722,9.707110478300971e-05,3.0052590419729507e-07,9.824123655992656e-05,0.00011122491666329111,0.0001121120685217988,0,2025-10-03T20:15:34.608178
5,870,265.51724137931035,shutdown,0.00017460020461434737,0.0008168022793372006,0.011814835628755077,0.00013394476848494036,0.0005717816721755371,0.008282438219114637,0.0001584327857729635,0.010503948773097635,49,2025-10-03T20:18:34.611138
5,873,238.79310344827582,shutdown,0.00011306832181807331,2.6489095959805124e-07,0.00011396426561050907,9.048256982691296e-05,2.759210365386117e-07,9.134481940922644e-05,0.00010363877992824921,0.00010437126844375169,0,2025-10-03T20:21:34.613920
5,876,212.0689655172414,shutdown,0.00010897686239468791,2.516903309535103e-07,0.00010985910097982721,8.71579290715348e-05,2.54308396939473e-07,8.796691753190994e-05,9.987194729452778e-05,0.00010061899529497498,0,2025-10-03T20:24:34.617979
5,879,185.34482758620686,shutdown,0.00010481922156288604,2.754949086434261e-07,0.00010572654153831733,8.386313196683006e-05,2.395167545150103e-07,8.466066702923756e-05,9.607173644187487e-05,9.671402134752692e-05,0,2025-10-03T20:27:34.620849
5,882,158.62068965517233,shutdown,0.0001006874471224631,2.5672452896765764e-07,0.00010165289286346011,8.054397322413349e-05,2.329893834595273e-07,8.129380071743026e-05,9.228034877715319e-05,9.288402004142394e-05,0,2025-10-03T20:30:34.623674
5,885,131.8965517241379,shutdown,0.0002176011876486406,0.0011323976744569287,0.010810331285967423,0.00016200272521579143,0.0007926995689303435,0.007577048962202074,0.00019608569722720336,0.009610631011814905,0,2025-10-03T20:33:34.626639
5,888,105.17241379310337,shutdown,9.24330240433058e-05,2.053221671420388e-07,9.346563542696315e-05,7.395649053509266e-05,2.25953424361921e-07,7.490540447196428e-05,8.472019195484079e-05,8.546733223965949e-05,0,2025-10-03T20:36:34.629429
5,891,78.44827586206895,shutdown,8.824892921429108e-05,2.0065329857166157e-07,8.893146735752198e-05,7.05953171416239e-05,2.1541560563439565e-07,7.121967819362846e-05,8.088080898175425e-05,8.139416324308863e-05,0,2025-10-03T20:39:34.632289
5,894,51.72413793103442,shutdown,0.00011504791437476197,0.0005728963631555013,0.010738180274582695,8.896657981185227e-05,0.00040102399454852944,0.0075251826666200596,0.00010459268364383579,0.009546123709613127,0,2025-10-03T20:42:34.635356
5,897,25.0,shutdown,7.995472132409624e-05,2.0954198076108398e-07,8.060065483815273e-05,6.401117250640782e-05,2.017447088878419e-07,6.486386462430811e-05,7.329584392430543e-05,7.380653977845802e-05,0,2025-10-03T20:45:34.638130
